%chk=000260.chk
%mem=8GB
%Nproc=32
#p B3LYP/6-31G* opt pop=NPA

Template file

0 1
 C           -4.65957157        0.25341127       -0.29130622
 C           -4.49403949       -1.13057222        0.10914411
 C           -3.76286150       -1.14365862        1.36332759
 C           -4.04824340        1.08603321        0.73043301
 C           -3.41839263        0.22465356        1.70304483
 C           -3.21285782        2.04646512        0.05452382
 C           -3.90571809        0.45545835       -1.51810447
 C           -3.10023052        1.63824379       -1.33927427
 C           -3.65239080       -1.77785623       -0.88013889
 C           -3.22450955       -0.77597951       -1.83896145
 C           -2.67956190       -2.10054310        1.22773903
 C           -2.62130323       -2.50923831       -0.16579663
 C           -1.47401369       -1.82590962        1.86264364
 C           -2.10349998        0.48777025        2.07475099
 C           -1.31595575       -0.58391272        2.48688630
 C           -2.05007607        2.48335741        0.67450640
 C           -1.47829621        1.68707822        1.68808038
 C           -1.20810608        3.22143602       -0.14201587
 C           -1.83542774        1.69415758       -1.91909077
 C           -1.04493722        2.75994344       -1.51116284
 C           -1.87191725       -0.73307468       -2.15987983
 C           -1.20535947        0.49712641       -2.30325958
 C           -1.36284305       -2.60545842       -0.74884699
 C           -1.11862217       -1.87697107       -1.91730454
 C           -0.33697476       -2.50134701        1.41808053
 C           -0.28418829       -2.91079547        0.08157616
 C            0.83287751       -2.38692370        2.16364164
 C           -0.12467998       -0.30632931        3.13665825
 C            0.92002439       -1.31423281        3.13496916
 C           -0.15691147        1.92990075        2.11589564
 C            0.49576179        0.98569058        2.90864226
 C            0.08302513        3.61815217        0.35572222
 C            0.62447379        2.89533859        1.48142201
 C            0.36924217        2.76104154       -1.80678111
 C            1.02433283        3.50311597       -0.74324912
 C            0.17537696        0.48401351       -2.57559333
 C            0.96888316        1.60140910       -2.28077989
 C            0.12812814       -1.96827197       -2.51335576
 C            0.78663882       -0.73195305       -2.89509957
 C            0.93958316       -3.20293980       -0.51420932
 C            1.12010842       -2.83514056       -1.90525330
 C            2.12541733       -2.49606324        1.50954241
 C            2.17886007       -2.91098132        0.18674940
 C            2.19361981       -0.64225532        2.94939084
 C            1.92480274        0.76664122        2.72205416
 C            2.94936650       -1.38154762        1.95635172
 C            2.01769467        2.59769492        1.17803492
 C            2.26575394        2.98417638       -0.20816324
 C            2.58975072        1.43524939        1.69653209
 C            2.35040717        1.46302937       -2.11948769
 C            3.01560370        2.14447438       -1.01483182
 C            2.21560915       -0.91190809       -2.68920369
 C            2.41657738       -2.19862444       -2.04159114
 C            3.07882711       -2.25034938       -0.74782158
 C            2.98410690        0.16896596       -2.28907682
 C            3.70815263       -0.67210742        1.03520180
 C            3.60064400        0.78058598        0.98584174
 C            3.89541956        1.19031229       -0.37540987
 C            3.83148279       -1.15853672       -0.33110218
 C            3.94093731       -0.00144499       -1.20523528




