%chk=000806.chk
%mem=8GB
%Nproc=32
#p B3LYP/6-31G* opt pop=NPA

Template file

0 1
 C            4.16782815       -1.22507799       -0.80291646
 C            4.27194581        0.05570734       -0.12984004
 C            3.66386133       -0.07195356        1.18066824
 C            3.45567350       -2.13287735        0.07957318
 C            3.14985195       -1.43129197        1.30039924
 C            2.35542921       -2.68676653       -0.66235437
 C            3.34930199       -1.03166316       -1.98917199
 C            2.26017590       -1.97022448       -1.92579261
 C            3.75308962        1.06302834       -1.02640789
 C            3.02295224        0.36916442       -2.08233354
 C            3.18003023        2.19267173       -0.46760372
 C            2.89883140        0.98206105        1.68506821
 C            2.72996295        2.14519271        0.92299104
 C            1.97160921        0.69384215        2.68464188
 C            1.90937500       -1.61773292        1.90207095
 C            1.56839980       -0.68957640        2.87675112
 C            1.16521098       -2.96522272       -0.00473033
 C            0.89318078       -2.33699913        1.23134641
 C            0.10693244       -3.26931532       -0.84736426
 C            0.99272846       -1.57949717       -2.34642365
 C           -0.01619139       -2.48805900       -2.06834234
 C            1.71020977        0.75188618       -2.36750602
 C            0.67688855       -0.20767919       -2.40687458
 C            2.15273514        2.86895043       -1.23196023
 C            1.39498182        2.09268449       -2.19919049
 C            1.47247878        2.88011269        1.00680742
 C            1.20825005        3.44503937       -0.29293754
 C            0.76995636        1.50410928        2.80014099
 C            0.42285393        2.34548172        1.74963816
 C            0.23841291       -0.68767044        3.43165320
 C           -0.23841291        0.68767044        3.43165320
 C           -0.42285393       -2.34548172        1.74963816
 C           -0.76995636       -1.50410928        2.80014099
 C           -1.20825005       -3.44503937       -0.29293754
 C           -1.47247878       -2.88011269        1.00680742
 C           -1.39498182       -2.09268449       -2.19919049
 C           -2.15273514       -2.86895043       -1.23196023
 C           -0.67688855        0.20767919       -2.40687458
 C           -1.71020977       -0.75188618       -2.36750602
 C            0.01619139        2.48805900       -2.06834234
 C           -0.10693244        3.26931532       -0.84736426
 C           -0.99272846        1.57949717       -2.34642365
 C           -0.89318078        2.33699913        1.23134641
 C           -1.16521098        2.96522272       -0.00473033
 C           -1.56839980        0.68957640        2.87675112
 C           -1.97160921       -0.69384215        2.68464188
 C           -1.90937500        1.61773292        1.90207095
 C           -2.72996295       -2.14519271        0.92299104
 C           -3.18003023       -2.19267173       -0.46760372
 C           -2.89883140       -0.98206105        1.68506821
 C           -3.02295224       -0.36916442       -2.08233354
 C           -3.75308962       -1.06302834       -1.02640789
 C           -2.26017590        1.97022448       -1.92579261
 C           -2.35542921        2.68676653       -0.66235437
 C           -3.34930199        1.03166316       -1.98917199
 C           -3.14985195        1.43129197        1.30039924
 C           -3.66386133        0.07195356        1.18066824
 C           -4.27194581       -0.05570734       -0.12984004
 C           -3.45567350        2.13287735        0.07957318
 C           -4.16782815        1.22507799       -0.80291646




