%chk=000850.chk
%mem=8GB
%Nproc=32
#p B3LYP/6-31G* opt pop=NPA

Template file

0 1
 C            4.29685380        0.02029036        0.37029942
 C            3.91141589       -1.15709747       -0.38371093
 C            3.23901114       -0.72035979       -1.59341612
 C            3.81551414        1.18571838       -0.35091734
 C            3.16974750        0.73544903       -1.56105387
 C            3.03817924        1.97986770        0.56827573
 C            3.59808582       -0.02890915        1.64390811
 C            2.87838788        1.21030737        1.79469289
 C            3.19587080       -2.03699607        0.51445033
 C            2.84311493       -1.25833191        1.69260975
 C            2.23053523       -2.86659493       -0.02906854
 C            2.13240672       -1.43836168       -2.04911328
 C            1.75062800       -2.60643260       -1.38381782
 C            1.21180789       -0.78488742       -2.86403789
 C            1.99201699        1.35453512       -1.96513521
 C            1.19499810        0.66826574       -2.87587184
 C            1.92862662        2.67218938        0.09331184
 C            1.43263088        2.38652934       -1.19108123
 C            1.05732105        3.16057947        1.06365543
 C            1.62282237        1.20304528        2.38979993
 C            0.92013699        2.39751958        2.29274187
 C            1.51026444       -1.22562194        2.10261499
 C            0.90884393       -0.01040075        2.49054265
 C            1.06553544       -3.18149213        0.77279602
 C            0.71496433       -2.33784808        1.82570492
 C            0.36684667       -3.06402322       -1.44893527
 C            0.04019269       -3.63518757       -0.14818146
 C           -0.16776946       -1.24460174       -2.92693822
 C           -0.58246407       -2.31133679       -2.13895827
 C           -0.16558479        1.10102688       -3.12759507
 C           -1.02635476       -0.07511307       -3.06050978
 C            0.23733612        2.97776185       -1.61002839
 C           -0.59784128        2.30190578       -2.59199684
 C           -0.25413243        3.65610591        0.69231324
 C           -0.64490006        3.60232170       -0.63614359
 C           -0.46058603        2.44649496        2.70101142
 C           -1.18965302        3.24572227        1.72905796
 C           -0.44836463        0.00096223        2.87003147
 C           -1.16122154        1.19797517        2.87107881
 C           -0.57598420       -2.39193237        2.32618184
 C           -1.20009886       -1.16699492        2.77818122
 C           -1.27880122       -3.65800024        0.28015722
 C           -1.58210574       -3.16748226        1.61408349
 C           -1.92455891       -2.39515900       -1.78082844
 C           -2.31148816       -3.17126390       -0.61428808
 C           -2.24388736       -0.02741549       -2.37629056
 C           -2.74242466       -1.19257036       -1.79901665
 C           -1.97658488        2.40990035       -2.16110156
 C           -2.01008524        3.21712517       -0.95485732
 C           -2.72738076        1.19362341       -1.90871595
 C           -2.39208198        2.51482674        1.36117330
 C           -2.40039154        1.27176937        2.11123900
 C           -2.80321287        2.50978583        0.03937081
 C           -3.25853775        1.26658801       -0.55492699
 C           -2.51670083       -1.09158482        2.16193741
 C           -2.79304469       -2.36694289        1.53555210
 C           -3.24448140       -2.37202837        0.16559581
 C           -3.40702732       -1.10042473       -0.50913650
 C           -2.89396372        0.10007554        1.54206750
 C           -3.32238144        0.09712774        0.20123653




