%chk=000600.chk
%mem=8GB
%Nproc=32
#p B3LYP/6-31G* opt pop=NPA

Template file

0 1
 C           -4.44899038       -0.24988228        0.89227460
 C           -3.78308019       -1.49153302        1.24035046
 C           -3.59536587       -2.23160015        0.01401862
 C           -4.35307507       -0.09094443       -0.55026522
 C           -3.84323564       -1.32603493       -1.09902333
 C           -3.61464853        1.12612531       -0.80788917
 C           -3.70468749        0.83561572        1.50418104
 C           -3.36122522        1.78209880        0.46495157
 C           -2.60763608       -1.16976795        2.03589117
 C           -2.61985485        0.26536068        2.27123361
 C           -1.38858927       -1.79791519        1.75259340
 C           -2.30317571       -2.83486926       -0.21083876
 C           -1.35943409       -2.83878432        0.81177509
 C           -2.63362708       -1.28381221       -1.90671948
 C           -1.84758834       -2.43874825       -1.53160023
 C           -2.59436695        1.13558794       -1.75526998
 C           -1.97664227       -0.07659887       -2.11646784
 C           -1.85631270        2.30984797       -1.82362368
 C           -2.17477273        2.49971058        0.58906885
 C           -1.64125649        3.03647710       -0.58218393
 C           -1.40763998        0.93466819        2.27271339
 C           -1.30449900        2.18089753        1.63901274
 C           -0.19672746       -1.13543011        2.09237355
 C           -0.25381309        0.19620294        2.51094204
 C            1.04064839       -1.74087070        1.83411767
 C           -0.13139903       -3.38382169        0.47037252
 C            1.04717160       -2.98260134        1.20458759
 C           -0.47247406       -2.43701520       -1.73703291
 C            0.23519672       -3.32325114       -0.93512071
 C           -0.61133854       -0.11031504       -2.42982882
 C            0.15961403       -1.24373932       -2.13061131
 C           -0.61834405        2.32219571       -2.56842134
 C            0.02351645        1.05427147       -2.83731009
 C           -0.28334595        3.55461870       -0.59317300
 C            0.32677655        3.16130365       -1.84874426
 C           -0.10855647        2.88527281        1.75513003
 C            0.47271346        3.49300759        0.56776867
 C            0.91213645        0.87641307        2.82165577
 C            0.97697121        2.29390400        2.51932908
 C            2.23302447       -1.00701767        1.96323180
 C            2.18953610        0.28864122        2.47496737
 C            3.38628956       -1.39957058        1.27668782
 C            2.16462610       -3.35776267        0.36135079
 C            1.67362160       -3.34130659       -1.00855702
 C            3.35599495       -2.54555730        0.39332338
 C            1.56454968       -1.13436952       -2.05931536
 C            2.32768952       -2.24216047       -1.67734792
 C            3.56961041       -2.04152080       -0.95608860
 C            1.43450502        1.21916796       -2.56076397
 C            1.59843315        2.46532821       -1.82346806
 C            2.18495324        0.11993545       -2.17058617
 C            1.86827882        3.07829738        0.49629345
 C            2.21396340        2.53825640        1.79900633
 C            3.00683424        1.32944250        1.85903249
 C            2.36518082        2.46342440       -0.65860136
 C            4.15999894       -0.38690310        0.58499844
 C            4.08728089       -0.69735677       -0.83363069
 C            3.35827120        0.38120785       -1.46419667
 C            3.77680619        1.00153204        0.75594727
 C            3.38150943        1.51224767       -0.55250073




