%chk=001102.chk
%mem=8GB
%Nproc=32
#p B3LYP/6-31G* opt pop=NPA

Template file

0 1
 C            3.80992007        0.10491105        1.98333069
 C            3.24618762       -1.22787477        1.86037113
 C            3.30271594       -1.62155358        0.46547797
 C            4.17386594        0.55302954        0.65361398
 C            3.96334082       -0.55256212       -0.26740563
 C            3.49101006        1.81164991        0.40573520
 C            2.75961070        0.98211590        2.47191722
 C            2.52955122        2.01264872        1.48079350
 C            1.95194803       -1.22069884        2.51164911
 C            1.64110078        0.15393726        2.86272038
 C            0.93036599       -1.98926194        1.96608652
 C            2.18695994       -2.24796090       -0.08594820
 C            1.16828244       -2.68180867        0.77324046
 C            1.93575864       -2.13067339       -1.46022874
 C            3.55037971       -0.26911237       -1.56118600
 C            2.50682344       -1.07839594       -2.16698205
 C            3.11290496        2.11385897       -0.89469122
 C            3.30470973        1.11489770       -1.93649696
 C            1.82553079        2.74452534       -1.12605838
 C            1.21694382        2.36074179        1.16455926
 C            0.96808637        2.99392374       -0.05573121
 C            0.35269486        0.60252420        2.60853803
 C            0.15355071        1.78360182        1.87998150
 C           -0.38262054       -1.65891525        2.30400017
 C           -0.67222500       -0.33570315        2.65285112
 C           -1.40732541       -2.51895293        1.92425706
 C            0.17669586       -3.51991107        0.27333140
 C           -1.13249474       -3.51431031        0.90263452
 C            0.75187643       -2.64860134       -1.97454355
 C           -0.03362793       -3.54867434       -1.15820032
 C           -0.16470797       -1.73025851       -2.63889722
 C            1.62171367       -0.19770580       -2.91357234
 C            2.14114646        1.14354718       -2.80887018
 C            1.25477708        2.17557124       -2.33628132
 C            0.24698748       -0.41272472       -2.82822706
 C           -0.11577262        1.95947983       -2.35374683
 C           -0.60748153        0.64087730       -2.44895712
 C           -0.33875628        3.34509680       -0.37254116
 C           -0.85980439        2.90000119       -1.65610668
 C           -1.15682500        2.20911637        1.63231539
 C           -1.38629969        3.11948218        0.60100937
 C           -1.98212710        0.12672473        2.63999908
 C           -2.22183028        1.48253810        2.17596681
 C           -2.72478995       -1.97991628        1.64663906
 C           -3.04996066       -0.72254470        2.13159984
 C           -2.12998180       -3.35290703       -0.14629419
 C           -1.43437412       -3.25703981       -1.40910699
 C           -1.49865389       -2.00569651       -2.14385424
 C           -2.99091758       -2.25765693        0.24643062
 C           -1.91565912        0.35133982       -2.01616382
 C           -2.26108229       -0.95306045       -1.65062500
 C           -3.18458690       -1.18058223       -0.61610686
 C           -2.28216710        2.71045746       -1.51667105
 C           -2.62929827        3.07729593       -0.15432545
 C           -2.80771470        1.38729384       -1.75267507
 C           -3.52638318        1.49429503        1.53277377
 C           -3.91427411        0.11382314        1.31542748
 C           -3.93095271       -0.11595643       -0.12011663
 C           -3.68428533        2.18533805        0.27168804
 C           -3.84845940        1.17637620       -0.76832717




