%chk=000696.chk
%mem=8GB
%Nproc=32
#p B3LYP/6-31G* opt pop=NPA

Template file

0 1
 C            3.91063635        2.03402948        0.51759151
 C            3.84725216        1.55752174       -0.85420930
 C            4.15138537        0.14849067       -0.83312282
 C            3.89469399        0.86890667        1.38323924
 C            4.20143869       -0.27694238        0.56196028
 C            2.64320990        0.87751867        2.11601151
 C            2.69631961        2.78445019        0.77424189
 C            1.98608831        2.14658316        1.86691737
 C            2.57833121        1.98334505       -1.41149083
 C            1.98891107        2.92881142       -0.48210250
 C            1.73386280        1.06502686       -2.03949988
 C            3.25840385       -0.76498152       -1.51786838
 C            2.07698248       -0.29979970       -2.10317509
 C            3.35968446       -1.45206699        0.67097000
 C            3.19197228       -1.94395663       -0.67970991
 C            1.85374119       -0.26601065        2.16684703
 C            2.24591905       -1.44847146        1.51357516
 C            0.53156272       -0.12154511        2.57605345
 C            0.59499694        2.17280744        1.82212083
 C           -0.12733711        1.09974488        2.35515689
 C            0.60561786        2.99067465       -0.42799785
 C           -0.00383663        2.94084065        0.82669400
 C            0.40979353        1.45487499       -2.26202266
 C           -0.11379593        2.52454203       -1.52579591
 C           -0.44644024        0.58637913       -2.92803962
 C            1.10279991       -1.24678488       -2.44395171
 C           -0.12241333       -0.82605579       -2.95515962
 C            2.17197620       -2.84500364       -0.91271570
 C            1.23717023       -2.55966019       -1.98650009
 C            1.31747798       -2.48700930        1.36599404
 C            1.36863287       -3.28138234        0.21662280
 C           -0.18721398       -1.27218587        2.85985447
 C            0.16287589       -2.48668314        2.15025980
 C           -1.62669415       -1.20889290        2.95863690
 C           -1.53032043        1.16908990        2.35438035
 C           -2.28991229        0.02540573        2.59965128
 C           -1.37350688        3.14086778        0.89288288
 C           -2.15777037        2.24948115        1.73122994
 C           -1.47785875        2.80544399       -1.56834108
 C           -2.09250725        3.31809061       -0.35670821
 C           -1.88279795        0.70151315       -2.74334660
 C           -2.39780037        1.84432654       -2.15637510
 C           -1.33956294       -1.56494141       -2.63307494
 C           -2.36192549       -0.59564627       -2.29278566
 C            0.04658643       -3.34713417       -1.71575282
 C            0.13833761       -3.81433306       -0.34104675
 C           -1.25401391       -2.73396465       -1.89661567
 C           -1.07262784       -3.06621926        1.63283433
 C           -2.17536026       -2.26152756        2.11812113
 C           -1.11287160       -3.51298128        0.32109733
 C           -1.97356273       -2.82665408       -0.63626234
 C           -3.37017903       -0.31994660        1.68548429
 C           -3.04594809       -0.69774198       -1.07915854
 C           -3.05195912       -1.62809753        1.14993355
 C           -2.77393384       -1.76271012       -0.21050197
 C           -3.42943771        2.02267250        1.06301181
 C           -3.40021202        2.70720575       -0.21614852
 C           -3.52750586        1.70140428       -1.25465826
 C           -3.84220626        0.65348069        0.82283655
 C           -3.74514860        0.41580071       -0.61007227




