%chk=001644.chk
%mem=8GB
%Nproc=32
#p B3LYP/6-31G* opt pop=NPA

Template file

0 1
 C            3.73313438        1.15469288        1.14465372
 C            3.20174361        2.39109976        0.61664862
 C            3.18002033        2.28592684       -0.83395964
 C            4.08684197        0.30830734        0.01556045
 C            3.53151423        0.92005899       -1.17943938
 C            3.70483564       -1.05119687        0.35103323
 C            2.89949829        0.36339572        2.02920889
 C            3.15769335       -1.02715417        1.70029781
 C            1.58965167        0.77104593        2.30178205
 C            1.88259397        2.80959879        1.03952240
 C            1.19204909        2.08501269        2.00979470
 C            1.91440877        2.82446108       -1.30292953
 C            1.15303596        3.24473624       -0.13909844
 C            1.25668147        2.17642681       -2.33217118
 C            2.67228878        0.18246353       -1.99223941
 C            1.69549551        0.84531562       -2.73375030
 C            3.08999090       -1.83058062       -0.62056807
 C            2.59383755       -1.20076216       -1.83743364
 C            2.13364061       -2.85069763       -0.22103995
 C            2.22119297       -1.97780755        2.07484886
 C            1.81195791       -2.99898306        1.12151587
 C            0.63617934       -0.19614885        2.65294669
 C            1.02213722       -1.53015866        2.75787630
 C           -0.71952975        0.14258409        2.72951468
 C           -0.13024750        2.45531884        2.22570734
 C           -1.05778196        1.49103702        2.77839835
 C           -0.23633691        3.12786960       -0.11785987
 C           -0.82537755        3.13306424        1.14182172
 C           -0.19312040        2.18032490       -2.34683377
 C           -0.90019862        2.49960704       -1.18656816
 C            0.52345968        0.12133369       -3.20357902
 C           -0.60532355        1.04282078       -3.14628527
 C            1.39184771       -1.91004817       -2.24863335
 C            1.08144927       -2.90063228       -1.22826122
 C            0.35235268       -1.22153118       -2.86415373
 C           -0.24887519       -3.11238099       -0.86065788
 C            0.46809725       -3.40950610        1.47934983
 C            0.02511959       -2.55939741        2.57389913
 C           -0.57093201       -3.39860085        0.46391045
 C           -1.71108629       -0.83300656        2.51488633
 C           -1.33368883       -2.15087827        2.29496921
 C           -1.75202668       -2.78977425        1.05610377
 C           -2.95440077       -0.46327377        2.01210350
 C           -2.38725582        1.92469056        2.38928357
 C           -2.23335461        2.84490690        1.27219447
 C           -3.35601760        0.92618892        2.00121235
 C           -2.21854719        2.03518334       -1.04066519
 C           -2.92357032        2.27757114        0.13694925
 C           -3.79949420        1.24106102        0.65325951
 C           -1.88543895        0.54269144       -2.98580440
 C           -2.72670015        1.08479686       -1.93179949
 C           -0.93041589       -1.75675815       -2.79395391
 C           -1.25861648       -2.67208665       -1.71090543
 C           -2.07767915       -0.89420861       -3.00963279
 C           -2.66892127       -2.13324683        0.23501930
 C           -3.40903520       -1.07407489        0.77315924
 C           -3.90704064       -0.00389084       -0.08565506
 C           -3.56065973        0.00106605       -1.42708206
 C           -2.53582046       -2.25629178       -1.14826703
 C           -3.08525599       -1.23158154       -2.01820443




