%chk=001630.chk
%mem=8GB
%Nproc=32
#p B3LYP/6-31G* opt pop=NPA

Template file

0 1
 C            2.84074668       -2.52106583        1.26052018
 C            3.02701425       -1.38096739        2.12716378
 C            3.84869435       -0.41694015        1.41558316
 C            3.38173771       -2.18894855       -0.04901283
 C            4.01027978       -0.88547514        0.04582867
 C            2.32492596       -2.39188387       -1.02863135
 C            1.49442166       -3.00500367        1.05744606
 C            1.28011797       -3.14767744       -0.37243691
 C            0.44812292       -2.49413081        1.82093428
 C            1.84931938       -0.68777927        2.62260081
 C            0.57621814       -1.21606760        2.38679012
 C            3.28855061        0.90334146        1.65467188
 C            2.06688140        0.73505681        2.42713602
 C            3.31666401        1.84197944        0.63323291
 C            3.83839413        0.01425744       -0.99798164
 C            3.75107501        1.43138144       -0.69218554
 C            1.97010599       -1.34825426       -1.87235845
 C            2.84793900       -0.27137289       -2.02873206
 C            0.64544992       -1.23970512       -2.30512312
 C           -0.02850922       -3.05428279       -0.82941905
 C           -0.32900088       -2.14352538       -1.85484934
 C           -0.81680150       -2.94758571        1.47440957
 C           -1.01380557       -3.37826819        0.10082210
 C           -1.98301401       -2.17667371        1.84730103
 C           -0.52535944       -0.34760619        2.40707880
 C           -1.82237838       -0.86288917        2.26691549
 C            0.96667097        1.54065369        2.16277066
 C           -0.30507390        1.03854042        2.44393450
 C            2.18757774        2.73858639        0.46796733
 C            1.10350231        2.66323984        1.33414602
 C            2.86658427        2.04574984       -1.66856900
 C            2.35746351        1.00215869       -2.53384280
 C            1.91935907        2.88092211       -0.95488905
 C            0.25753814       -0.12323992       -3.04535913
 C            1.04757609        1.08896560       -2.97268666
 C           -1.13323291        0.28530762       -3.05029220
 C           -1.65909163       -1.95315254       -2.24794096
 C           -2.09259282       -0.63633517       -2.68129214
 C           -2.41065596       -3.19866235       -0.22731197
 C           -3.02749342       -2.48400591        0.87914748
 C           -2.74014061       -2.50589586       -1.45089194
 C           -3.15904166       -0.21882334       -1.78897038
 C           -3.81430107       -1.39475520        0.32681484
 C           -3.64469341       -1.41562352       -1.11735403
 C           -2.90711122       -0.00170743        2.12046747
 C           -3.79111354       -0.17012598        0.97781540
 C           -1.37584787        1.92415580        2.46812003
 C           -2.71908513        1.42167927        2.29521748
 C           -0.04019680        3.35283296        0.94886991
 C           -1.27356639        3.12825552        1.67447049
 C            0.59118362        2.93598604       -1.37873132
 C            0.17707021        2.13919210       -2.45141613
 C           -1.18729168        1.62453399       -2.48841909
 C           -0.36098035        3.39828950       -0.47064137
 C           -3.02992657        0.96495743       -1.06161869
 C           -3.65049206        1.03930953        0.18801100
 C           -3.28571145        2.08152455        1.12530199
 C           -2.35359648        3.09894216        0.70221895
 C           -2.05313147        1.90383378       -1.43372681
 C           -1.74794739        2.98479693       -0.60902445




