%chk=000171.chk
%mem=8GB
%Nproc=32
#p B3LYP/6-31G* opt pop=NPA

Template file

0 1
 C            4.26297277        1.55180719        1.07355352
 C            4.57708438        1.27112221       -0.31613588
 C            4.44872002       -0.15800693       -0.51282500
 C            3.83517971        0.31121355        1.69772655
 C            3.95312245       -0.74957321        0.72155337
 C            2.54063829        0.54253678        2.29887605
 C            3.12793036        2.45357792        1.09327808
 C            2.14013950        1.90927323        2.01346639
 C            3.56549533        1.90725387       -1.14462494
 C            2.70735257        2.68599956       -0.27705077
 C            3.66746636       -0.36035301       -1.71967818
 C            2.95252754        0.88369737       -1.97241810
 C            2.96289563       -1.54546145       -1.81790202
 C            2.93607862       -1.69597023        0.61867351
 C            2.81348834       -2.33813482       -0.60939747
 C            1.57024718       -0.44065849        2.20333079
 C            1.80720966       -1.60507487        1.45472841
 C            0.25987917       -0.07265844        2.47997376
 C            0.79487034        2.15008471        1.73144286
 C           -0.16243073        1.22301010        2.16657094
 C            1.34188846        2.68189219       -0.51541207
 C            0.51520653        2.88223629        0.58074874
 C            1.55930770        0.86718343       -2.09130035
 C            0.82392752        1.94339935       -1.58634605
 C            1.64649857       -1.51537277       -2.41963203
 C            0.90402463       -0.33837504       -2.35443254
 C            1.69999485       -3.22801454       -0.83465117
 C            1.02119786       -2.76230207       -2.03804620
 C            0.77298246       -2.54911725        1.33659613
 C            0.69570813       -3.35510172        0.19819703
 C           -0.66737356       -1.07786447        2.67036144
 C           -0.38178534       -2.38477501        2.10429303
 C           -2.07622891       -0.79292213        2.48610810
 C           -1.51360580        1.47584254        1.88119274
 C           -2.46824869        0.45078125        2.00035722
 C           -0.80085820        3.19458748        0.31220203
 C           -1.81634238        2.64592753        1.18187433
 C           -0.56179218        1.97282256       -1.77302695
 C           -1.26368209        2.92573829       -1.03146703
 C           -0.48895853       -0.39600720       -2.23745394
 C           -1.21265191        0.79661984       -2.17715670
 C           -0.39522471       -2.76577497       -1.75395234
 C           -0.57161751       -3.47581965       -0.50257416
 C           -1.13865628       -1.61184390       -1.96267496
 C           -1.63678164       -2.93043658        1.61324764
 C           -2.69218991       -1.98171187        1.92486461
 C           -1.74367338       -3.26803852        0.20578808
 C           -2.44140878       -1.59239679       -1.46926529
 C           -3.51651280       -1.83121146        0.74135816
 C           -2.76084587       -2.39747990       -0.36836522
 C           -3.69207655        0.52906043        1.32284837
 C           -4.15031873       -0.61521017        0.54616391
 C           -3.06047544        2.76631159        0.44683905
 C           -2.70902960        2.88491494       -0.96456018
 C           -4.04157120        1.71769067        0.57048493
 C           -2.60813091        0.72922617       -2.19267241
 C           -3.24879897       -0.50141077       -1.76282351
 C           -4.29211730       -0.14906107       -0.81758299
 C           -3.39415716        1.83582922       -1.67747014
 C           -4.39648986        1.29649906       -0.77580118




