%chk=001049.chk
%mem=8GB
%Nproc=32
#p B3LYP/6-31G* opt pop=NPA

Template file

0 1
 C            2.24781885       -3.61343061        0.60095655
 C            3.22180281       -2.54644465        0.52538896
 C            2.89177730       -1.55872903        1.54063534
 C            1.28792892       -3.25194495        1.62769934
 C            1.59849523       -1.91972734        2.09468597
 C           -0.02057912       -3.46880670        1.07110830
 C            1.53767555       -3.63921281       -0.66786778
 C            0.12714800       -3.65610357       -0.36547547
 C            3.27458612       -2.10192779       -0.85504254
 C            2.03677724       -2.54947465       -1.47496969
 C            3.68060427       -0.79865264       -1.07485626
 C            3.13760767       -0.22754745        1.23718473
 C            3.89064090        0.03722658        0.09040164
 C            2.24688278        0.74463999        1.70165268
 C            0.58147273       -0.96639539        2.11818698
 C            0.92103290        0.38379139        2.01222003
 C           -1.06146368       -2.65157484        1.47782116
 C           -0.75822791       -1.36264741        1.96437568
 C           -2.21914842       -2.81063177        0.73628076
 C           -0.75329812       -2.95389153       -1.18569071
 C           -2.05926802       -2.87045719       -0.70584131
 C            1.12633047       -1.60375477       -1.94994110
 C           -0.24570837       -1.90023378       -1.96860182
 C            2.90132641        0.02265680       -1.98069539
 C            1.55932098       -0.29143721       -2.17785076
 C            3.97242308        1.39214590       -0.41262309
 C            3.26952575        1.39861615       -1.69176761
 C            2.59245071        2.08385440        1.53283931
 C            3.41527056        2.45275436        0.39595341
 C            1.57379424        3.10012633        1.63290891
 C           -0.08058415        1.35347643        2.15356329
 C            0.22179585        2.70351775        1.96363209
 C           -1.76964154       -0.38784687        2.01662551
 C           -1.42674122        0.97217507        2.08959836
 C           -3.34882265       -1.97353868        1.03120758
 C           -3.09832308       -0.76403490        1.77615238
 C           -2.99713056       -1.92901665       -1.28355011
 C           -3.94596375       -1.58581343       -0.23761101
 C           -1.11819054       -0.96011975       -2.51976092
 C           -2.52086484       -0.94659071       -2.13896348
 C            0.62253761        0.73859160       -2.29626976
 C           -0.67920903        0.41961337       -2.64558991
 C            2.22303169        2.39854916       -1.60032658
 C            2.57564829        3.24740518       -0.47980317
 C            1.50984643        3.77290812        0.33824537
 C            0.89548592        2.00275266       -1.76423466
 C           -0.62946597        3.47900093        1.08373747
 C            0.14758027        3.62033766       -0.12443918
 C           -0.13798882        2.75895604       -1.18733490
 C           -2.36819363        1.95550043        1.75870395
 C           -1.93556045        3.06955165        0.94678443
 C           -4.04605816        0.20140880        1.25968956
 C           -4.38204999       -0.21178246       -0.09506191
 C           -3.65091044        1.58335155        1.20331446
 C           -2.92661222        0.44447544       -1.96888596
 C           -1.75694281        1.28267806       -2.19841986
 C           -1.46676043        2.34884167       -1.34639956
 C           -2.40394469        2.74956122       -0.38959743
 C           -3.85534305        0.79787446       -0.99534719
 C           -3.62562388        1.98543035       -0.19873510




