%chk=001380.chk
%mem=8GB
%Nproc=32
#p B3LYP/6-31G* opt pop=NPA

Template file

0 1
 C            4.68925509        0.02000756       -0.25066861
 C            4.13527442        0.76971840       -1.36392144
 C            3.44491409       -0.17000914       -2.23391012
 C            4.19110747       -1.34230662       -0.34296519
 C            3.46354746       -1.47311086       -1.59623107
 C            3.50453738       -1.65361591        0.90176689
 C            4.45435396        0.48705789        1.10233858
 C            3.75407631       -0.56492543        1.82569326
 C            3.72106535        1.72320545        1.30569048
 C            3.23291731        1.88387049       -1.10918444
 C            3.05332376        2.36431395        0.18125950
 C            2.16492930        0.41462311       -2.59959607
 C            2.07575797        1.71848879       -1.96839210
 C            1.02215579       -0.38467051       -2.63115311
 C            2.30225353       -2.23272209       -1.60906957
 C            1.12979269       -1.74012946       -2.31902252
 C            2.22913069       -2.20636656        0.84189513
 C            1.81910121       -2.78550961       -0.35698384
 C            1.26219073       -1.80620831        1.77080349
 C            2.62273476        0.03602998        2.50740037
 C            2.71519872        1.46855490        2.32175356
 C            1.37101252       -0.55918714        2.38902095
 C            1.71874289        2.73739660        0.61846736
 C            1.51238169        2.17798363        1.93885069
 C            0.82308803        2.14859408       -1.55079167
 C            0.64603834        2.69240504       -0.27105046
 C           -0.22735013        0.23392912       -2.53053593
 C           -0.28111435        1.58945592       -2.18259146
 C           -1.37101252       -0.55918714       -2.38902095
 C           -0.02159379       -2.43529198       -1.76221728
 C            0.41913860       -3.11158130       -0.55069577
 C           -1.26219073       -1.80620831       -1.77080349
 C            0.02159379       -2.43529198        1.76221728
 C           -0.41913860       -3.11158130        0.55069577
 C           -1.12979269       -1.74012946        2.31902252
 C            0.22735013        0.23392912        2.53053593
 C            0.28111435        1.58945592        2.18259146
 C           -1.02215579       -0.38467051        2.63115311
 C           -0.64603834        2.69240504        0.27105046
 C           -0.82308803        2.14859408        1.55079167
 C           -1.51238169        2.17798363       -1.93885069
 C           -1.71874289        2.73739660       -0.61846736
 C           -2.62273476        0.03602998       -2.50740037
 C           -2.71519872        1.46855490       -2.32175356
 C           -3.75407631       -0.56492543       -1.82569326
 C           -2.22913069       -2.20636656       -0.84189513
 C           -1.81910121       -2.78550961        0.35698384
 C           -2.30225353       -2.23272209        1.60906957
 C           -3.50453738       -1.65361591       -0.90176689
 C           -3.46354746       -1.47311086        1.59623107
 C           -4.19110747       -1.34230662        0.34296519
 C           -2.16492930        0.41462311        2.59959607
 C           -2.07575797        1.71848879        1.96839210
 C           -3.44491409       -0.17000914        2.23391012
 C           -3.05332376        2.36431395       -0.18125950
 C           -3.72106535        1.72320545       -1.30569048
 C           -4.45435396        0.48705789       -1.10233858
 C           -4.68925509        0.02000756        0.25066861
 C           -3.23291731        1.88387049        1.10918444
 C           -4.13527442        0.76971840        1.36392144




