%chk=000878.chk
%mem=8GB
%Nproc=32
#p B3LYP/6-31G* opt pop=NPA

Template file

0 1
 C            4.13613463       -1.36969102        0.53671181
 C            3.86499385       -1.22639900       -0.88253933
 C            2.78600795       -2.13358634       -1.22679585
 C            3.11705939       -2.24048457        1.09606563
 C            2.35448651       -2.79621995       -0.00239239
 C            2.39800093       -1.49988666        2.11199132
 C            3.97894137       -0.06409864        1.14933851
 C            3.03858830       -0.19986040        2.24536384
 C            3.69895110        0.18365727       -1.16834542
 C            3.67984320        0.89657422        0.10011075
 C            2.79686706        0.55052272       -2.15211474
 C            1.81696289       -1.72938570       -2.14707559
 C            1.88408427       -0.44761906       -2.70257943
 C            0.59937775       -2.40738814       -2.15343062
 C            0.99462492       -3.02057709        0.17441948
 C            0.23186109       -3.17567321       -0.97668124
 C            1.00687655       -1.58255466        2.12425801
 C            0.37360785       -2.55320594        1.34041403
 C            0.25608395       -0.53643006        2.67179975
 C            2.25053180        0.89421513        2.55936382
 C            0.88081691        0.67053521        2.97930623
 C            2.69762592        1.85957794        0.33672713
 C            2.22316739        2.02278842        1.64063003
 C            2.04576775        1.78020944       -1.99002527
 C            1.97243358        2.38899092       -0.73644541
 C            0.65656427        0.24411901       -3.07928428
 C            0.84629358        1.65671355       -2.80289228
 C           -0.60182499       -1.73259350       -2.61868731
 C           -0.57364384       -0.35683288       -2.82674244
 C           -1.21548221       -3.19503787       -0.88377956
 C           -1.73530792       -2.34685506       -1.95128806
 C           -0.99171980       -2.76226794        1.51337451
 C           -1.80046155       -3.16828223        0.37489824
 C           -1.13917658       -0.59787327        2.64684040
 C           -1.75574615       -1.78629842        2.26913655
 C           -1.88551881        0.58302105        2.66216808
 C            0.16546319        1.91461479        2.76354017
 C            0.98014558        2.73776208        1.87993886
 C           -1.21046671        1.86904340        2.59515691
 C            0.95881382        3.31595023       -0.49700099
 C            0.38633501        3.42767728        0.83355031
 C           -0.25419305        2.43993534       -2.50092625
 C           -0.12814587        3.43810452       -1.45396027
 C           -1.69323831        0.42881969       -2.51763902
 C           -1.55527499        1.80817462       -2.36004992
 C           -2.88363016       -1.59626441       -1.74838926
 C           -2.84732931       -0.16749443       -2.00726467
 C           -3.12320735       -2.59218409        0.53440066
 C           -3.10144476       -1.74994162        1.71888051
 C           -3.68412113       -1.81631134       -0.55506543
 C           -3.09084423        0.68893393        1.85456411
 C           -3.56207437        0.50039916       -0.92970372
 C           -3.68611242       -0.46661222        1.37084093
 C           -4.06862125       -0.51770381       -0.02689820
 C           -1.84019493        2.64393173        1.53512008
 C           -1.06336023        3.43699020        0.70047954
 C           -1.37797317        3.47628249       -0.71309832
 C           -2.25624918        2.46122833       -1.26475994
 C           -2.91558732        1.83495673        0.97134306
 C           -3.03636176        1.68188413       -0.41487806




