%chk=001507.chk
%mem=8GB
%Nproc=32
#p B3LYP/6-31G* opt pop=NPA

Template file

0 1
 C            3.71546877       -1.92190610        0.16577514
 C            3.78975077       -1.36559199       -1.17244517
 C            4.02072999        0.06308263       -1.04893823
 C            3.87132882       -0.83060987        1.11265019
 C            3.94464465        0.41017622        0.36008421
 C            2.84964486       -0.97079581        2.13195090
 C            2.53487508       -2.67653230        0.54665444
 C            2.00659724       -2.10186522        1.77412411
 C            1.64624629       -3.09245495       -0.43487306
 C            2.66886752       -1.55782034       -2.07540133
 C            1.70813022       -2.51361808       -1.77396211
 C            3.13725226        0.74345081       -1.97889717
 C            2.23096304       -0.24952248       -2.53547895
 C            2.62842340        1.97795247       -1.61347569
 C            3.15257320        1.49217213        0.74095398
 C            2.77826833        2.41752209       -0.23336543
 C            2.25522896        0.17454681        2.63399469
 C            2.46871227        1.44893403        1.96041717
 C            0.86533438        0.12220740        3.04416325
 C            0.62377385       -2.02025599        1.95819920
 C            0.10086005       -1.00940709        2.78053282
 C            0.24534207       -3.24310511       -0.08926617
 C           -0.22244078       -2.78170234        1.13528479
 C            0.34252354       -2.29529011       -2.21787736
 C           -0.53837688       -2.97203710       -1.28183844
 C            0.86235841        0.02049618       -2.62170288
 C           -0.03455635       -1.04937619       -2.71064214
 C            1.28085050        2.32382855       -2.01995103
 C            0.38638198        1.31315418       -2.35913136
 C            1.70680257        3.35999400        0.03514946
 C            0.83095461        3.36646254       -1.12638120
 C            1.27702949        2.26291933        2.17461422
 C            0.27371452        1.43013305        2.81299610
 C            0.88372819        3.17803196        1.21548005
 C           -1.06363578        1.49903731        2.41996029
 C           -1.27400688       -0.89061100        2.94367776
 C           -1.88357490        0.41769920        2.74871020
 C           -1.60003706       -2.71600972        1.30196397
 C           -2.14108150       -1.88119544        2.34935408
 C           -1.84521989       -2.51119033       -1.14231849
 C           -2.44180438       -2.56302375        0.12167432
 C           -1.39392594       -0.79079903       -2.83709313
 C           -2.33363898       -1.63052013       -2.10695149
 C           -0.98860504        1.53652112       -2.22015298
 C           -1.86124900        0.57617736       -2.72679961
 C           -0.53327769        3.30796683       -0.65315909
 C           -0.50669497        3.21434486        0.79896127
 C           -1.46090915        2.41047468        1.42883247
 C           -1.45642661        2.52474381       -1.33356259
 C           -2.67122399        2.22452257        0.75655431
 C           -2.67707059        2.34898997       -0.69147668
 C           -3.15645244        0.22304751        2.07826855
 C           -3.31418061       -1.20065784        1.82820727
 C           -3.53625605       -1.66361495        0.46830450
 C           -3.55443343        1.12676246        1.10765219
 C           -3.51424352       -0.83245797       -1.83227676
 C           -3.24068591        0.52644369       -2.27510782
 C           -3.65530391        1.42780551       -1.22599515
 C           -4.02381628       -0.77060041       -0.47647991
 C           -4.16423135        0.63297035       -0.12014451




