%chk=000736.chk
%mem=8GB
%Nproc=32
#p B3LYP/6-31G* opt pop=NPA

Template file

0 1
 C            4.21904101       -1.34252484       -0.76267892
 C            4.36854366       -0.06219075       -0.09777769
 C            3.84265068       -0.18809239        1.25344101
 C            3.53456433       -2.23403694        0.15324480
 C            3.18417878       -1.47927458        1.34552733
 C            2.46263044       -2.87326101       -0.58336377
 C            3.34409287       -1.14498396       -1.90542610
 C            2.24614487       -2.09088763       -1.79199421
 C            3.80870572        0.95681903       -0.96914951
 C            3.02777147        0.26999074       -1.98608335
 C            3.28346447        2.09841395       -0.38274529
 C            3.23597178        0.91793629        1.82596987
 C            3.21825862        2.15959372        1.06970218
 C            1.92743014        0.76516469        2.44378594
 C            1.87580086       -1.57042033        1.82441461
 C            1.21495566       -0.42287536        2.28350722
 C            1.34892059       -3.27141626        0.13359855
 C            1.12931357       -2.68302702        1.44893085
 C            0.06246986       -3.25121725       -0.53033724
 C            0.95517187       -1.65346942       -2.09058950
 C           -0.14214554       -2.35535037       -1.57673349
 C            1.70218535        0.63788855       -2.19618759
 C            0.77751273       -0.34650817       -2.54856007
 C            2.03482275        2.64357281       -0.89103084
 C            1.24670380        1.88551202       -1.75767724
 C            2.01267130        2.87951067        1.42938462
 C            1.22769353        2.02978702        2.30849132
 C            1.39730720        3.35432189        0.20398719
 C           -0.15014377        2.01276419        2.14741963
 C           -0.18689697       -0.39603093        2.36700745
 C           -0.85008122        0.84222433        2.43248343
 C           -0.29910171       -2.70115792        1.68892320
 C           -0.91934182       -3.32443173        0.52806445
 C           -0.91240787       -1.59335259        2.26097231
 C           -2.23012650       -2.99733109        0.23055008
 C           -1.43842926       -1.89730358       -1.83797014
 C           -2.50133454       -2.30309040       -1.02041848
 C           -0.47961264        0.04620885       -2.97889733
 C           -1.61076620       -0.82002017       -2.70394343
 C           -0.10116235        2.21788465       -1.91914642
 C           -0.89827152        1.41302447       -2.72894717
 C            0.01883437        3.48495810        0.18579616
 C           -0.73786276        2.96645626        1.31366517
 C           -0.70637909        3.08496541       -1.00657373
 C           -2.10489998        2.77360748        0.85576730
 C           -2.08840061        2.86591547       -0.59882124
 C           -2.23969194        0.89912857        2.40926755
 C           -2.88398589        1.80796766        1.47768222
 C           -2.30565264       -1.57720551        2.27498259
 C           -3.01257291       -2.34816031        1.26585200
 C           -3.00660924       -0.32371418        2.43088111
 C           -3.63147839       -1.40966370       -0.79210985
 C           -3.82650859        1.02824201        0.69307735
 C           -3.96858674       -1.46812917        0.61887285
 C           -4.01483124       -0.23658166        1.38244486
 C           -2.78638449        0.02329613       -2.57622964
 C           -2.33981063        1.40620455       -2.54154219
 C           -2.89879837        2.03085077       -1.35766094
 C           -3.68224057       -0.19084908       -1.45703069
 C           -3.75329629        1.05434799       -0.69806917




