%chk=001189.chk
%mem=8GB
%Nproc=32
#p B3LYP/6-31G* opt pop=NPA

Template file

0 1
 C            4.36313269       -0.94399111        0.59133890
 C            4.47731759        0.47827031        0.84254105
 C            4.22704145        1.16216557       -0.41862314
 C            4.20123475       -1.11574502       -0.84326052
 C            3.77205403        0.16236223       -1.36966958
 C            3.34738501       -2.26161699       -1.03900856
 C            3.28296165       -1.68687035        1.21915488
 C            2.93369164       -2.72674469        0.27851996
 C            2.26085279       -1.00140386        1.87970149
 C            3.60821087        1.06996652        1.83744573
 C            2.48555313        0.29701687        2.34404911
 C            3.37090339        2.30195876       -0.14630323
 C            3.06918487        2.29568555        1.27419557
 C            2.34254929        2.58210014       -1.03327521
 C            2.50220676        0.30159001       -1.93906085
 C            1.96643720        1.58186079       -2.02637524
 C            2.13248772       -2.09562842       -1.80830251
 C            1.66058766       -0.81180262       -2.09712214
 C            1.54494333       -3.11483074        0.16447796
 C            1.21067556       -3.05724081       -1.24490834
 C            0.94689876       -1.49054072        1.84829729
 C            0.61656774       -2.61193598        1.06844780
 C           -0.07757102       -0.69120316        2.36607445
 C            1.36057208        1.20873641        2.46086582
 C            1.68041870        2.39802350        1.69584412
 C            0.07757102        0.69120316        2.36607445
 C            1.10294298        3.13166361       -0.51795189
 C            0.72779199        2.87277398        0.80321910
 C            0.55001646        1.75389447       -2.29713227
 C            0.12528789        2.94087649       -1.57337583
 C            0.28384967       -0.63873236       -2.31980393
 C           -0.28384967        0.63873236       -2.31980393
 C           -0.12528789       -2.94087649       -1.57337583
 C           -0.55001646       -1.75389447       -2.29713227
 C           -0.72779199       -2.87277398        0.80321910
 C           -1.10294298       -3.13166361       -0.51795189
 C           -1.36057208       -1.20873641        2.46086582
 C           -1.68041870       -2.39802350        1.69584412
 C           -2.48555313       -0.29701687        2.34404911
 C           -0.94689876        1.49054072        1.84829729
 C           -0.61656774        2.61193598        1.06844780
 C           -2.26085279        1.00140386        1.87970149
 C           -1.21067556        3.05724081       -1.24490834
 C           -1.54494333        3.11483074        0.16447796
 C           -1.66058766        0.81180262       -2.09712214
 C           -2.13248772        2.09562842       -1.80830251
 C           -1.96643720       -1.58186079       -2.02637524
 C           -2.34254929       -2.58210014       -1.03327521
 C           -2.50220676       -0.30159001       -1.93906085
 C           -3.06918487       -2.29568555        1.27419557
 C           -3.60821087       -1.06996652        1.83744573
 C           -3.37090339       -2.30195876       -0.14630323
 C           -3.77205403       -0.16236223       -1.36966958
 C           -4.47731759       -0.47827031        0.84254105
 C           -4.22704145       -1.16216557       -0.41862314
 C           -3.28296165        1.68687035        1.21915488
 C           -2.93369164        2.72674469        0.27851996
 C           -3.34738501        2.26161699       -1.03900856
 C           -4.36313269        0.94399111        0.59133890
 C           -4.20123475        1.11574502       -0.84326052




