%chk=001145.chk
%mem=8GB
%Nproc=32
#p B3LYP/6-31G* opt pop=NPA

Template file

0 1
 C            4.25652388       -1.11403324       -0.00370484
 C            4.10373359       -0.36261682        1.22854765
 C            3.17302802       -1.08998735        2.07911402
 C            3.48951952       -2.34223800        0.13162128
 C            2.66332061       -2.21550072        1.31677205
 C            2.84293435       -2.60082193       -1.13518662
 C            3.88073472       -0.49683815       -1.26457292
 C            3.10102756       -1.46714060       -2.01069984
 C            3.49680696        0.83918052       -1.29416027
 C            3.65421443        1.01667502        1.16719083
 C            3.47610002        1.63076781       -0.06913321
 C            2.22112868       -0.13255625        2.62003525
 C            2.65225062        1.19129857        2.20613676
 C            0.86323755       -0.44612780        2.59269404
 C            1.28210281       -2.37485379        1.22190885
 C            0.47862467       -1.71192289        2.14984204
 C            1.41295295       -2.83822029       -1.14683062
 C            0.69685556       -2.87088255        0.04616510
 C            1.82955485       -1.06246190       -2.59087870
 C            0.85458040       -2.07803363       -2.24328744
 C            2.34637854        1.23675058       -2.09182931
 C            1.44318890        0.27369131       -2.54873941
 C            2.45003324        2.65186864       -0.22228529
 C            1.85218876        2.48690376       -1.53945556
 C            1.69922907        2.19117569        2.07848252
 C            1.64845657        2.99159333        0.86297192
 C           -0.08307658        0.58389132        2.63226510
 C            0.32899508        1.90568400        2.46579750
 C           -1.44318890        0.27369131        2.54873941
 C           -0.85458040       -2.07803363        2.24328744
 C           -1.82955485       -1.06246190        2.59087870
 C           -0.69685556       -2.87088255       -0.04616510
 C           -1.41295295       -2.83822029        1.14683062
 C           -0.47862467       -1.71192289       -2.14984204
 C           -1.28210281       -2.37485379       -1.22190885
 C            0.08307658        0.58389132       -2.63226510
 C           -0.86323755       -0.44612780       -2.59269404
 C            0.52364476        2.82993132       -1.74285447
 C           -0.32899508        1.90568400       -2.46579750
 C            0.26099632        3.37482405        0.64474076
 C           -0.52364476        2.82993132        1.74285447
 C           -0.26099632        3.37482405       -0.64474076
 C           -2.34637854        1.23675058        2.09182931
 C           -1.85218876        2.48690376        1.53945556
 C           -3.49680696        0.83918052        1.29416027
 C           -3.10102756       -1.46714060        2.01069984
 C           -2.84293435       -2.60082193        1.13518662
 C           -3.88073472       -0.49683815        1.26457292
 C           -2.66332061       -2.21550072       -1.31677205
 C           -3.48951952       -2.34223800       -0.13162128
 C           -4.25652388       -1.11403324        0.00370484
 C           -2.22112868       -0.13255625       -2.62003525
 C           -3.17302802       -1.08998735       -2.07911402
 C           -4.10373359       -0.36261682       -1.22854765
 C           -1.69922907        2.19117569       -2.07848252
 C           -1.64845657        2.99159333       -0.86297192
 C           -2.45003324        2.65186864        0.22228529
 C           -3.47610002        1.63076781        0.06913321
 C           -2.65225062        1.19129857       -2.20613676
 C           -3.65421443        1.01667502       -1.16719083




