%chk=000393.chk
%mem=8GB
%Nproc=32
#p B3LYP/6-31G* opt pop=NPA

Template file

0 1
 C            4.39318334       -1.29546905       -0.96724470
 C            4.66712042       -0.27550705        0.02915378
 C            4.18933361       -0.75902848        1.31062973
 C            3.64311506       -2.35654089       -0.31853623
 C            3.56674437       -2.05359926        1.09200587
 C            2.39999683       -2.52296035       -1.04416330
 C            3.53480738       -0.70534918       -1.98217717
 C            2.34047563       -1.50902031       -2.07739818
 C            4.14177470        0.97960989       -0.46853480
 C            3.38015489        0.69753369       -1.68144952
 C            3.61639572        1.88644868        0.44150180
 C            3.25567073        0.06530802        2.06481291
 C            3.08759398        1.39627621        1.71508853
 C            2.25607489       -2.02134387        1.70681089
 C            2.07852680       -0.73716747        2.35454765
 C            1.22225996       -2.77757436       -0.34948930
 C            1.16249368       -2.54867261        1.03570641
 C            0.03295355       -2.65493123       -1.07113854
 C            1.11458294       -0.88525082       -2.27630616
 C           -0.02506463       -1.65370603       -2.05046813
 C            2.13024988        1.29565382       -1.85074262
 C            1.01086627        0.51549968       -2.19029048
 C            2.67550112        2.86450406       -0.06110735
 C            1.93180823        2.53912556       -1.26602070
 C            1.78790517        2.01079224        1.91950945
 C            1.70594007        3.10946113        0.98845619
 C            0.80311313       -0.16204489        2.32906601
 C            0.65560257        1.21231571        2.10623161
 C           -0.08553424       -2.27757104        1.57978707
 C           -0.29648253       -1.00287606        2.13108013
 C           -1.13291401       -3.06754313       -0.43312285
 C           -1.15396701       -2.94657939        1.00809244
 C           -2.42790345       -2.63633121       -0.92451168
 C           -1.24570393       -1.13191698       -2.45433362
 C           -2.48405208       -1.63904523       -1.88816932
 C           -0.26449904        1.10861671       -2.25168730
 C           -1.35945280        0.30808481       -2.59408844
 C            0.58454149        3.02242255       -1.06890883
 C            0.43939460        3.33427825        0.34495181
 C           -0.48061792        2.37843018       -1.69239915
 C           -0.61062695        1.72512339        1.77529665
 C           -0.70773883        2.87140606        0.96101319
 C           -1.58522532       -0.45860723        2.15573261
 C           -1.74664863        0.92339182        1.97558538
 C           -2.49349323       -2.59672000        1.41358323
 C           -3.32284154       -2.59408952        0.21932400
 C           -2.68075655       -1.32324767        2.06886073
 C           -4.25684309       -1.49364075        0.35301735
 C           -3.96722374       -0.83411586        1.61913546
 C           -3.39998073       -0.51542797       -1.73986889
 C           -2.70556728        0.68616709       -2.19146324
 C           -4.29153318       -0.46294873       -0.66779141
 C           -1.74930148        2.70598016       -1.20610976
 C           -1.85319115        3.03922638        0.20488019
 C           -2.90266360        1.89680094       -1.54622606
 C           -3.00859458        1.45707733        1.68801793
 C           -4.13254362        0.58356677        1.41900813
 C           -4.51280145        0.79057072        0.02733899
 C           -3.09311639        2.51022486        0.70588597
 C           -3.83129801        1.98492994       -0.43036436




