%chk=001041.chk
%mem=8GB
%Nproc=32
#p B3LYP/6-31G* opt pop=NPA

Template file

0 1
 C            3.73036888       -2.20367269        0.09106764
 C            3.69399445       -1.32875845        1.24809835
 C            2.45952806       -1.58073385        1.97025151
 C            2.53518723       -3.02517292        0.12319827
 C            1.79121549       -2.69575672        1.31884993
 C            1.85825679       -2.87720900       -1.14669613
 C            3.65521408       -1.36445660       -1.09288084
 C            2.49576511       -1.77264377       -1.85219833
 C            3.94450843        0.01663992        0.78102403
 C            3.73972141        0.01275523       -0.66412588
 C            3.40438767        1.06153299        1.51276549
 C            1.69804509       -0.49219914        2.40550072
 C            2.26985475        0.78295298        2.39053050
 C            0.30584648       -0.62576105        2.49367920
 C            0.40957625       -2.66689423        1.23592872
 C           -0.27643995       -1.84102129        2.11611904
 C            0.46827034       -2.94985469       -1.16617610
 C           -0.21922507       -3.06120104        0.04897017
 C           -0.18062668       -2.37502205       -2.25537937
 C            1.68254103       -0.80450787       -2.43325898
 C            0.44357268       -1.23436698       -2.90437714
 C            2.88211222        0.95707355       -1.22866333
 C            1.87358171        0.55292946       -2.12111042
 C            3.10940237        2.29133162        0.80571114
 C            2.79689586        2.20408202       -0.60810598
 C            1.40779129        1.95134581        2.38238833
 C            1.98356881        2.92149860        1.46600198
 C           -0.49570365        0.51320504        2.66068342
 C            0.03038252        1.77569824        2.38925600
 C           -1.87857862        0.37909035        2.76371636
 C           -1.63908823       -2.04757720        2.27836789
 C           -2.47446034       -0.93897234        2.68437280
 C           -1.61164820       -3.12859998        0.03177344
 C           -2.34279605       -2.77595655        1.23926167
 C           -1.61411056       -2.14070419       -2.20834562
 C           -2.33265891       -2.56517817       -1.09838603
 C           -0.59703620       -0.27583217       -3.22750042
 C           -1.86899520       -0.82748119       -2.78282894
 C            0.96594174        1.50058050       -2.59952611
 C           -0.33759503        1.07794565       -3.08330456
 C            1.65548316        3.06847075       -0.85363401
 C            1.13348432        3.49618749        0.43867366
 C            0.78117506        2.74987189       -1.88139013
 C           -0.77255257        2.73344862        1.76763622
 C           -0.23770766        3.50319288        0.65570027
 C           -2.72981267        1.28960000        2.01746342
 C           -2.15738468        2.42295397        1.45704945
 C           -3.60146706       -0.86734350        1.76567090
 C           -3.50315870       -1.99033886        0.85207206
 C           -3.40925305       -1.73844056       -0.57474631
 C           -3.64626695        0.48157028        1.22987096
 C           -2.82752202        0.00525497       -2.21567853
 C           -3.59158320       -0.44746851       -1.06341329
 C           -3.73015423        0.67807192       -0.14596961
 C           -1.34202238        1.95166695       -2.49501760
 C           -0.64867845        2.95886399       -1.70799824
 C           -1.14790352        3.33386860       -0.46497243
 C           -2.36510910        2.71888569        0.04586393
 C           -2.54585423        1.42164365       -2.04101805
 C           -3.08028009        1.83091190       -0.75081507




