%chk=000350.chk
%mem=8GB
%Nproc=32
#p B3LYP/6-31G* opt pop=NPA

Template file

0 1
 C            4.66336533       -0.48816405       -0.27734342
 C            4.44370497        0.94139044       -0.17961933
 C            4.02718779        1.23161239        1.17972314
 C            4.18654258       -1.09279220        0.95684523
 C            3.78562660       -0.03443413        1.85404486
 C            3.19885701       -2.08392782        0.59876806
 C            3.83599343       -0.98948095       -1.36371086
 C            3.06835087       -2.09319370       -0.84933105
 C            3.56860886        1.33178161       -1.27180064
 C            3.10875425        0.11915931       -1.93313056
 C            2.65276564        2.35279283       -1.06227507
 C            2.85666673        2.06481274        1.37772840
 C            2.34739033        2.77986604        0.30086553
 C            2.41681952       -0.02379230        2.34584482
 C            1.92620070        1.33610647        2.22726348
 C            2.02657738       -2.19913761        1.34311009
 C            1.55132738       -1.07767422        2.04496160
 C            1.09743771       -3.09509392        0.83084721
 C            1.79693238       -2.32695265       -1.35474225
 C            1.04878004       -3.23039292       -0.61619670
 C            1.74648837       -0.03184352       -2.19838304
 C            1.11818848       -1.28093225       -2.01384625
 C            1.39620035        2.31360414       -1.78841791
 C            0.97413607        1.12027087       -2.36369052
 C            0.94640528        3.15514150        0.32999842
 C            0.44195093        3.10121414       -1.03125910
 C            0.56123695        1.54205025        2.05666187
 C            0.13430547        2.66638050        1.34622655
 C            0.17040348       -0.85158135        2.13929338
 C           -0.31516051        0.46416816        2.21751276
 C           -0.26960762       -3.05230391        1.29911253
 C           -0.71568487       -1.91998172        1.96893951
 C           -0.31640538       -3.48454882       -0.99566392
 C           -1.08692242       -3.59317878        0.22917013
 C           -0.25681721       -1.40847514       -2.29326250
 C           -0.97228133       -2.51555382       -1.83965075
 C           -0.35905133        1.00590173       -2.72192109
 C           -0.97949025       -0.30311989       -2.72814803
 C           -0.92015053        2.87737081       -1.21226723
 C           -1.32255808        1.96086135       -2.18894628
 C           -1.22876445        2.88568353        1.21451145
 C           -1.75256185        3.12491162       -0.12259556
 C           -1.69012958        0.71002495        2.22855397
 C           -2.14840273        1.97619142        1.86530813
 C           -2.09030258       -1.69816911        2.04477471
 C           -2.57972365       -0.35859776        2.30270902
 C           -2.37709622       -2.98548460       -0.00968912
 C           -2.31786027       -2.33091566       -1.31369849
 C           -2.96422453       -2.30138304        1.04079260
 C           -2.36918706       -0.14445739       -2.31514218
 C           -2.60413155        1.27481122       -2.08077962
 C           -2.96291909       -1.10640849       -1.49523545
 C           -3.12946009        2.66637118       -0.14179485
 C           -3.41966458        2.12462550        1.17582399
 C           -3.52450874        1.67467611       -1.12180339
 C           -3.89346954       -0.25899998        1.68400948
 C           -3.99155489       -1.33564649        0.71844579
 C           -3.97109144       -0.73481540       -0.60280509
 C           -4.25997091        0.96185096        0.99630786
 C           -4.30805160        0.66780180       -0.43100427




