%chk=001331.chk
%mem=8GB
%Nproc=32
#p B3LYP/6-31G* opt pop=NPA

Template file

0 1
 C            4.12305304       -0.62463492        0.74484704
 C            3.70538852       -1.89642110        0.19373632
 C            3.47083963       -1.70291089       -1.22886465
 C            4.23567039        0.30693208       -0.36585433
 C            3.50592996       -0.27219936       -1.47413102
 C            3.83011141        1.60141092        0.12275657
 C            3.27507931        0.01016524        1.73710079
 C            3.39506780        1.43085059        1.50356198
 C            2.01857437       -0.53535796        2.00604442
 C            2.51842932       -2.52189795        0.73538140
 C            1.81097717       -1.89964251        1.76229897
 C            2.27043184       -2.44089569       -1.58578456
 C            1.76642112       -3.07484122       -0.37833325
 C            1.36818220       -1.84905617       -2.45023221
 C            2.35680897        0.35333566       -1.96549783
 C            1.46022592       -0.41582891       -2.69990575
 C            2.75737350        2.29382075       -0.55971032
 C            1.95530615        1.60733123       -1.47576071
 C            2.22410032        2.26006484        1.67664459
 C            2.11123290        3.07060254        0.47452312
 C            0.91831159        0.31028911        2.24654881
 C            1.06388796        1.70587605        2.21135329
 C           -0.34434860       -0.24815146        2.47356728
 C            0.59213586       -2.46681535        2.10380403
 C           -0.44819334       -1.62092589        2.64784250
 C            0.39573299       -3.26218153       -0.19954491
 C           -0.04545492       -3.32766073        1.12270966
 C           -0.03628423       -2.18253982       -2.32800046
 C           -0.49904872       -2.88058308       -1.21585734
 C            0.12043463        0.07572339       -2.94269952
 C           -0.79846000       -1.04714690       -2.81919122
 C            0.64937841        2.07298766       -1.70072936
 C           -0.25997617        1.31520206       -2.44904925
 C            0.88135469        3.63323211        0.19222621
 C            0.20760837        3.21690012       -1.02774441
 C           -0.07524365        2.50755041        2.19474264
 C           -0.11632627        3.60771784        1.24497250
 C           -1.49753984        0.51114662        2.25014289
 C           -1.39284933        1.89573929        2.21495734
 C           -2.67354669       -0.09752247        1.79247616
 C           -1.71322939       -2.27549767        2.37399464
 C           -1.45951174       -3.34978852        1.42289003
 C           -2.80773599       -1.48076788        1.85887995
 C           -1.87445723       -2.87902074       -0.98366092
 C           -2.39242892       -3.20885411        0.33017877
 C           -3.34204342       -2.17639188        0.70089310
 C           -2.08329024       -0.82092007       -2.33211122
 C           -2.68341252       -1.78989629       -1.51881801
 C           -3.64008240       -1.39755941       -0.48660178
 C           -1.62432604        1.59423213       -2.38650878
 C           -2.56959903        0.48636860       -2.33064585
 C           -1.21437100        3.42851518       -0.81848183
 C           -1.41902037        3.60675807        0.61070350
 C           -2.25587185        2.65808635        1.32357747
 C           -2.12057809        2.65449779       -1.52504583
 C           -3.50718556        0.59559015        0.91464086
 C           -3.93120647       -0.05266390       -0.31914055
 C           -3.62512139        0.85206901       -1.40565952
 C           -3.24552565        1.99211154        0.61604942
 C           -3.29177926        2.14346704       -0.83048089




