%chk=001465.chk
%mem=8GB
%Nproc=32
#p B3LYP/6-31G* opt pop=NPA

Template file

0 1
 C            4.43030159       -0.07231571       -0.07832073
 C            3.97108760        0.48411636       -1.33243058
 C            3.45927539        1.81882368       -1.06717745
 C            4.02947925        0.83632546        0.98555597
 C            3.46482872        2.02453137        0.37139795
 C            3.21786335        0.08390304        1.92976783
 C            3.98768316       -1.39995161        0.29101515
 C            3.40556378       -1.31358687        1.62092306
 C            3.02999668       -2.09725252       -0.55427157
 C            2.96189297       -0.22737254       -2.09884787
 C            2.52806011       -1.49788934       -1.70968543
 C            2.20755685        1.97152332       -1.79661612
 C            1.98048815        0.75101072       -2.54443632
 C            1.12579733        2.58253074       -1.17401677
 C            2.34884386        2.60205377        0.95696746
 C            1.29960166        3.12209746        0.10029251
 C            1.94162183        0.55077403        2.24783792
 C            1.67609319        1.90035801        2.04141826
 C            0.87329589       -0.34986493        2.41244751
 C            2.24832126       -2.17169669        1.64400981
 C            2.11680485       -2.79428338        0.33658084
 C            1.09098471       -1.73432964        2.26592680
 C            0.83672640       -3.12764167       -0.10730416
 C            1.32700792       -1.96804599       -2.22962644
 C            0.49138069       -2.85610015       -1.43071242
 C            0.67600739        0.33203634       -2.77081859
 C            0.44558462       -1.03376399       -2.90840885
 C           -0.16690767        2.29463088       -1.62029344
 C           -0.38789531        1.17649624       -2.43782396
 C           -1.24417133        2.94189871       -1.01137233
 C            0.14316906        3.30153284        0.95401523
 C            0.30815267        2.37759765        2.07074785
 C           -1.10272959        3.40663303        0.35937358
 C           -0.43366478        0.14438999        2.60250534
 C           -0.72085812        1.49611498        2.37998827
 C           -1.49180354       -0.73861483        2.82245504
 C            0.00246448       -2.57953008        2.12784455
 C           -0.17237701       -3.25157712        0.84938490
 C           -1.29041196       -2.14944743        2.59585094
 C           -1.56640037       -3.09745929        0.46574162
 C           -2.27991316       -2.59002457        1.62609933
 C           -0.89811832       -2.59067526       -1.78479428
 C           -0.90550537       -1.55071267       -2.80693751
 C           -1.88246128       -2.60832685       -0.79740203
 C           -1.69007918        0.76026179       -2.72003159
 C           -1.96579991       -0.66088622       -2.86490677
 C           -2.59340070        2.42518717       -1.16700035
 C           -2.81718626        1.36311158       -2.02898241
 C           -2.24888318        2.92105096        1.10205201
 C           -2.03069526        1.89182138        2.10234204
 C           -3.21800129        2.41533883        0.14691228
 C           -2.81129294       -0.41363037        2.30907437
 C           -3.23146906       -1.51010677        1.44777510
 C           -3.07320590        0.89458597        1.93422874
 C           -3.75137045        1.16898946        0.67386842
 C           -3.05612803       -1.87386633       -0.97623944
 C           -3.16021560       -0.96186781       -2.10146385
 C           -3.71098267        0.29174707       -1.61650120
 C           -3.69777469       -1.23873700        0.16776725
 C           -4.02623248        0.12808479       -0.20574548




