%chk=001717.chk
%mem=8GB
%Nproc=32
#p B3LYP/6-31G* opt pop=NPA

Template file

0 1
 C            2.85417877       -1.81061900        2.01324023
 C            3.75439512       -1.13325078        1.11005226
 C            3.64254578       -1.77255933       -0.19227532
 C            2.19977336       -2.87899489        1.27086307
 C            2.52682881       -2.70192627       -0.12738928
 C            0.80286202       -2.88057980        1.66041004
 C            1.80832972       -1.04154935        2.65733316
 C            0.66861075       -1.93148457        2.75178594
 C            1.59780437        0.29263872        2.29620152
 C            3.58720695        0.28978416        0.90437908
 C            2.57509181        0.98764944        1.56850828
 C            3.62963784       -0.72355187       -1.20049902
 C            3.80951785        0.54325897       -0.50920912
 C            2.71730969       -0.81021518       -2.24479458
 C            1.49244513       -2.58256521       -1.04878197
 C            1.71055606       -1.86019010       -2.22238629
 C           -0.18431571       -2.91105880        0.67774940
 C            0.18431571       -2.91105880       -0.67774940
 C           -1.49244513       -2.58256521        1.04878197
 C           -0.57521326       -1.37725669        2.98865421
 C           -1.71055606       -1.86019010        2.22238629
 C            0.33279396        0.86000859        2.51073921
 C           -0.69008072        0.06933458        3.03923357
 C            0.04202723        2.15130111        2.05679864
 C            2.32954814        2.29687835        1.16949921
 C            1.02282166        2.88506954        1.39332361
 C            3.29309380        1.70894885       -1.05869363
 C            2.77928517        2.71698361       -0.14820391
 C            2.07622497        0.39590322       -2.75114709
 C            2.37012409        1.62683521       -2.18483560
 C            0.57521326       -1.37725669       -2.98865421
 C            0.69008072        0.06933458       -3.03923357
 C           -0.80286202       -2.88057980       -1.66041004
 C           -0.66861075       -1.93148457       -2.75178594
 C           -2.52682881       -2.70192627        0.12738928
 C           -2.19977336       -2.87899489       -1.27086307
 C           -3.64254578       -1.77255933        0.19227532
 C           -2.71730969       -0.81021518        2.24479458
 C           -2.07622497        0.39590322        2.75114709
 C           -3.62963784       -0.72355187        1.20049902
 C           -1.28728686        2.56650023        1.94493488
 C           -2.37012409        1.62683521        2.18483560
 C           -1.66773694        3.37695904        0.80416036
 C            0.66283279        3.64774824        0.20111999
 C            1.66773694        3.37695904       -0.80416036
 C            1.28728686        2.56650023       -1.94493488
 C           -0.66283279        3.64774824       -0.20111999
 C           -0.33279396        0.86000859       -2.51073921
 C           -0.04202723        2.15130111       -2.05679864
 C           -1.02282166        2.88506954       -1.39332361
 C           -1.80832972       -1.04154935       -2.65733316
 C           -2.85417877       -1.81061900       -2.01324023
 C           -3.75439512       -1.13325078       -1.11005226
 C           -1.59780437        0.29263872       -2.29620152
 C           -3.80951785        0.54325897        0.50920912
 C           -3.29309380        1.70894885        1.05869363
 C           -2.77928517        2.71698361        0.14820391
 C           -2.32954814        2.29687835       -1.16949921
 C           -3.58720695        0.28978416       -0.90437908
 C           -2.57509181        0.98764944       -1.56850828




