%chk=000734.chk
%mem=8GB
%Nproc=32
#p B3LYP/6-31G* opt pop=NPA

Template file

0 1
 C            4.31440817       -1.05990281       -0.71096714
 C            4.34662092       -0.04458091        0.32390605
 C            3.66517432       -0.57022347        1.49757207
 C            3.55553630       -2.18425385       -0.19829358
 C            3.06158754       -1.83748605        1.12484000
 C            2.58464462       -2.54899874       -1.21010623
 C            3.57474150       -0.51698879       -1.83789838
 C            2.47498977       -1.42077905       -2.12304979
 C            3.87144455        1.19753358       -0.26052417
 C            3.26769859        0.87110116       -1.54451821
 C            3.22917162        2.10762451        0.56748322
 C            2.94850586        0.30858407        2.29290340
 C            2.94592455        1.72031642        1.94108617
 C            1.59844848       -0.04463803        2.70148297
 C            1.72037601       -2.09460572        1.41789323
 C            0.97321015       -1.17544403        2.16856423
 C            1.41361993       -3.14557223       -0.78036097
 C            1.05749067       -3.02930845        0.62775885
 C            0.19707811       -2.87926057       -1.51867186
 C            1.21594958       -0.87939662       -2.38129663
 C            0.07604787       -1.67433198       -2.20697635
 C            1.99299837        1.34935963       -1.83497277
 C            1.08048726        0.50563539       -2.48412657
 C            2.06495051        2.81986322        0.06695247
 C            1.53767414        2.49979863       -1.18103568
 C            1.65171205        2.26758054        2.30433795
 C            0.83787850        1.18797795        2.81690697
 C            1.14477011        3.02054041        1.17610603
 C           -0.50165563        1.15654248        2.47194484
 C           -0.43157790       -1.22765854        2.15894873
 C           -1.15005089       -0.07118513        2.49566131
 C           -0.38407104       -3.14337044        0.70913056
 C           -0.87936515       -3.30138950       -0.65153452
 C           -1.08780251       -2.32657405        1.58478822
 C           -2.16060655       -2.86572689       -0.93600763
 C           -1.19791682       -1.12541899       -2.40799263
 C           -2.32159148       -1.74255111       -1.84956975
 C           -0.12644481        1.02201641       -2.93097941
 C           -1.31524674        0.19256755       -2.84355334
 C            0.27679266        3.00023577       -1.48653031
 C           -0.49059402        2.36666455       -2.53794082
 C           -0.22125361        2.98585246        0.91080480
 C           -1.05170691        2.20390783        1.72216037
 C           -0.63168955        3.28774845       -0.38705042
 C           -2.41909463        2.18185237        1.45481819
 C           -2.53741860       -0.07428183        2.50954331
 C           -3.22309440        1.09491392        1.99405008
 C           -2.47743331       -2.33007193        1.47384727
 C           -3.06037267       -2.65063398        0.18215789
 C           -3.24579120       -1.23926611        2.03352367
 C           -3.40681271       -0.91224154       -1.34520576
 C           -4.11871762        0.64452704        0.94088766
 C           -3.96118628       -1.57114089       -0.17422036
 C           -4.20075584       -0.79809941        1.02479622
 C           -2.40101615        1.01612456       -2.32872010
 C           -1.88699814        2.35981003       -2.13644810
 C           -1.98199922        2.96191829       -0.82032168
 C           -2.87097666        2.41702755        0.09350480
 C           -3.26845214        0.47537526       -1.38382595
 C           -3.66823957        1.26238158       -0.29566239




