%chk=001258.chk
%mem=8GB
%Nproc=32
#p B3LYP/6-31G* opt pop=NPA

Template file

0 1
 C            3.77033419        2.02467565       -0.24765161
 C            4.10636848        1.11176888        0.82163349
 C            4.35144343       -0.18541289        0.21315929
 C            3.74760355        1.25454440       -1.48338449
 C            3.75001782       -0.14398226       -1.10535248
 C            2.65301080        1.75419512       -2.28198705
 C            2.51458835        2.74440761       -0.17820623
 C            2.01773600        2.82687344       -1.53193613
 C            1.59825917        2.46138988        0.83189938
 C            3.14163292        0.90183128        1.88259673
 C            1.88066737        1.48800151        1.80263476
 C            3.89005504       -1.18898266        1.14707274
 C            3.22421731       -0.50020697        2.24556300
 C            2.96733564       -2.19907272        0.67304902
 C            2.62993233       -0.94149681       -1.36466286
 C            2.44654997       -2.11602075       -0.62041440
 C            1.60339183        0.83701609       -2.67162283
 C            1.60243325       -0.47672047       -2.20662192
 C            0.58621771        2.70923680       -1.73577347
 C            0.36249226        1.58219209       -2.62096730
 C            0.26981619        2.85027348        0.64865854
 C           -0.26981619        2.85027348       -0.64865854
 C           -0.58621771        2.70923680        1.73577347
 C            0.82175292        0.87505125        2.47455086
 C           -0.36249226        1.58219209        2.62096730
 C            1.99040288       -1.22266775        2.52598887
 C            2.05733257       -2.46041529        1.77304933
 C            0.78815587       -0.51918797        2.55928439
 C            0.87990144       -3.13225003        1.49263139
 C            1.39624406       -2.96978236       -0.94173253
 C            0.70928418       -3.64738364        0.14720187
 C            0.41177989       -1.19742603       -2.30686189
 C            0.38406603       -2.52044886       -1.87830725
 C           -0.82175292        0.87505125       -2.47455086
 C           -0.78815587       -0.51918797       -2.55928439
 C           -1.59825917        2.46138988       -0.83189938
 C           -1.88066737        1.48800151       -1.80263476
 C           -2.01773600        2.82687344        1.53193613
 C           -2.51458835        2.74440761        0.17820623
 C           -1.60339183        0.83701609        2.67162283
 C           -2.65301080        1.75419512        2.28198705
 C           -0.41177989       -1.19742603        2.30686189
 C           -0.38406603       -2.52044886        1.87830725
 C           -1.60243325       -0.47672047        2.20662192
 C           -0.70928418       -3.64738364       -0.14720187
 C           -0.87990144       -3.13225003       -1.49263139
 C           -1.39624406       -2.96978236        0.94173253
 C           -1.99040288       -1.22266775       -2.52598887
 C           -2.05733257       -2.46041529       -1.77304933
 C           -3.14163292        0.90183128       -1.88259673
 C           -3.22421731       -0.50020697       -2.24556300
 C           -3.77033419        2.02467565        0.24765161
 C           -3.74760355        1.25454440        1.48338449
 C           -4.10636848        1.11176888       -0.82163349
 C           -2.62993233       -0.94149681        1.36466286
 C           -2.44654997       -2.11602075        0.62041440
 C           -2.96733564       -2.19907272       -0.67304902
 C           -3.89005504       -1.18898266       -1.14707274
 C           -3.75001782       -0.14398226        1.10535248
 C           -4.35144343       -0.18541289       -0.21315929




