%chk=000231.chk
%mem=8GB
%Nproc=32
#p B3LYP/6-31G* opt pop=NPA

Template file

0 1
 C            4.38071906       -1.61349892        0.45410777
 C            4.57041288       -0.30435609        1.04801255
 C            4.34442373        0.68893109        0.01250353
 C            3.99108780       -1.42435750       -0.93461151
 C            4.02703651       -0.00469105       -1.22280079
 C            2.74972992       -2.14944889       -1.14968562
 C            3.26503346       -2.24567757        1.13391261
 C            2.37480284       -2.75446443        0.11705588
 C            3.54033937       -0.12143566        2.05727718
 C            2.71251827       -1.30936323        2.09155797
 C            3.38980212        1.65391431        0.53059289
 C            2.89249515        1.14284022        1.79481347
 C            2.46650686        2.22929387       -0.34017086
 C            3.03838174        0.52835225       -2.03528455
 C            2.43781000        1.80153066       -1.67169149
 C            1.73948299       -1.57945021       -1.93346528
 C            1.95647899       -0.32662672       -2.51415229
 C            0.42313915       -2.03453233       -1.75599862
 C            1.02432077       -2.80613104        0.39930913
 C            0.18009128       -2.90495045       -0.68781213
 C            1.32645028       -1.15716021        2.12613841
 C            0.53314204       -2.13361868        1.52391323
 C            1.53207098        1.25455636        2.02746812
 C            0.77776514        0.11083085        2.32899216
 C            1.30859567        2.79265831        0.20419019
 C            0.88259791        2.34318618        1.46424904
 C            0.39740060        3.37403085       -0.67696967
 C            1.19841374        1.89622802       -2.42573338
 C            0.82003084        0.53910928       -2.79110885
 C            0.21785005        2.76398180       -1.97879762
 C           -0.64043746       -1.28340425       -2.28050944
 C           -0.46021626        0.07835405       -2.50411662
 C           -1.93977781       -1.76753858       -2.16030138
 C           -1.11533710       -3.29576188       -0.41169998
 C           -2.14606098       -2.95534946       -1.36144376
 C           -0.85490801       -2.06729528        1.67858524
 C           -1.61533591       -2.95197573        0.90492197
 C           -0.61277884        0.23259513        2.42675614
 C           -1.42991198       -0.87278102        2.14690529
 C           -0.39510309        2.62159202        1.92750132
 C           -1.16954006        1.51674536        2.46355593
 C           -0.91524858        3.77389637       -0.21064027
 C           -1.28150036        3.46382777        1.15137603
 C           -1.16741487        2.33881512       -2.04227683
 C           -1.45848070        0.98096547       -2.11741261
 C           -1.89508714        3.15105427       -1.09117182
 C           -3.00034767       -0.82870954       -1.82884258
 C           -2.65832165        0.50059744       -1.58159777
 C           -3.38534309       -2.80673723       -0.62132799
 C           -3.05016605       -2.79357232        0.79526929
 C           -3.93796383       -1.50705337       -0.94927137
 C           -2.81681981       -0.69322177        2.11183097
 C           -3.65742258       -1.62253594        1.37715917
 C           -4.28985015       -0.87118514        0.29882330
 C           -2.55852166        1.72780240        2.08305289
 C           -2.58114417        2.82117140        1.12360981
 C           -2.89569777        2.51058711       -0.26181750
 C           -3.30762823        1.21388567       -0.55672979
 C           -3.34404570        0.62169619        1.81142765
 C           -3.91851862        0.51385464        0.48257322




