%chk=000693.chk
%mem=8GB
%Nproc=32
#p B3LYP/6-31G* opt pop=NPA

Template file

0 1
 C           -3.87388070        2.21085084        0.31628182
 C           -3.82049801        1.25022362        1.40386825
 C           -4.20832837       -0.03011781        0.86305291
 C           -3.91792151        1.45827165       -0.92594498
 C           -4.28838743        0.10568043       -0.58785624
 C           -2.66364160        1.67865049       -1.62460004
 C           -2.62853296        2.95258901        0.33053483
 C           -1.99436333        2.78406722       -0.96171736
 C           -2.52022362        1.36879857        2.03465764
 C           -1.86867452        2.54854329        1.49930257
 C           -1.74087547        0.23864546        2.25368904
 C           -3.36895486       -1.18199522        1.13397546
 C           -2.17327274       -1.03419146        1.83781831
 C           -3.51501966       -0.97988709       -1.15241832
 C           -3.35316941       -1.95463028       -0.08941772
 C           -1.89629589        0.58887396       -2.05177387
 C           -2.42378558       -0.71099718       -1.98309596
 C           -0.52423985        0.78843233       -2.27604831
 C           -0.61115157        2.80605680       -0.99019306
 C            0.03308590        2.02883302       -1.94641734
 C           -0.48176901        2.53821365        1.37931131
 C            0.06066098        3.05552975        0.20628682
 C           -0.39743005        0.43192977        2.55990945
 C            0.25805918        1.57777335        2.07824236
 C            0.32821995       -0.66696142        2.99085670
 C           -1.25564220       -2.09147601        1.80004748
 C           -0.05136915       -1.97088718        2.48737182
 C           -2.37521694       -2.92174719       -0.24319954
 C           -1.34637447       -3.04382503        0.78146901
 C           -1.62228933       -1.79123032       -2.33576145
 C           -1.70781791       -2.99958666       -1.52974793
 C            0.31507032       -0.29843876       -2.55239388
 C           -0.22335696       -1.57657387       -2.65241967
 C            1.70133427       -0.15744974       -2.44526580
 C            1.39379943        2.24605016       -2.12911219
 C            2.25630264        1.11514095       -2.41182295
 C            1.43296888        3.23479655        0.14706226
 C            2.06992925        3.07584315       -1.14719940
 C            1.65861993        1.61384795        1.97949858
 C            2.25556135        2.54079114        1.12350949
 C            1.77165129       -0.60371803        3.02476930
 C            2.42590269        0.54104761        2.43293994
 C            1.14471944       -2.57907921        1.92481053
 C            2.28481136       -1.79866422        2.37113597
 C           -0.12783111       -3.50561334        0.13139013
 C           -0.36103215       -3.48469901       -1.30169932
 C            0.53213029       -2.70844742       -2.13339069
 C            1.10128113       -3.07568632        0.62453073
 C            2.46907905       -1.23671396       -2.00555198
 C            1.81798292       -2.48734632       -1.67144529
 C            2.13060165       -2.77344157       -0.27516745
 C            3.51513158        0.03811089        1.60722935
 C            3.28207656       -1.38243365        1.40459272
 C            3.51434680       -1.02122205       -1.01708035
 C            3.22603163       -1.89117773        0.11392486
 C            3.50871077        1.31575424       -1.69705687
 C            3.40047304        2.54230704       -0.93138326
 C            3.50940434        2.19175350        0.47320542
 C            3.97105289        0.27224067       -0.79940577
 C            3.97234686        0.81859100        0.55331188




