%chk=001006.chk
%mem=8GB
%Nproc=32
#p B3LYP/6-31G* opt pop=NPA

Template file

0 1
 C            4.12166326        1.28882431       -0.88118112
 C            4.17748429       -0.10509247       -0.49532597
 C            3.66101114       -0.23081612        0.86001352
 C            3.63861588        2.03648332        0.26171521
 C            3.25152489        1.09065794        1.29695122
 C            2.62545493        2.94786117       -0.22700744
 C            3.11794220        1.40491150       -1.92648519
 C            2.16929713        2.41271817       -1.50235352
 C            3.51425608       -0.86277575       -1.53794244
 C            2.62601771        0.07142662       -2.21243742
 C            2.99874503       -2.09270776       -1.17726145
 C            2.85344061       -1.32737786        1.13733565
 C            2.93072436       -2.39436493        0.24116323
 C            1.67906723       -1.13921779        1.88221265
 C            2.01337424        1.26455025        1.90846736
 C            1.17289957        0.15373919        2.07694819
 C            1.65704684        3.35437318        0.67592576
 C            1.46471926        2.54583048        1.87283231
 C            0.32765265        3.63749648        0.17135273
 C            0.80808074        2.17621324       -1.66671369
 C           -0.08068368        3.03365711       -1.01784361
 C            1.24963504       -0.16286182       -2.18884075
 C            0.36041947        0.91147285       -2.08695896
 C            1.70075689       -2.47056485       -1.69574858
 C            0.78120204       -1.46597730       -1.99673039
 C            2.02141369       -3.51005603        0.37287346
 C            1.27922507       -3.58822949       -0.88081144
 C            0.86050109       -2.23571387        2.16770580
 C            1.06192868       -3.48306400        1.45322924
 C           -0.57577440       -2.03541996        2.28834401
 C           -0.19387611        0.32441111        2.35925871
 C           -1.07275849       -0.73990022        2.19247502
 C            0.10217875        2.75024457        2.31470234
 C           -0.55411892        3.58221536        1.32017020
 C           -0.73189899        1.59106359        2.52611626
 C           -1.89328952        3.06959639        1.12370853
 C           -2.03217143        1.87061565        1.94476971
 C           -1.44059870        2.89795988       -1.27180489
 C           -2.38797584        3.04256995       -0.17092906
 C           -1.01066655        0.67204205       -2.18444098
 C           -1.87460332        1.76130069       -2.05877536
 C           -0.58935757       -1.68588341       -1.79815965
 C           -1.49093752       -0.64101970       -2.05552052
 C           -0.11856998       -3.70289350       -0.55022253
 C           -0.21520163       -3.86887887        0.88909335
 C           -1.24667247       -3.11752215        1.58039860
 C           -1.03921434       -2.85914170       -1.15776583
 C           -2.39253994       -2.81308017        0.86282735
 C           -2.30592696       -2.86316283       -0.58956950
 C           -2.36087049       -0.50876600        1.68544280
 C           -2.80369810        0.80758820        1.47014299
 C           -3.08824439       -1.58082460        1.16558944
 C           -3.50377575        2.16295556       -0.44643544
 C           -3.27294398        1.55768648       -1.74795812
 C           -3.75335450        1.07483856        0.47695121
 C           -2.86415769       -0.88497396       -1.95739174
 C           -3.30882079       -1.96815627       -1.11274677
 C           -3.96540706       -1.36093423        0.03447916
 C           -3.77592947        0.20622217       -1.68406635
 C           -4.28224018       -0.00214841       -0.33376727




