%chk=001235.chk
%mem=8GB
%Nproc=32
#p B3LYP/6-31G* opt pop=NPA

Template file

0 1
 C            4.33005250        0.16042786       -0.61287505
 C            4.34374179       -0.71591059        0.53948903
 C            3.73035206        0.01054035        1.64671723
 C            4.01998718        1.49086964       -0.12644262
 C            3.36991755        1.32783877        1.16222464
 C            3.29071381        2.16303990       -1.18117123
 C            3.39589298       -0.11848780       -1.69310243
 C            2.95064312        1.16555279       -2.18752275
 C            2.47167970       -1.15498603       -1.55119479
 C            3.66378695       -1.98894104        0.43058573
 C            2.76968321       -2.21019105       -0.69458654
 C            2.69305756       -0.83342175        2.20460685
 C            2.86685158       -2.14863122        1.63252117
 C            1.39725632       -0.34139410        2.31279037
 C            2.05914105        1.77901978        1.31643107
 C            1.13352702        1.00695122        2.03697526
 C            2.06064774        2.84375178       -0.83419234
 C            1.59958740        2.80003511        0.47864853
 C            1.54993418        1.33696488       -2.51118523
 C            1.10731645        2.57011966       -1.89391921
 C            1.15186765       -0.99572441       -1.99688532
 C            0.69638797        0.24855680       -2.46131800
 C            0.23095087       -2.04076521       -1.82714063
 C            1.68779426       -3.02904599       -0.19288455
 C            1.67321851       -2.87435556        1.25570960
 C            0.46124652       -3.01861218       -0.84558381
 C            0.33644402       -1.24822057        2.40430484
 C            0.46208558       -2.52954509        1.84614677
 C           -0.91855240       -0.76653339        2.75866687
 C           -0.14455630        1.51923359        2.27942075
 C           -1.15908633        0.66548327        2.71483347
 C            0.33516827        3.32326253        0.70227318
 C           -0.47705302        2.76879821        1.76634615
 C           -0.24341087        2.72093703       -1.59108868
 C           -0.53983351        3.46295838       -0.44774423
 C           -0.66883912        0.50543975       -2.48865856
 C           -1.14928387        1.73770775       -2.02022987
 C           -1.04565224       -1.90014708       -2.38178342
 C           -1.53403413       -0.56485516       -2.67981384
 C           -2.16068711       -2.65994347       -1.84333106
 C           -0.61394321       -3.49654193       -0.10071408
 C           -0.66307349       -3.14634435        1.30684906
 C           -1.95540246       -3.41815498       -0.63157016
 C           -2.11615018       -1.43465822        2.27386358
 C           -1.99009953       -2.62944379        1.58598119
 C           -2.80683716       -2.85397652        0.40637570
 C           -2.53080233        0.86745404        2.26405491
 C           -3.02797695       -0.41259725        1.77987119
 C           -1.86311390        3.06812588        1.43662249
 C           -1.89771970        3.51652899        0.05162682
 C           -2.86824411        2.03410826        1.59443281
 C           -2.50642981        1.87780951       -1.72183525
 C           -2.91403357        2.75652454       -0.64010850
 C           -3.60306689        1.93998603        0.34675842
 C           -2.91508725       -0.47320243       -2.23194729
 C           -3.25299258       -1.73434556       -1.59995266
 C           -3.53252346       -1.73868679       -0.17369634
 C           -3.58138413       -0.51938776        0.49904898
 C           -3.34012411        0.69602525       -1.62304022
 C           -3.81894008        0.63299972       -0.24865800




