%chk=000502.chk
%mem=8GB
%Nproc=32
#p B3LYP/6-31G* opt pop=NPA

Template file

0 1
 C            4.39265779        1.40478830        0.54118732
 C            4.42522268        0.64873120       -0.69644809
 C            4.57002182       -0.73892658       -0.32354356
 C            4.00888139        0.48257796        1.59800444
 C            4.20733053       -0.85013509        1.08796031
 C            2.68390550        0.86195969        2.05252154
 C            3.33239201        2.38312882        0.41902176
 C            2.42481914        2.19171894        1.53180476
 C            3.26838349        1.04619209       -1.48888140
 C            2.76674454        2.28035402       -0.91317563
 C            2.35403896        0.08248251       -1.92879061
 C            3.78642310       -1.71752499       -1.04396980
 C            2.71093313       -1.26199205       -1.91426589
 C            3.11305314       -1.79420406        1.17561385
 C            3.17167517       -2.56425538       -0.04242918
 C            1.63589795       -0.06700722        2.05675082
 C            1.85213025       -1.38933004        1.63275402
 C            0.32677399        0.42843075        2.13570496
 C            1.10374130        2.54373434        1.32285623
 C            0.12744757        1.80617559        1.97996740
 C            1.41471223        2.55682276       -1.03547174
 C            0.77231575        3.08381922        0.08157997
 C            1.00935224        0.44017951       -2.09020101
 C            0.65657438        1.78100365       -1.90916741
 C            0.00575496       -0.54849301       -2.14909062
 C            1.66860560       -2.25899970       -1.81268629
 C            1.91814616       -3.00391691       -0.58823270
 C            0.34473712       -1.90881282       -2.07418281
 C            0.74662858       -2.19391969        1.32453674
 C            0.84479533       -3.12354928        0.26995264
 C           -0.76084756       -0.45273802        2.05747207
 C           -0.52152916       -1.80708899        1.77846214
 C           -2.07345730        0.04927785        2.13291409
 C           -1.15904169        2.32259731        1.96944541
 C           -2.28844953        1.42172474        2.02872132
 C           -0.51553197        3.57164813       -0.08768223
 C           -1.46434376        3.35448666        0.99085099
 C           -0.65015296        2.18381430       -2.15300283
 C           -1.19090333        3.25903316       -1.33576279
 C           -1.34697736       -0.16743119       -2.12869877
 C           -1.68269555        1.17480755       -2.29242757
 C           -2.33873451       -1.07942420       -1.74347248
 C           -0.61518192       -2.80814225       -1.60851828
 C           -0.32211442       -3.50025268       -0.36223489
 C           -2.00693149       -2.41677246       -1.56112926
 C           -1.58977016       -2.67981243        1.56947119
 C           -1.52883756       -3.54743918        0.41797423
 C           -2.60941014       -3.16126626       -0.46421279
 C           -3.16322593       -0.78520373        1.89418923
 C           -2.94791148       -2.18815532        1.63468221
 C           -3.59625563       -2.50530360        0.36422306
 C           -3.56507151       -0.61420472       -1.26028649
 C           -4.18329478       -0.33835456        0.96189776
 C           -4.19150079       -1.28483201       -0.13435466
 C           -3.30578659        1.91381996        1.10521978
 C           -2.75461865        3.05305565        0.40029177
 C           -2.57625334        2.94973811       -1.03522389
 C           -2.90141922        1.69229830       -1.68405107
 C           -4.04036322        0.98366375        0.38501993
 C           -3.75348431        0.80542359       -1.03945721




