%chk=000380.chk
%mem=8GB
%Nproc=32
#p B3LYP/6-31G* opt pop=NPA

Template file

0 1
 C            4.65027334        0.65445116       -0.75103844
 C            4.61815157       -0.03906008        0.52576602
 C            4.05790677        0.87120893        1.50704596
 C            3.90786456        1.89306743       -0.59813643
 C            3.64261740        2.07927184        0.80898065
 C            2.77779071        1.85151385       -1.50514507
 C            3.94357757       -0.16719182       -1.71798244
 C            2.81657739        0.59526554       -2.23053013
 C            3.97912108       -1.32721975        0.31761183
 C            3.67875534       -1.45195888       -1.10301561
 C            3.06543571       -1.79691646        1.25859583
 C            2.94028629        0.42708943        2.32365368
 C            2.54944365       -0.90405084        2.29055130
 C            2.28204150        2.37433371        1.21245066
 C            1.92056868        1.45937534        2.27361129
 C            1.53671392        2.31278232       -1.08905261
 C            1.31241702        2.65798451        0.25387445
 C            0.44142069        1.94569469       -1.85833855
 C            1.61138667       -0.06723453       -2.48006874
 C            0.40997065        0.64756160       -2.38762285
 C            2.53612351       -2.13165886       -1.49927226
 C            1.57965611       -1.45445084       -2.36590319
 C            1.97321058       -2.65748134        0.83292115
 C            1.76902644       -2.88328916       -0.51916221
 C            1.14978824       -1.22968690        2.49981693
 C            0.82649838       -2.38372099        1.68519539
 C            0.57701325        1.11706394        2.38366103
 C            0.20345991       -0.21556265        2.60716393
 C           -0.01268835        2.72804729        0.69535919
 C           -0.36233523        1.99437349        1.83749251
 C           -0.74298767        2.61994611       -1.61671792
 C           -0.98868982        3.03432334       -0.25135598
 C           -1.97404610        2.09699072       -2.16201210
 C           -0.81646879       -0.02583011       -2.53135571
 C           -2.00234898        0.70833126       -2.56625466
 C            0.30670175       -2.12262452       -2.19393602
 C            0.41055781       -2.96928520       -1.01614077
 C           -0.87540493       -1.41705659       -2.38314588
 C           -0.46396127       -2.47919044        1.17004423
 C           -0.65872460       -2.97474265       -0.12820259
 C           -1.14371609       -0.55909736        2.48049194
 C           -1.47815194       -1.73279358        1.78362382
 C           -1.69970182        1.78762705        2.15672216
 C           -2.07697745        0.46662565        2.61454144
 C           -2.39224360        2.80399844        0.04029069
 C           -3.01919683        2.30327273       -1.17352965
 C           -2.74581673        2.25749983        1.26433167
 C           -3.22637903        0.12859621       -2.03717539
 C           -3.81978489        1.09263772       -1.11500895
 C           -2.03723967       -2.00490884       -1.87973568
 C           -1.91847908       -2.85364129       -0.70349643
 C           -3.25705270       -1.22854244       -1.74926823
 C           -2.80299073       -2.00707954        1.44539409
 C           -3.05821982       -2.59426671        0.14988652
 C           -3.95737003       -1.70498103       -0.56785836
 C           -3.46387761        0.25137706        2.25757803
 C           -3.84638485        1.30665002        1.33260053
 C           -4.32453126        0.67439600        0.11321180
 C           -3.83664123       -1.01450413        1.66990765
 C           -4.47194537       -0.74332968        0.38808649




