%chk=001614.chk
%mem=8GB
%Nproc=32
#p B3LYP/6-31G* opt pop=NPA

Template file

0 1
 C            3.43957590       -1.67502915        1.34583796
 C            3.56813899       -2.02080428       -0.05711866
 C            2.48251109       -2.92889979       -0.39334995
 C            2.30250087       -2.40545230        1.88130392
 C            1.64625064       -3.08219421        0.78300603
 C            1.51759511       -1.48860929        2.68336365
 C            3.28821724       -0.27927936        1.71935140
 C            2.13977552       -0.17452760        2.60254214
 C            3.50622882        0.71273607        0.77532546
 C            3.58005054       -0.95874881       -1.04695698
 C            3.67146850        0.36711909       -0.63314740
 C            1.86691189       -2.45922276       -1.62325546
 C            2.64003609       -1.32307824       -2.09557361
 C            0.47666060       -2.41931233       -1.70601344
 C            0.27318675       -2.93089171        0.64158333
 C           -0.27318675       -2.93089171       -0.64158333
 C            0.12936930       -1.56682264        2.63694298
 C           -0.47666060       -2.41931233        1.70601344
 C           -0.58540554       -0.47991241        3.13192183
 C            1.31940096        0.95443228        2.56298483
 C            0.03205595        0.83571711        3.08702234
 C            2.72299409        1.93211138        0.84243451
 C            1.62853962        2.01907387        1.70499050
 C            3.04154649        1.41332319       -1.42344430
 C            2.61785951        2.46125820       -0.50934594
 C            1.99662235       -0.32862469       -2.81960314
 C            2.23433955        1.07249787       -2.50342198
 C           -0.12936930       -1.56682264       -2.63694298
 C            0.58540554       -0.47991241       -3.13192183
 C           -1.51759511       -1.48860929       -2.68336365
 C           -1.64625064       -3.08219421       -0.78300603
 C           -2.30250087       -2.40545230       -1.88130392
 C           -1.86691189       -2.45922276        1.62325546
 C           -2.48251109       -2.92889979        0.39334995
 C           -1.99662235       -0.32862469        2.81960314
 C           -2.64003609       -1.32307824        2.09557361
 C           -0.99690424        1.80146158        2.74187424
 C           -2.23433955        1.07249787        2.50342198
 C            0.71012782        3.05190416        1.51447552
 C           -0.66687426        2.88770043        1.94554378
 C            1.53271815        3.26410589       -0.83581811
 C            0.68573897        3.74796845        0.23919983
 C            0.99690424        1.80146158       -2.74187424
 C           -0.03205595        0.83571711       -3.08702234
 C            0.66687426        2.88770043       -1.94554378
 C           -2.13977552       -0.17452760       -2.60254214
 C           -1.31940096        0.95443228       -2.56298483
 C           -3.43957590       -1.67502915       -1.34583796
 C           -3.56813899       -2.02080428        0.05711866
 C           -3.58005054       -0.95874881        1.04695698
 C           -3.28821724       -0.27927936       -1.71935140
 C           -3.04154649        1.41332319        1.42344430
 C           -3.67146850        0.36711909        0.63314740
 C           -3.50622882        0.71273607       -0.77532546
 C           -1.53271815        3.26410589        0.83581811
 C           -0.68573897        3.74796845       -0.23919983
 C           -0.71012782        3.05190416       -1.51447552
 C           -1.62853962        2.01907387       -1.70499050
 C           -2.61785951        2.46125820        0.50934594
 C           -2.72299409        1.93211138       -0.84243451




