%chk=000371.chk
%mem=8GB
%Nproc=32
#p B3LYP/6-31G* opt pop=NPA

Template file

0 1
 C            4.60683756       -1.12651450        0.13914716
 C            4.59674572        0.32423017        0.16901275
 C            4.08492999        0.72993967        1.46323920
 C            3.84512000       -1.59762306        1.28550503
 C            3.55596920       -0.45563770        2.12149804
 C            2.73507285       -2.38423470        0.78042339
 C            3.89672561       -1.54802863       -1.05442356
 C            2.93321796       -2.54802803       -0.65065695
 C            3.91646638        0.79490687       -1.02665107
 C            3.39764986       -0.36542064       -1.73469577
 C            3.12658804        1.93064834       -0.94800615
 C            3.05794099        1.75612112        1.50942838
 C            2.77452644        2.48009046        0.35946011
 C            2.17521930       -0.18363592        2.46390863
 C            1.94796034        1.23836498        2.29260881
 C            1.43747238       -2.16057526        1.25350231
 C            1.16483862       -1.06121911        2.07945347
 C            0.37740747       -2.74846390        0.55423640
 C            1.80343439       -2.69321793       -1.43330762
 C            0.57979118       -3.10146949       -0.78144500
 C            2.07698844       -0.37141446       -2.19982827
 C            1.42713652       -1.59767366       -2.32184062
 C            1.93011463        1.99390114       -1.76307729
 C            1.32247006        0.80823605       -2.17329308
 C            1.45621799        3.07303407        0.22675354
 C            1.11506068        3.04051634       -1.18707675
 C            0.65357981        1.66608582        2.00459994
 C            0.46726457        2.76490960        1.16115792
 C           -0.14579396       -0.60816132        2.16478490
 C           -0.40019594        0.76861814        2.19125924
 C           -0.93630904       -2.54079689        0.98726579
 C           -1.17888305       -1.49140621        1.88246710
 C           -1.96089863       -2.98371036        0.14620567
 C           -0.46732008       -2.81941878       -1.73892181
 C           -0.02097768       -1.63470245       -2.45203762
 C           -1.76769748       -2.85364146       -1.28320358
 C           -0.07478159        0.76704004       -2.30877424
 C           -0.75056521       -0.45529658       -2.32404919
 C           -0.22243573        3.09786256       -1.53282255
 C           -0.80873648        1.94592857       -2.20411975
 C           -0.83172236        3.17677265        0.87727277
 C           -1.15547870        3.50363133       -0.50178425
 C           -1.71338183        1.23091406        2.09692645
 C           -1.95515035        2.42732286        1.41865664
 C           -2.47859034       -1.09464951        2.18507418
 C           -2.76295687        0.32864564        2.26616445
 C           -3.33338083       -2.59345303        0.40070090
 C           -3.60171793       -1.74095509        1.53339829
 C           -2.65509690       -1.78264757       -1.68066592
 C           -2.10313998       -0.52692367       -1.95242401
 C           -3.79798425       -1.89797432       -0.79510757
 C           -2.20938537        1.87963316       -1.82227230
 C           -2.43366681        2.90071506       -0.81329311
 C           -3.03623474        2.49460544        0.43931371
 C           -2.81786515        0.64092657       -1.64141060
 C           -3.99782771        0.56905963        1.54235096
 C           -4.51436554       -0.70683277        1.08216572
 C           -4.46973459       -0.69311849       -0.37176403
 C           -3.94168804        1.44913454        0.39572431
 C           -3.91878381        0.58505061       -0.77671352




