%chk=000542.chk
%mem=8GB
%Nproc=32
#p B3LYP/6-31G* opt pop=NPA

Template file

0 1
 C           -4.57868543       -0.00000000        0.44811786
 C           -4.20960085       -1.17220215       -0.32577528
 C           -3.76415355       -0.72843838       -1.62437963
 C           -4.20960085        1.17220215       -0.32577528
 C           -3.76415355        0.72843838       -1.62437963
 C           -3.29109235        1.95081021        0.47351289
 C           -3.77893589        0.00000000        1.66465563
 C           -3.03361135        1.22963564        1.70995368
 C           -3.29109235       -1.95081021        0.47351289
 C           -3.03361135       -1.22963564        1.70995368
 C           -2.20855305       -2.58334761       -0.12722062
 C           -2.46140661       -1.16754574       -2.09051740
 C           -1.72175015       -2.10046634       -1.35925987
 C           -2.46140661        1.16754574       -2.09051740
 C           -1.77496555       -0.00000000       -2.60853947
 C           -2.20855305        2.58334761       -0.12722062
 C           -1.72175015        2.10046634       -1.35925987
 C           -1.30532463        3.14729306        0.76334582
 C           -1.72463656        1.22097835        2.18841168
 C           -1.01212845        2.39301782        1.97364552
 C           -1.72463656       -1.22097835        2.18841168
 C           -1.02353800        0.00000000        2.28035613
 C           -1.30532463       -3.14729306        0.76334582
 C           -1.01212845       -2.39301782        1.97364552
 C           -0.06380674       -3.68340149        0.25959842
 C           -0.35830696       -2.22491612       -1.66403130
 C            0.40695059       -3.18929516       -1.01067095
 C           -0.38973503       -0.00000000       -2.60102135
 C            0.27965412       -1.20363063       -2.37820706
 C           -0.35830696        2.22491612       -1.66403130
 C            0.27965412        1.20363063       -2.37820706
 C           -0.06380674        3.68340149        0.25959842
 C            0.40695059        3.18929516       -1.01067095
 C            0.41591885        2.41164149        2.16746434
 C            0.96139695        3.39563300        1.24542470
 C            0.39128865        0.00000000        2.31947650
 C            1.09816867        1.21726569        2.34493132
 C            0.41591885       -2.41164149        2.16746434
 C            0.96139695       -3.39563300        1.24542470
 C            1.09816867       -1.21726569        2.34493132
 C            1.84538953       -3.01208313       -0.89045297
 C            2.17966292       -3.06819904        0.52776891
 C            1.65842794       -1.24779859       -2.57069746
 C            2.47465096       -2.08536921       -1.70944157
 C            1.65842794        1.24779859       -2.57069746
 C            2.37247434       -0.00000000       -2.77690132
 C            1.84538953        3.01208313       -0.89045297
 C            2.17966292        3.06819904        0.52776891
 C            2.47465096        2.08536921       -1.70944157
 C            2.47350572        1.23677165        2.11783275
 C            3.00714655        2.09516240        1.07048119
 C            2.47350572       -1.23677165        2.11783275
 C            3.00714655       -2.09516240        1.07048119
 C            3.21310156        0.00000000        2.08606766
 C            3.54716392       -1.25796225       -1.17633655
 C            3.53770748       -0.00000000       -1.90623279
 C            3.54716392        1.25796225       -1.17633655
 C            3.80501705        1.25881471        0.19037486
 C            3.80501705       -1.25881471        0.19037486
 C            4.03392287        0.00000000        0.88251030




