%chk=000810.chk
%mem=8GB
%Nproc=32
#p B3LYP/6-31G* opt pop=NPA

Template file

0 1
 C            4.16967349       -1.43457182       -0.28106522
 C            4.18034668       -0.38653969        0.72279805
 C            3.25677745       -0.76183065        1.77656637
 C            3.19628896       -2.43184412        0.12890434
 C            2.66195175       -2.04197371        1.41193903
 C            2.26521287       -2.61449328       -0.95770084
 C            3.70140193       -0.84654604       -1.52469963
 C            2.55841740       -1.60807403       -1.96969457
 C            3.97075949        0.87416786        0.04595901
 C            3.52980945        0.57180955       -1.31182447
 C            3.32697622        1.88619853        0.74134512
 C            2.44620490        0.21579899        2.35637716
 C            2.54587854        1.54619565        1.92807868
 C            1.28806782       -0.19884763        3.01220728
 C            1.30906305       -2.23899142        1.66493364
 C            0.75684923       -1.51974059        2.71952867
 C            0.92967321       -2.87123686       -0.66578399
 C            0.46954741       -2.74356147        0.65638000
 C            0.03065557       -2.71109906       -1.71617963
 C            1.48635285       -0.94716912       -2.56106808
 C            0.31663537       -1.68877642       -2.70747370
 C            2.38961872        1.19931359       -1.81236530
 C            1.41008875        0.45512785       -2.49336134
 C            2.56511014        2.85687539       -0.02070188
 C            2.08016579        2.47185311       -1.33264433
 C            1.36055586        2.39542662        1.93711770
 C            1.41372869        3.25179794        0.77241910
 C            0.15498686        0.70483487        3.10335753
 C            0.14101023        1.84826105        2.31314872
 C           -0.68253629       -1.47735203        2.90358820
 C           -1.04607488       -0.10473147        3.22647224
 C           -0.89302660       -2.90349938        0.92280727
 C           -1.49123896       -2.22874142        2.06414304
 C           -1.39784461       -2.71347519       -1.46744687
 C           -1.85525715       -2.86545542       -0.16749198
 C           -0.93165796       -1.03823013       -3.05574988
 C           -2.00290830       -1.71938365       -2.34243808
 C            0.25464892        1.10311379       -2.93851340
 C           -0.95821556        0.33998606       -3.19495466
 C            0.72747914        2.98156025       -1.45033962
 C            0.26265822        3.28900350       -0.10709590
 C           -0.14418962        2.36002703       -2.32632239
 C           -1.02416162        2.18839371        1.61544351
 C           -0.94085838        2.74178511        0.32848013
 C           -2.25203339        0.41393273        2.77691760
 C           -2.24047196        1.68047724        2.06571142
 C           -2.78931737       -1.71106995        1.65899717
 C           -3.02288396       -2.12199222        0.28026591
 C           -3.20025789       -0.45596941        2.10102602
 C           -3.11589322       -1.00445203       -1.91409533
 C           -3.68904764       -1.27807310       -0.60499007
 C           -2.08507876        1.09773782       -2.67130195
 C           -1.54107141        2.23483797       -1.94913985
 C           -1.92074358        2.44863489       -0.62472228
 C           -3.18531690        0.43157790       -2.14307378
 C           -3.38833115        1.69420108        1.17978089
 C           -4.01674139        0.38219693        1.24099409
 C           -4.28566254       -0.04689020       -0.11861475
 C           -3.18002463        2.02384394       -0.21467560
 C           -3.87574924        1.02564055       -1.01015853




