%chk=000112.chk
%mem=8GB
%Nproc=32
#p B3LYP/6-31G* opt pop=NPA

Template file

0 1
 C            4.73104531       -0.59318940       -0.47821207
 C            4.69174171        0.85604489       -0.49346929
 C            4.15630416        1.29203187        0.78198398
 C            4.17673165       -1.03874790        0.78971920
 C            3.70054597        0.11841436        1.50993360
 C            3.22556653       -2.07627676        0.49468335
 C            3.84272369       -1.07209161       -1.52370714
 C            3.03145215       -2.11658365       -0.94735178
 C            3.73950969        1.26339290       -1.51157828
 C            3.15690270        0.06492624       -2.08982642
 C            3.18793574        2.33165420        0.50517239
 C            2.84262119        2.23579515       -0.90750774
 C            2.15165074        2.48588175        1.40707958
 C            2.40050199        0.11822584        2.02532330
 C            1.80706611        1.35644440        2.26535812
 C            2.08558284       -2.18509431        1.27556070
 C            1.58805491       -1.02779453        1.91097879
 C            1.17508644       -3.11854014        0.80969864
 C            1.72424882       -2.28348958       -1.39596086
 C            0.94892217       -3.13944163       -0.62701024
 C            1.77314040        0.01012836       -2.21159260
 C            1.08745609       -1.20519838       -2.03376623
 C            1.49373761        2.20292396       -1.26363329
 C            1.06350875        1.20578858       -2.14020442
 C            0.89644834        3.01076184        0.91710308
 C            0.55824678        2.81185643       -0.42069606
 C            0.38100228        1.43789221        2.52401650
 C           -0.07745018        2.68423276        1.93402486
 C            0.21671793       -0.94477845        2.23900986
 C           -0.40292035        0.29814916        2.38525299
 C           -0.10157554       -3.23258586        1.46378710
 C           -0.58159780       -2.08294303        2.19077154
 C           -0.47705553       -3.19810033       -0.84231153
 C           -1.07627989       -3.53783492        0.43527158
 C           -0.30818552       -1.21668555       -2.20729567
 C           -1.09041483       -2.22898453       -1.62835168
 C           -0.25216705        1.20910224       -2.56202963
 C           -0.92232187       -0.06866843       -2.71353924
 C           -0.79604629        2.79433012       -0.77024770
 C           -1.18402255        2.12556267       -1.93224120
 C           -1.41145604        2.79610313        1.60238302
 C           -1.74385394        3.07605757        0.21637532
 C           -1.78041495        0.44208961        2.15281338
 C           -2.30242476        1.73039367        2.00632695
 C           -1.99500349       -1.94624238        1.88185970
 C           -2.30755617       -2.87634377        0.79854046
 C           -2.57664356       -0.67946316        1.87145714
 C           -2.47381653       -2.06371468       -1.49469983
 C           -3.11443607       -2.42754412       -0.23383179
 C           -2.34178868        0.15921401       -2.50964363
 C           -2.50900474        1.53168138       -2.04016970
 C           -3.12178216       -0.86247696       -1.99109414
 C           -3.12806763        2.66668691        0.03798003
 C           -3.51316083        1.93865896        1.23980266
 C           -3.48546127        1.84582464       -1.10193719
 C           -3.79783727       -0.52977611        1.20375612
 C           -4.07955068       -1.39671141        0.07695367
 C           -4.22015124       -0.54925665       -1.09398222
 C           -4.27762994        0.78555826        0.83258288
 C           -4.38437532        0.81275018       -0.61966896




