%chk=000430.chk
%mem=8GB
%Nproc=32
#p B3LYP/6-31G* opt pop=NPA

Template file

0 1
 C            4.32520384        0.35797923        1.49681086
 C            4.52602691        0.42478744        0.05942412
 C            4.32297496       -0.90784481       -0.47546211
 C            3.76923314       -0.94847440        1.80562176
 C            3.87974670       -1.76155120        0.61727169
 C            2.45074460       -0.75166832        2.38474691
 C            3.32936657        1.35239745        1.84952560
 C            2.23686823        0.67766606        2.52322600
 C            3.71760528        1.51593506       -0.45590413
 C            3.01438568        2.12537043        0.66291812
 C            3.04293508        1.35277180       -1.65941051
 C            3.39922512       -1.08882605       -1.58505941
 C            2.87977073        0.02052952       -2.23404250
 C            2.69978887       -2.46653911        0.16853275
 C            2.50821953       -2.18234599       -1.24359577
 C            1.37787054       -1.54052562        1.96487932
 C            1.57032823       -2.52247882        0.97944374
 C            0.08289628       -1.07740345        2.22462237
 C            0.95315074        1.16436656        2.32035214
 C           -0.12093962        0.28894778        2.45550594
 C            1.69545896        2.53815653        0.48956097
 C            0.78694199        2.29698997        1.52652005
 C            1.79981749        2.07361200       -1.86676927
 C            1.21331707        2.75425018       -0.80684886
 C            1.54436262       -0.05876004       -2.79773001
 C            0.95361929        1.26842901       -2.73123194
 C            1.20452150       -2.21591618       -1.74253287
 C            0.74003289       -1.17050944       -2.55635918
 C            0.45192174       -3.11277560        0.40660813
 C            0.28820569       -2.99430598       -1.03456327
 C           -1.00569977       -1.90463528        1.95118373
 C           -0.84954997       -2.91389315        1.00816625
 C           -2.29097393       -1.46228337        2.24878533
 C           -1.41413351        0.81384335        2.44165184
 C           -2.50029210       -0.05195012        2.52110499
 C           -0.47636958        2.86777643        1.45884314
 C           -1.61203534        2.11618848        1.97276453
 C           -0.09781856        3.18447384       -0.97207736
 C           -0.88280957        3.47597190        0.20934231
 C           -0.43065047        1.39386575       -2.62826406
 C           -0.95504598        2.46736647       -1.90877296
 C           -0.62118402       -1.05158103       -2.83346771
 C           -1.22540665        0.27386484       -2.86508703
 C           -1.13276939       -2.90155309       -1.31516228
 C           -1.83578911       -3.06333743       -0.05175339
 C           -1.57760396       -1.96580588       -2.23396242
 C           -3.39432398       -1.92338197        1.42045398
 C           -3.08767684       -2.48921210        0.12056780
 C           -3.75179589        0.34096830        1.89679080
 C           -4.30696959       -0.81489932        1.21798044
 C           -2.76037570        2.41434970        1.12377401
 C           -2.25517500        3.08573655       -0.05590611
 C           -2.28280039        2.37009404       -1.31791885
 C           -3.72594162        1.43590714        0.94987012
 C           -2.54903067        0.17801544       -2.26582341
 C           -2.80362912       -1.22748331       -1.97442626
 C           -3.60066683       -1.57099883       -0.88921157
 C           -4.32888773       -0.51972071       -0.20459439
 C           -2.98903185        1.17251613       -1.39206445
 C           -3.89916354        0.85753324       -0.37884765




