%chk=000862.chk
%mem=8GB
%Nproc=32
#p B3LYP/6-31G* opt pop=NPA

Template file

0 1
 C            3.62754852       -2.49137410        0.27313567
 C            4.00396280       -1.23460525       -0.34714090
 C            3.82931346       -0.18912997        0.64055688
 C            2.97565627       -2.18381307        1.53597720
 C            3.07925518       -0.75993820        1.75082572
 C            1.65764653       -2.77638041        1.50793550
 C            2.63741842       -3.12030367       -0.57833607
 C            1.54260691       -3.53692295        0.27311767
 C            3.28924191       -1.11489749       -1.60211691
 C            2.33618114       -2.21076944       -1.67097130
 C            2.88578492        0.14733881       -1.99912695
 C            3.48177810        1.08861656        0.21491416
 C            3.17059847        1.28841277       -1.13729905
 C            2.91963867        1.92976647        1.17010606
 C            1.97903902       -0.05623181        2.23203304
 C            2.07058553        1.33323537        2.19112820
 C            0.55958866       -2.02772429        1.93030266
 C            0.70822139       -0.66016142        2.22871726
 C           -0.71151553       -2.52773788        1.64220051
 C            0.28842550       -3.62190465       -0.30390234
 C           -0.86420267       -3.36011905        0.53362914
 C            0.99440223       -1.95985628       -1.96941301
 C            0.05301949       -2.89253855       -1.54478218
 C            1.53927209        0.32455720       -2.51410569
 C            0.58008701       -0.65971317       -2.28793963
 C            2.24259540        2.33981985       -1.52977917
 C            1.18644760        1.71750847       -2.32269941
 C            2.31305941        3.18119817        0.76015215
 C            1.92195022        3.34347334       -0.62589497
 C            0.86726104        2.13647360        2.27769825
 C            1.13206569        3.38149039        1.58321109
 C           -0.43406450        0.13810911        2.38466953
 C           -0.36220540        1.50628920        2.13281406
 C           -1.82415160       -1.85611465        2.13246305
 C           -1.68386607       -0.45703511        2.48606026
 C           -3.10582603       -2.02149556        1.46193561
 C           -1.96062439       -3.12125829       -0.38360928
 C           -1.35538356       -2.55469852       -1.58087732
 C           -3.12440503       -2.55098086        0.10802777
 C           -0.77209565       -0.29415709       -2.17848644
 C           -1.74810122       -1.28904967       -1.99750440
 C           -0.14249889        2.04869856       -2.09053894
 C           -1.13024453        1.06737591       -2.21366440
 C            0.58105420        3.89573719       -0.63659332
 C            0.09980818        3.93259322        0.73872840
 C           -0.44596056        3.23786860       -1.42576189
 C           -1.43763831        2.16164124        1.51027805
 C           -1.20746072        3.30594369        0.74373475
 C           -1.65785007        3.30612637       -0.63172564
 C           -2.83309508        0.25667311        1.95981932
 C           -3.77230744       -0.73063313        1.44974200
 C           -2.62053853        1.45397560        1.27563675
 C           -3.82065980       -1.59041931       -0.72896759
 C           -3.08305635       -0.94390351       -1.80327011
 C           -4.34774378       -0.54654012        0.13407562
 C           -2.44797719        1.45140778       -1.97425880
 C           -2.69582215        2.45711965       -0.95909328
 C           -3.35538812        1.74797631        0.11998645
 C           -3.47271501        0.44468287       -1.80752253
 C           -4.13611575        0.71629807       -0.53823128




