%chk=000450.chk
%mem=8GB
%Nproc=32
#p B3LYP/6-31G* opt pop=NPA

Template file

0 1
 C            4.55724346       -0.95977864       -0.70039223
 C            4.30942599        0.33680624       -1.30145025
 C            4.42605224        1.31810571       -0.24424271
 C            4.40104408       -0.80731097        0.73786732
 C            4.33736915        0.60696533        1.02529844
 C            3.28964198       -1.64077516        1.14520633
 C            3.51807633       -1.86362546       -1.16024862
 C            2.90325123       -2.45904725        0.00609108
 C            3.06304793        0.25054678       -2.05110340
 C            2.65241074       -1.14231377       -2.06849356
 C            2.08382258        1.23408291       -1.90285573
 C            3.45781249        2.39058320       -0.20248382
 C            2.33964388        2.36959171       -1.13067561
 C            3.17703626        1.12227079        1.73236546
 C            2.88394782        2.40336456        1.13295735
 C            2.27736488       -1.11892841        1.95140961
 C            2.11118895        0.27256267        2.04424990
 C            1.17665092       -1.94224798        2.15110506
 C            1.56849529       -2.83653396       -0.08141462
 C            0.86635495       -2.91452158        1.11653538
 C            1.29502843       -1.42893571       -2.02111504
 C            0.86020062       -2.50480729       -1.24266787
 C            0.75481284        0.91604425       -2.19444683
 C            0.38362227       -0.42571376       -2.34891182
 C           -0.23036441        1.86928756       -1.93861219
 C            1.23518398        2.98371030       -0.42055311
 C            1.49667372        2.78109298        0.98980809
 C           -0.05659012        2.73039444       -0.85576425
 C            0.82484739        0.81850973        2.21456960
 C            0.52977063        2.09760837        1.71034363
 C           -0.07475615       -1.37659149        2.60948443
 C           -0.22020503        0.00262677        2.67146569
 C           -0.57112202       -3.10178149        1.08782756
 C           -1.15504152       -2.17962354        2.05320812
 C           -0.47502360       -2.88157571       -1.34227859
 C           -1.18776128       -3.28434552       -0.13855095
 C           -0.96594977       -0.76357138       -2.48224435
 C           -1.37613954       -2.04614865       -2.11826899
 C           -1.52417466        1.62255530       -2.38385567
 C           -1.91585926        0.24739199       -2.63569532
 C           -2.62919239        2.28234787       -1.70531256
 C           -1.07793417        2.80640675        0.08950295
 C           -0.79209682        2.40064940        1.40208075
 C           -2.38683745        2.82642453       -0.38327828
 C           -1.51396149        0.51809148        2.74950487
 C           -1.77592827        1.82741872        2.19256928
 C           -2.38178216       -1.57022969        1.79338851
 C           -2.63690916       -0.33470301        2.38237058
 C           -2.57164239       -2.88161655       -0.28496266
 C           -2.71167334       -2.24844290       -1.58598317
 C           -3.15061252       -1.98888122        0.70320365
 C           -3.26801653        0.06420071       -2.11912052
 C           -3.72943927        1.33913337       -1.60384382
 C           -3.58198788       -1.09999721       -1.43028466
 C           -3.97038558       -1.03066048       -0.02471840
 C           -3.47869858        2.40598374        0.47313792
 C           -3.16465474        1.87195636        1.77906095
 C           -3.68735227        0.51700384        1.84857058
 C           -4.24728168        1.40377064       -0.24869390
 C           -4.27064694        0.19521976        0.55934041




