%chk=001200.chk
%mem=8GB
%Nproc=32
#p B3LYP/6-31G* opt pop=NPA

Template file

0 1
 C            4.56188070       -0.33705707       -0.37350793
 C            4.12086481       -1.62988055       -0.84719005
 C            3.21647544       -1.39164365       -1.96901227
 C            4.14496663        0.63751521       -1.36405448
 C            3.03470591        0.04058508       -2.07920124
 C            3.91497222        1.87287275       -0.65046122
 C            4.04698856        0.14353407        0.89621780
 C            4.04094164        1.58265327        0.77484992
 C            2.95663318       -0.51280757        1.47956989
 C            3.42007290       -2.48290808        0.08830071
 C            2.83724011       -1.88328455        1.28154714
 C            2.04690422       -2.22554798       -1.77097142
 C            2.33226867       -3.08759076       -0.64851063
 C            0.77683521       -1.65749864       -1.82826384
 C            1.75343292        0.56781386       -1.91743116
 C            0.63961821       -0.27764289       -2.02256604
 C            2.64198394        2.53857113       -0.81918655
 C            1.58676105        1.88460106       -1.46352603
 C            3.00785892        2.32520973        1.45894772
 C            2.36865574        3.15417342        0.45540840
 C            1.84618043        0.21633414        1.94163720
 C            1.94545690        1.59078382        2.12188434
 C            0.58694914       -0.39473756        2.05812759
 C            1.55360748       -2.51883244        1.48603331
 C            1.26168072       -3.29956957        0.29248447
 C            0.50151751       -1.79531072        2.04933084
 C           -0.28858971       -2.36534693       -1.26141372
 C           -0.03674425       -3.21952327       -0.17065301
 C           -1.58676105       -1.88460106       -1.46352603
 C           -0.63961821        0.27764289       -2.02256604
 C           -1.75343292       -0.56781386       -1.91743116
 C            0.28858971        2.36534693       -1.26141372
 C           -0.77683521        1.65749864       -1.82826384
 C            0.98634015        3.26948151        0.83109078
 C            0.75345924        2.39652619        1.97051948
 C            0.03674425        3.21952327       -0.17065301
 C           -0.58694914        0.39473756        2.05812759
 C           -0.50151751        1.79531072        2.04933084
 C           -1.84618043       -0.21633414        1.94163720
 C           -0.75345924       -2.39652619        1.97051948
 C           -0.98634015       -3.26948151        0.83109078
 C           -1.94545690       -1.59078382        2.12188434
 C           -2.64198394       -2.53857113       -0.81918655
 C           -2.36865574       -3.15417342        0.45540840
 C           -3.00785892       -2.32520973        1.45894772
 C           -3.91497222       -1.87287275       -0.65046122
 C           -4.04094164       -1.58265327        0.77484992
 C           -3.03470591       -0.04058508       -2.07920124
 C           -4.14496663       -0.63751521       -1.36405448
 C           -2.04690422        2.22554798       -1.77097142
 C           -3.21647544        1.39164365       -1.96901227
 C           -1.26168072        3.29956957        0.29248447
 C           -1.55360748        2.51883244        1.48603331
 C           -2.33226867        3.08759076       -0.64851063
 C           -2.95663318        0.51280757        1.47956989
 C           -4.04698856       -0.14353407        0.89621780
 C           -4.56188070        0.33705707       -0.37350793
 C           -4.12086481        1.62988055       -0.84719005
 C           -2.83724011        1.88328455        1.28154714
 C           -3.42007290        2.48290808        0.08830071




