%chk=000788.chk
%mem=8GB
%Nproc=32
#p B3LYP/6-31G* opt pop=NPA

Template file

0 1
 C            4.10926155        1.57467283       -0.27903603
 C            4.08357696        0.60741229        0.80269114
 C            3.81354065       -0.70057081        0.23408358
 C            3.78046831        0.87540946       -1.50793582
 C            3.60911281       -0.53267592       -1.19837785
 C            2.68309497        1.57867316       -2.13760380
 C            3.05396098        2.54031061       -0.02891994
 C            2.15889232        2.53183758       -1.17139600
 C            3.19334833        1.10933152        1.82850836
 C            2.49462301        2.26390112        1.28192574
 C            2.47306290        0.18902893        2.57425843
 C            2.99424116       -1.58893481        0.92564764
 C            2.45268014       -1.20928223        2.16055319
 C            2.40422104       -2.62025317        0.20158573
 C            2.58712518       -1.24847911       -1.82300750
 C            2.12358415       -2.41163550       -1.21036108
 C            1.78325308        0.84122439       -2.88702428
 C            1.78586173       -0.61495419       -2.77809670
 C            0.39517340        1.26018411       -2.91506431
 C            0.78657545        2.57617350       -0.93539787
 C           -0.09752051        2.07378040       -1.89584057
 C            1.11542927        2.35923107        1.44797026
 C            0.33433475        2.78665155        0.36664740
 C            1.13121994        0.53369401        3.01086577
 C            0.51335774        1.67373191        2.50850229
 C            1.19339249       -1.78078132        2.62637093
 C            0.35704885       -0.69383107        3.10424957
 C            1.29477257       -3.36200545        0.77072411
 C            0.61151887       -2.82525322        1.93120002
 C            0.76389825       -2.86791407       -1.46034275
 C            0.31004308       -3.56484001       -0.27958901
 C            0.41377397       -1.06354955       -2.98054626
 C           -0.37595793        0.10550954       -3.32857160
 C           -0.11839459       -2.03228446       -2.13319748
 C           -1.73211655        0.09592435       -3.06357229
 C           -1.47402129        2.08563038       -1.64519533
 C           -2.30794450        1.24051481       -2.38000291
 C           -1.01284098        3.05044051        0.56522344
 C           -1.95356450        2.68806972       -0.48129767
 C           -0.85747149        1.79713530        2.70147002
 C           -1.60138152        2.69069528        1.83823891
 C           -1.00219233       -0.65362133        2.79081146
 C           -1.64481373        0.58335135        2.86956072
 C           -0.80689613       -2.77084604        1.62634165
 C           -0.98699496       -3.22468606        0.25509805
 C           -1.59452764       -1.71327994        2.08671726
 C           -1.46579915       -1.95451805       -1.74442750
 C           -2.30624909       -1.08249104       -2.44324797
 C           -1.90039326       -2.54629665       -0.54169248
 C           -3.56379157        0.79000586       -1.80586666
 C           -3.57335793       -0.66535094       -1.87020711
 C           -3.16477395        2.18900176        0.16029753
 C           -2.90083383        2.09523639        1.58554005
 C           -2.93025808        0.79080495        2.22695640
 C           -3.90118219        1.18324756       -0.45145551
 C           -2.83648644       -1.53611677        1.47412455
 C           -3.01323533       -2.03576002        0.12036075
 C           -3.94138652       -1.16595035       -0.56762301
 C           -3.53671601       -0.26737401        1.57084398
 C           -4.20334589       -0.02728007        0.29752836




