%chk=000006.chk
%mem=8GB
%Nproc=32
#p B3LYP/6-31G* opt pop=NPA

Template file

0 1
 C            5.14489956       -0.02878848        0.54558547
 C            4.95220910        1.40567500        0.58430586
 C            4.58174541        1.83198927       -0.75535626
 C            4.75683107       -0.49583344       -0.77827243
 C            4.34909783        0.64422321       -1.56185260
 C            3.79478933       -1.55416789       -0.59060784
 C            4.22463938       -0.62222207        1.50249404
 C            3.58994682       -1.72867823        0.83907251
 C            3.82535117        1.67291591        1.46532327
 C            3.36129721        0.41327851        2.02154041
 C            3.31714314        2.52878322       -0.65293765
 C            2.87435853        2.47722791        0.72899716
 C            2.97685848        0.69230032       -2.05331597
 C            2.42271741        1.97311705       -1.65410749
 C            2.66483746       -1.62474821       -1.40742338
 C            2.15409453       -0.44066912       -1.97166134
 C            1.77103849       -2.62718076       -1.06327793
 C            2.31073295       -2.09083783        1.22543062
 C            1.69556832       -2.96581009        0.34956597
 C            1.98573234        0.17160977        2.05517509
 C            1.50128336       -1.13179677        1.87103950
 C            1.52339062        2.24411893        0.93210784
 C            1.12374785        1.24072819        1.81735497
 C            1.06542345        2.01712252       -1.38072279
 C            0.67731476        2.50054519       -0.13553389
 C            0.75854371       -0.25159408       -2.06771224
 C            0.24956511        1.04872445       -1.95594724
 C            0.41221538       -2.57104423       -1.54992422
 C           -0.11160340       -1.34585265       -1.95307232
 C            0.35383075       -3.38313561        0.63332492
 C           -0.35383075       -3.38313561       -0.63332492
 C            0.11160340       -1.34585265        1.95307232
 C           -0.41221538       -2.57104423        1.54992422
 C           -0.24956511        1.04872445        1.95594724
 C           -0.75854371       -0.25159408        2.06771224
 C           -0.67731476        2.50054519        0.13553389
 C           -1.06542345        2.01712252        1.38072279
 C           -1.12374785        1.24072819       -1.81735497
 C           -1.52339062        2.24411893       -0.93210784
 C           -1.50128336       -1.13179677       -1.87103950
 C           -1.98573234        0.17160977       -2.05517509
 C           -1.69556832       -2.96581009       -0.34956597
 C           -1.77103849       -2.62718076        1.06327793
 C           -2.31073295       -2.09083783       -1.22543062
 C           -2.15409453       -0.44066912        1.97166134
 C           -2.66483746       -1.62474821        1.40742338
 C           -2.42271741        1.97311705        1.65410749
 C           -2.97685848        0.69230032        2.05331597
 C           -2.87435853        2.47722791       -0.72899716
 C           -3.31714314        2.52878322        0.65293765
 C           -3.36129721        0.41327851       -2.02154041
 C           -3.82535117        1.67291591       -1.46532327
 C           -3.58994682       -1.72867823       -0.83907251
 C           -3.79478933       -1.55416789        0.59060784
 C           -4.22463938       -0.62222207       -1.50249404
 C           -4.34909783        0.64422321        1.56185260
 C           -4.58174541        1.83198927        0.75535626
 C           -4.95220910        1.40567500       -0.58430586
 C           -4.75683107       -0.49583344        0.77827243
 C           -5.14489956       -0.02878848       -0.54558547




