%chk=001550.chk
%mem=8GB
%Nproc=32
#p B3LYP/6-31G* opt pop=NPA

Template file

0 1
 C            3.84039126       -1.58004409        0.28626782
 C            4.15535450       -0.30340553       -0.32608105
 C            3.95822843        0.72133505        0.68127897
 C            3.31081338       -1.31725624        1.61848642
 C            3.25962751        0.11352777        1.80199573
 C            2.09025488       -2.07410361        1.76323679
 C            2.91343318       -2.47528169       -0.38286381
 C            2.00468591       -2.97920200        0.63189127
 C            2.41792210       -2.14231521       -1.64043360
 C            3.43340853        0.10791954       -1.51702447
 C            2.65612314       -0.81623871       -2.20079254
 C            3.34590237        1.86889666        0.03652080
 C            2.90430987        1.44355807       -1.28419144
 C            2.48931190        2.64628314        0.79652986
 C            2.08596534        0.71538191        2.24905095
 C            1.97450805        2.08713073        2.03733647
 C            0.93046331       -1.44155178        2.20114248
 C            0.92097813       -0.05477785        2.44567884
 C           -0.27378472       -2.13289269        2.07014595
 C            0.75167623       -3.44225945        0.25870151
 C           -0.37661728       -3.15588019        1.12682682
 C            1.07014322       -2.54831439       -2.01228622
 C            0.29122654       -3.25891085       -1.11251092
 C            1.42580748       -0.37449432       -2.82861752
 C            0.46728491       -1.46674390       -2.77131757
 C            1.61418906        1.76511981       -1.71798506
 C            0.96747829        0.92593401       -2.64076302
 C            1.36947755        3.29045268        0.14191157
 C            0.91763252        2.80733770       -1.08373859
 C            0.72869495        2.75656853        2.32854945
 C            0.39566088        3.58302969        1.17898046
 C           -0.28167023        0.57632112        2.81683606
 C           -0.42546981        1.94962120        2.63949994
 C           -1.43185283       -1.58245225        2.59480219
 C           -1.45782043       -0.16473311        2.88371435
 C           -2.71803769       -1.94143088        2.01367242
 C           -1.56856040       -3.25073675        0.30368466
 C           -1.14048483       -3.01043459       -1.06601369
 C           -2.74478993       -2.67275658        0.75827035
 C           -0.88585364       -1.16298055       -2.61834112
 C           -1.69352955       -1.94817041       -1.78350782
 C           -0.33941314        1.19438366       -3.03254782
 C           -1.31100870        0.10992732       -3.00401191
 C           -0.38562633        3.11573190       -1.46576720
 C           -0.99243826        2.39238559       -2.55896387
 C           -1.01410801        3.39464935        0.88403255
 C           -1.54052335        2.43574076        1.84064669
 C           -1.40437881        3.30157890       -0.44004876
 C           -2.65229259        0.38555257        2.26057390
 C           -3.48716988       -0.71988357        1.84045069
 C           -2.52387648        1.52250407        1.46215346
 C           -3.55601570       -1.91480172       -0.17753588
 C           -2.97621021       -1.51378192       -1.45072396
 C           -4.01641651       -0.71004790        0.49803156
 C           -2.56878111        0.64726649       -2.51048820
 C           -2.34640684        2.03959238       -2.16342222
 C           -2.52681181        2.45032983       -0.78099035
 C           -3.00572189        1.51817250        0.13990073
 C           -3.34032949       -0.12597297       -1.66003635
 C           -3.70495296        0.41562278       -0.35979679




