%chk=001128.chk
%mem=8GB
%Nproc=32
#p B3LYP/6-31G* opt pop=NPA

Template file

0 1
 C            4.45854575        0.73401922        0.46991248
 C            3.71465965        1.50118774        1.45258164
 C            3.09228477        0.55747370        2.36898541
 C            4.37620572       -0.66307084        0.86081002
 C            3.31216042       -0.77353683        1.84749079
 C            4.29503395       -1.45042837       -0.35217446
 C            4.08173434        0.81843260       -0.93201231
 C            4.04986479       -0.53508717       -1.45873001
 C            3.09187865        1.71146316       -1.32683025
 C            2.68171249        2.41706275        1.00220767
 C            2.48589732        2.61565393       -0.35666029
 C            1.73003027        0.99063686        2.58764491
 C            1.52184157        2.22558251        1.85727712
 C            0.70571489        0.05668570        2.57174726
 C            2.20765181       -1.58920933        1.59333222
 C            0.94501098       -1.23906291        2.08933856
 C            3.29622594       -2.49571034       -0.42423947
 C            2.29353409       -2.58717683        0.62400443
 C            2.85844618       -0.99425460       -2.15893852
 C            2.57697546       -2.32569115       -1.67512398
 C            2.03225363        1.25212508       -2.21333925
 C            1.79841778       -0.10992966       -2.35783161
 C            1.14814803        2.91685191       -0.82758114
 C            0.90958099        2.14925676       -2.03954950
 C            0.24384420        2.47607256        1.35767201
 C            0.10219015        3.04029055        0.08079556
 C           -0.59559797        0.54627060        2.54625631
 C           -0.83215613        1.77929499        1.92535244
 C           -1.63175628       -0.36312910        2.72163496
 C           -0.15109397       -2.05460677        1.78339585
 C           -1.38304035       -1.74527552        2.35876978
 C            1.07645631       -3.03258346       -0.02467806
 C            1.19910590       -2.67719381       -1.42364599
 C           -0.14269441       -2.76845716        0.58208642
 C            0.47623544       -0.57880309       -2.36340817
 C            0.18953610       -1.89403950       -1.96050008
 C           -0.38139926        1.69185046       -2.27562854
 C           -0.58166299        0.33034570       -2.53827376
 C           -1.17177992        3.13854363       -0.46822206
 C           -1.41817648        2.44349860       -1.72325701
 C           -2.12976659        2.15781455        1.59367415
 C           -2.32189865        2.92768113        0.38528296
 C           -2.98341914       -0.02094356        2.31288274
 C           -3.21111526        1.19084108        1.67515446
 C           -2.59460347       -2.26199554        1.74198698
 C           -3.61553523       -1.22962145        1.81571891
 C           -1.26610599       -2.69297891       -0.24296354
 C           -1.10252235       -2.18670291       -1.54160552
 C           -2.51709367       -2.70593587        0.36582801
 C           -1.88416087       -0.16592393       -2.63425843
 C           -2.13911350       -1.51565515       -2.17306070
 C           -2.76829899        1.91529138       -1.69010095
 C           -3.35048944        2.27347915       -0.40568088
 C           -3.94997576        1.23626181        0.41625044
 C           -3.01081207        0.65651881       -2.21742594
 C           -4.30262887       -1.19472173        0.53766046
 C           -3.67417688       -2.17821804       -0.33145168
 C           -3.48065517       -1.57000751       -1.62917583
 C           -4.37464758        0.05877128       -0.19167917
 C           -3.98480031       -0.20930714       -1.56770785




