%chk=001218.chk
%mem=8GB
%Nproc=32
#p B3LYP/6-31G* opt pop=NPA

Template file

0 1
 C            4.23486416        1.26618232       -0.52408460
 C            4.54125301       -0.12217089       -0.27293582
 C            4.07390355       -0.42058173        1.07893301
 C            3.84657187        1.83755239        0.75114307
 C            3.35132372        0.73791133        1.55154826
 C            2.94000283        2.91345464        0.45045014
 C            3.15528862        1.57917899       -1.44463781
 C            2.61415687        2.82791658       -0.97120067
 C            2.28444917        0.56327360       -1.84603241
 C            3.95312721       -1.10765761       -1.15432188
 C            2.78495660       -0.73523644       -1.93890592
 C            3.37921012       -1.68163604        1.02565318
 C            3.55392330       -2.21326794       -0.31342818
 C            2.11691795       -1.79602504        1.59584495
 C            1.97688803        0.63411274        1.79887354
 C            1.37129546       -0.63039676        1.87360448
 C            1.66969523        2.94559797        1.13653141
 C            1.17891564        1.78796853        1.75391649
 C            1.18983381        3.05175078       -1.07562054
 C            0.80654107        3.62047225        0.20009824
 C            0.89285287        0.77377116       -1.82858255
 C            0.36878102        2.05987651       -1.61535939
 C            0.01854054       -0.31343765       -1.97037381
 C            1.87241001       -1.86095248       -1.89266902
 C            2.39887872       -2.82764256       -0.93451002
 C            0.50225370       -1.62941477       -1.91548864
 C            1.43695445       -2.96781695        1.29019991
 C            1.49137522       -3.44261793       -0.08733002
 C            0.08406441       -3.13570760        1.76130917
 C           -0.01705256       -0.71351891        2.07581477
 C           -0.63437516       -1.95703026        2.18430341
 C           -0.20805112        1.68979170        1.92660491
 C           -0.81431112        0.42450233        1.92804446
 C           -0.53349783        3.63153827        0.49175680
 C           -0.96650967        2.81930409        1.61094988
 C           -1.00957171        2.22080567       -1.43076037
 C           -1.42907803        3.24207906       -0.56801360
 C           -1.36132391       -0.09741044       -2.03501627
 C           -1.88413513        1.16963030       -1.73422188
 C           -2.20112597       -1.21079256       -2.12252061
 C           -0.34474202       -2.65710106       -1.49507685
 C            0.11812634       -3.54803981       -0.52757729
 C           -0.66970317       -3.73247854        0.67349476
 C           -1.71621373       -2.48613889       -1.63257019
 C           -1.99705760       -2.11114589        1.71260322
 C           -1.99493949       -3.15936263        0.69546273
 C           -2.58584827       -2.87945394       -0.52730530
 C           -2.20915154        0.28520231        1.76098524
 C           -2.76485449       -0.97367373        1.49207436
 C           -2.40137827        2.70604432        1.45907676
 C           -2.70573396        3.14202469        0.09878165
 C           -3.01747377        1.41332614        1.62472310
 C           -3.25624045        1.33283532       -1.49223229
 C           -3.68020472        2.23120395       -0.43963737
 C           -4.10176318        1.38554268        0.66184122
 C           -3.58135682       -1.12028507       -1.69794795
 C           -3.70914420       -1.97007742       -0.52680512
 C           -3.84218870       -1.07998384        0.60590428
 C           -4.10666392        0.17337063       -1.33461817
 C           -4.46366501        0.11483411        0.07925715




