%chk=001233.chk
%mem=8GB
%Nproc=32
#p B3LYP/6-31G* opt pop=NPA

Template file

0 1
 C            4.38885363       -0.09675915       -0.47376567
 C            4.25592753       -1.23743367        0.40573640
 C            3.66369923       -0.75872894        1.65137362
 C            4.18302049        1.08656537        0.33923275
 C            3.43295307        0.66402904        1.50786256
 C            3.59580543        2.08697368       -0.52578365
 C            3.48451906        0.01815339       -1.60725770
 C            3.24764327        1.43119966       -1.78037372
 C            2.41951565       -0.87912732       -1.73028938
 C            3.45169647       -2.34960907       -0.05122284
 C            2.56543672       -2.15155173       -1.18846832
 C            2.53932090       -1.61845199        1.96076103
 C            2.61546877       -2.74796015        1.06433937
 C            1.28623142       -1.05703084        2.18104020
 C            2.14856375        1.17108738        1.70386988
 C            1.13363875        0.33664626        2.19983303
 C            2.40542894        2.77486425       -0.06949509
 C            1.81560801        2.40543185        1.13473863
 C            1.91807423        1.86366909       -2.13794943
 C            1.54506825        2.93173792       -1.22536654
 C            1.13832632       -0.42310715       -2.09756408
 C            0.95549988        0.92140908       -2.46983539
 C            0.03225519       -1.30288315       -2.05118635
 C            1.38821325       -2.93972290       -0.92116509
 C            1.37376346       -3.23189398        0.50579622
 C            0.17959060       -2.59152797       -1.50508063
 C            0.15597408       -1.87133853        2.05348887
 C            0.18919164       -2.97482737        1.18596877
 C           -1.06342322       -1.38309013        2.51095449
 C           -0.11223955        0.88522513        2.51939176
 C           -1.19606507        0.04071554        2.76517098
 C            0.57315979        2.95529863        1.41004077
 C           -0.34144951        2.23515272        2.27168074
 C            0.19089531        3.17417457       -1.00594008
 C           -0.20691232        3.47855815        0.29717470
 C           -0.32665295        1.41396564       -2.64292043
 C           -0.72451263        2.59567511       -1.88897913
 C           -1.25241145       -0.83836683       -2.39821259
 C           -1.44676964        0.50739592       -2.68204624
 C           -2.38275976       -1.61920954       -2.14968710
 C           -0.93163469       -3.21008737       -0.94698690
 C           -0.96840427       -3.32591481        0.49996410
 C           -2.24725121       -2.84360872       -1.40063852
 C           -2.30592297       -1.85135427        1.91734033
 C           -2.25919083       -2.84067344        0.94542918
 C           -3.10788355       -2.74709432       -0.23056442
 C           -2.54128257        0.44296775        2.37109036
 C           -3.19389075       -0.70518166        1.76415721
 C           -1.68231395        2.68734544        1.93920611
 C           -1.60713011        3.39830978        0.67155531
 C           -2.74885304        1.71001630        1.84175867
 C           -2.12402955        2.43570118       -1.51783636
 C           -2.59995620        1.20390348       -2.12596336
 C           -2.54846392        2.78192861       -0.24103876
 C           -3.36013449        1.85037940        0.52724809
 C           -3.59719982       -0.97327625       -1.67797187
 C           -3.95421175       -1.58341674       -0.40660565
 C           -3.94029647       -0.53811114        0.59985551
 C           -3.59307385        0.46630958       -1.49612063
 C           -3.90902304        0.73654920       -0.09974378




