%chk=000300.chk
%mem=8GB
%Nproc=32
#p B3LYP/6-31G* opt pop=NPA

Template file

0 1
 C            4.89912015       -0.22231453       -0.19768205
 C            4.27542116       -1.42083220        0.33946769
 C            3.78374567       -1.11342896        1.65865123
 C            4.61038654        0.87218347        0.71360957
 C            3.92336565        0.32262291        1.86334277
 C            3.95823465        1.91533105       -0.04700864
 C            4.26237770        0.08159433       -1.47019126
 C            3.79241105        1.44167842       -1.41626889
 C            3.32545914       -1.90248537       -0.63842296
 C            3.29533380       -0.95736564       -1.74323051
 C            2.11097360       -2.44792249       -0.22764912
 C            2.41216330       -1.46426524        1.97546629
 C            1.63476271       -2.20095425        1.07434295
 C            2.61206852        0.83888075        2.22961141
 C            1.81021479       -0.30470227        2.60362624
 C            2.66465262        2.41471947        0.38915940
 C            2.00889350        1.85916872        1.49339732
 C            2.41853996        1.71334320       -1.80157083
 C            1.89826637        2.64068205       -0.81905866
 C            2.05192802       -0.64000584       -2.29351020
 C            1.57809852        0.68449180       -2.24495476
 C            1.18604267       -2.65564056       -1.24202404
 C            1.13132600       -1.67787880       -2.31937400
 C           -0.17282690       -3.01184833       -0.90880946
 C            0.25407486       -2.25225781        1.32233492
 C           -0.58975605       -2.89735048        0.40952445
 C            0.43443708       -0.19590942        2.53909955
 C           -0.28287403       -1.34400193        2.24553285
 C            0.61801230        2.00487562        1.56633650
 C           -0.14366237        1.03864623        2.23991536
 C            0.52778834        2.73237757       -0.69771398
 C           -0.00183075        2.77725984        0.58597586
 C            0.19431718        0.94265216       -2.24604395
 C           -0.24677256        2.14981423       -1.69330972
 C           -0.26301580       -1.39788372       -2.57814605
 C           -1.01562478       -2.47590302       -1.96537541
 C           -0.72515843       -0.09520774       -2.45531992
 C           -2.35893915       -2.27968581       -1.69804563
 C           -1.95684610       -2.97531215        0.66716501
 C           -2.88189648       -2.78153286       -0.43912153
 C           -1.64549406       -1.31312269        2.48201813
 C           -2.49460421       -2.27191510        1.81259320
 C           -1.54329803        1.13056759        2.21899058
 C           -2.30741718       -0.01964055        2.46000623
 C           -1.35692177        3.04691707        0.70338743
 C           -2.14175365        2.23834972        1.61860832
 C           -1.60059527        2.45550452       -1.69461643
 C           -2.11532678        3.15620957       -0.53045795
 C           -2.09089606        0.12008288       -2.23371352
 C           -2.92541548       -0.95711340       -1.90989223
 C           -2.55350187        1.41647118       -2.03179983
 C           -3.93430582       -1.88199697        0.00072151
 C           -3.70894761       -1.58667641        1.40111610
 C           -3.60006535       -0.19657404        1.80751627
 C           -3.99875812       -0.77725468       -0.93916857
 C           -3.47877976        2.11425394        1.05757327
 C           -3.46289269        2.69088695       -0.27459274
 C           -3.74066720        1.62292050       -1.21617294
 C           -4.07050414        0.79577660        0.95715318
 C           -4.26306741        0.50072093       -0.46299779




