%chk=001338.chk
%mem=8GB
%Nproc=32
#p B3LYP/6-31G* opt pop=NPA

Template file

0 1
 C            4.29250942        0.14885518        0.16968578
 C            3.98460616       -1.24189920        0.39718010
 C            3.51065405       -1.78312610       -0.86801153
 C            3.99493460        0.42711004       -1.22795050
 C            3.14936375       -0.65373154       -1.69080676
 C            3.48513713        1.77489961       -1.29255254
 C            3.58844412        1.14766321        0.94588612
 C            3.45650755        2.29366102        0.06734973
 C            2.49688975        0.77943858        1.73872842
 C            2.97328796       -1.57214624        1.37935151
 C            2.12217167       -0.57086278        1.85162535
 C            2.47737079       -2.73564202       -0.54739495
 C            2.39293375       -2.80851449        0.90336410
 C            1.28576421       -2.70019873       -1.25867900
 C            1.79349091       -0.41895428       -1.94446055
 C            0.87782935       -1.47840092       -1.83359925
 C            2.16242723        1.98459289       -1.83589254
 C            1.32313190        0.89472781       -2.09464223
 C            2.27181748        3.12395367        0.18679558
 C            1.62543579        3.12341769       -1.11766298
 C            1.60024175        1.77453755        2.12463800
 C            1.48642715        2.98985176        1.32427480
 C            0.26565631        1.40267420        2.55023731
 C            0.81000949       -0.91108518        2.21902498
 C           -0.14919948        0.08697710        2.38675490
 C            1.18987891       -3.22380427        1.44898951
 C            0.39308105       -2.24229873        2.17301004
 C            0.32811872       -3.61719206       -0.84573835
 C            0.27989867       -3.93687205        0.57048688
 C           -1.03019017       -3.48938186       -1.31109045
 C           -0.47488307       -1.24847111       -2.12918367
 C           -1.40102736       -2.28552847       -2.02105602
 C           -0.04865634        1.13154650       -2.20531258
 C           -0.94200982        0.06126036       -2.27579945
 C            0.26218577        3.34984742       -1.19719172
 C           -0.53442463        2.42101781       -1.97406947
 C            0.07859477        3.34409901        1.25486101
 C           -0.63033763        2.48996292        2.19470578
 C           -0.49134327        3.62687466        0.01702214
 C           -1.97256408        2.20778278        1.98700908
 C           -1.50168853       -0.19397283        2.16128990
 C           -2.42992676        0.84215097        2.16724109
 C           -1.01115508       -2.52756868        1.91483961
 C           -1.06868002       -3.67523573        1.02801211
 C           -1.90460234       -3.59456969       -0.14863190
 C           -1.88674239       -1.46131755        1.71479618
 C           -2.75022147       -1.98001912       -1.58939737
 C           -2.84824769       -2.50325609       -0.23918344
 C           -2.95564530       -1.59319851        0.81054043
 C           -2.31974133        0.31273895       -2.28389454
 C           -3.24456136       -0.70885488       -1.82025243
 C           -1.90836009        2.60659550       -1.55400014
 C           -1.87118105        3.24188958       -0.23891387
 C           -2.63794970        2.72881791        0.80302176
 C           -2.81951152        1.59466536       -1.81133851
 C           -3.64273512        0.69080552        1.39314203
 C           -3.80734528       -0.51185544        0.60087426
 C           -4.05326085       -0.10429276       -0.77367170
 C           -3.74251804        1.83636006        0.49952377
 C           -3.88009045        1.33347571       -0.85388381




