%chk=000500.chk
%mem=8GB
%Nproc=32
#p B3LYP/6-31G* opt pop=NPA

Template file

0 1
 C            4.17617569        1.88464139        0.29411316
 C            4.33814003        0.62012117        0.98576677
 C            4.61216469       -0.37381665       -0.02752322
 C            3.89759285        1.58111682       -1.10160610
 C            4.21234299        0.19008079       -1.31314614
 C            2.55158925        2.03518008       -1.38602909
 C            2.99990254        2.53429191        0.84092803
 C            2.12152598        2.84356419       -0.26105786
 C            3.18542644        0.43920888        1.85844384
 C            2.46288947        1.70048817        1.89256644
 C            2.45676752       -0.75551003        1.82786843
 C            3.96709971       -1.66143991        0.09329079
 C            2.93818695       -1.84740622        1.10592952
 C            3.18950137       -0.67693412       -1.86681111
 C            3.34350410       -1.94076120       -1.18757984
 C            1.61367885        1.17512259       -1.96991009
 C            1.89203466       -0.19687962       -2.08451490
 C            0.28000238        1.59467906       -1.95681159
 C            0.76169878        2.87551994       -0.01515347
 C           -0.06082823        2.64941513       -1.10064520
 C            1.08389130        1.65478386        2.03707818
 C            0.28214366        2.48001400        1.23831696
 C            1.11046993       -0.73649889        2.21005960
 C            0.52669271        0.49247506        2.54437375
 C            0.30240972       -1.86286168        1.97769853
 C            1.98655709       -2.77496864        0.53093603
 C            2.14660385       -2.69195467       -0.91294411
 C            0.68601093       -2.81161514        1.02462231
 C            0.82939677       -1.11472723       -2.14848285
 C            1.00738814       -2.42134029       -1.65064633
 C           -0.71631215        0.72644856       -2.41149834
 C           -0.46073323       -0.64673510       -2.44330664
 C           -2.03275710        1.19025155       -2.49632315
 C           -1.38588430        3.00588649       -0.94552262
 C           -2.36127546        2.44403914       -1.84938215
 C           -1.10975320        2.44829059        1.42323523
 C           -1.92694230        2.94652684        0.40180371
 C           -0.79361446        0.54900392        2.95654004
 C           -1.65058321        1.56597564        2.36854205
 C           -1.01438019       -1.86993396        2.43558979
 C           -1.55017800       -0.67828009        3.06043567
 C           -2.05944294       -2.42428421        1.58964559
 C           -0.28714741       -3.33785387        0.17244840
 C           -0.10699935       -3.14147379       -1.25578344
 C           -1.69707839       -3.15841655        0.47201827
 C           -1.53371165       -1.53965989       -2.47247336
 C           -1.38585046       -2.82689450       -1.83587663
 C           -2.38654524       -2.91973150       -0.78315569
 C           -3.13904914        0.27688190       -2.25296390
 C           -2.86253506       -1.07139264       -2.13139067
 C           -3.25036202       -1.76008531       -0.90625170
 C           -3.59645013        2.26914830       -1.10665456
 C           -3.30302108        2.49685349        0.29866809
 C           -3.99981288        0.88482697       -1.25540007
 C           -2.96570178        0.96690843        2.15818763
 C           -2.87470860       -0.43593981        2.51221220
 C           -3.11935733       -1.43019936        1.48389718
 C           -3.57600382       -1.01651734        0.22978898
 C           -3.70102677        1.31726425        1.03666045
 C           -4.05374247        0.28510310        0.06717920




