%chk=001268.chk
%mem=8GB
%Nproc=32
#p B3LYP/6-31G* opt pop=NPA

Template file

0 1
 C            4.11679365       -1.11142437        0.51906278
 C            4.13382960       -0.78456654       -0.88819098
 C            4.11680903        0.66588139       -0.99505959
 C            4.06269429        0.14380463        1.25475414
 C            3.70940436        1.17574322        0.30084958
 C            3.20544730       -0.06587860        2.39784543
 C            3.04448430       -1.94405876        1.02681566
 C            2.73790509       -1.44282539        2.34580653
 C            1.97925555       -2.29813815        0.19982121
 C            3.06393576       -1.28212110       -1.72830264
 C            1.99956727       -1.98463412       -1.16822902
 C            3.31405606        1.00270265       -2.15250350
 C            2.75779444       -0.23341306       -2.67988864
 C            2.20958612        1.92277277       -1.98010521
 C            2.48542258        1.84399257        0.41317391
 C            1.94778556        2.46535871       -0.72440744
 C            2.03441568        0.77231214        2.55104149
 C            1.69746277        1.69966545        1.57156144
 C            1.35110076       -1.44324275        2.76246475
 C            0.98474117       -0.07007843        3.07949473
 C            0.77012107       -2.69511116        0.78814048
 C            0.42980351       -2.21865027        2.06508681
 C           -0.21554175       -3.23867999       -0.03694391
 C            0.80513740       -2.03570563       -1.88182734
 C           -0.16303919       -2.93312188       -1.45474441
 C            1.36150991        0.01314843       -3.00517708
 C            1.08830442        1.41425766       -2.75303347
 C            0.40857133       -0.91326186       -2.61784760
 C           -0.19296790        1.80654916       -2.36513770
 C            0.77268528        3.19421584       -0.60262874
 C           -0.26879276        2.95981738       -1.59012169
 C            0.40967759        2.23244493        1.59728446
 C            0.10857067        3.23170564        0.67981975
 C           -0.33875027        0.31411175        2.88960129
 C           -0.61498438        1.53789771        2.26868348
 C           -0.90821389       -2.01200978        2.38666749
 C           -1.30130104       -0.69480732        2.85855072
 C           -1.61082927       -3.20137289        0.36978525
 C           -1.95926755       -2.51487260        1.52334955
 C           -1.52371262       -2.76934888       -1.93192098
 C           -2.42085242       -3.05966375       -0.82733976
 C           -0.91911386       -0.50096046       -2.56687125
 C           -1.21353161        0.84110767       -2.26676197
 C           -1.89991575       -1.48170803       -2.48117495
 C           -2.46659977        1.18890293       -1.72188213
 C           -1.52532416        3.33406456       -0.98678434
 C           -1.26776826        3.60280523        0.42148943
 C           -2.62731694        2.40441750       -1.05963968
 C           -1.95092554        1.91637563        2.11631100
 C           -2.31269672        2.96802784        1.18926040
 C           -3.26336817        2.40320662        0.24634540
 C           -2.63813816       -0.41649797        2.35991055
 C           -3.03380283       -1.52674187        1.50430351
 C           -2.96961904        0.88560304        2.00821747
 C           -3.72431963        1.13603426        0.78654933
 C           -3.48101543       -2.06963096       -0.85460558
 C           -3.19628319       -1.14475961       -1.94305968
 C           -3.40550143        0.19664537       -1.44937097
 C           -3.74520330       -1.27820136        0.33410302
 C           -3.94817569        0.09191485       -0.10259078




