%chk=001445.chk
%mem=8GB
%Nproc=32
#p B3LYP/6-31G* opt pop=NPA

Template file

0 1
 C            3.85726080       -1.92543186        0.26152500
 C            4.01538677       -0.68996991        0.99808045
 C            4.17791601        0.36452154        0.01790344
 C            3.57394030       -1.57553217       -1.12694684
 C            3.65335546       -0.13491143       -1.24018970
 C            2.33956270       -2.23387810       -1.50325197
 C            2.82752340       -2.84419055        0.69141544
 C            2.08958521       -3.23592696       -0.49519892
 C            1.84498731       -2.39494484        1.66564003
 C            2.95818367       -0.26960684        1.90472424
 C            1.81618407       -1.05810316        2.05784872
 C            3.58164112        1.56479322        0.56866997
 C            2.81241445        1.16519441        1.74535473
 C            3.00495798        2.45792497       -0.32180104
 C            2.60978198        0.56509730       -1.84005985
 C            2.52816570        1.93832508       -1.59705965
 C            1.26628654       -1.46504941       -1.94953545
 C            1.47597305       -0.12402617       -2.29482232
 C           -0.04384654       -1.96287676       -1.81812707
 C            0.72189664       -3.43873590       -0.08975643
 C            0.60298305       -3.04469165        1.30600323
 C           -0.29444917       -3.03594960       -0.94049206
 C           -0.60348007       -2.48158227        1.70756575
 C            0.58294677       -0.44607561        2.30855409
 C           -0.59057969       -1.22321677        2.31862611
 C            1.56787471        1.74343959        1.97507025
 C            0.52119939        0.95077171        2.45016163
 C            1.99167983        3.35936098        0.18452913
 C            1.27415175        2.97280288        1.38274539
 C            1.33005904        2.67538920       -1.96282748
 C            1.00651997        3.56723922       -0.86393602
 C            0.44152619        0.59036010       -2.88572773
 C            0.29858635        2.00911318       -2.60312969
 C           -1.11469989       -1.25163463       -2.38840709
 C           -0.89214140        0.01821114       -2.91704954
 C           -2.43260296       -1.63503890       -2.13284394
 C           -1.56743659       -3.18467902       -0.41656503
 C           -1.73775144       -2.86999243        0.99145728
 C           -2.69189764       -2.65098106       -1.14026680
 C           -2.98271527       -2.13548907        1.13526904
 C           -3.62713187       -2.10524240       -0.16887488
 C           -1.80732890       -0.64810701        2.67992751
 C           -3.00910918       -1.00837501        1.94627993
 C           -0.69114470        1.57331366        2.73103808
 C           -1.87604201        0.77144344        2.94259870
 C           -0.11236117        3.35577142        1.18216991
 C           -0.31123767        3.48406629       -0.25223134
 C           -1.08535602        2.71811715        1.92953697
 C           -1.06728569        2.22015478       -2.15190825
 C           -1.83776524        1.09108434       -2.63006329
 C           -1.30545156        2.72918032       -0.87395968
 C           -3.44414844       -0.60546218       -1.96000568
 C           -4.11029686       -0.84148401       -0.68941345
 C           -3.03046613        0.78350002       -1.99882903
 C           -3.61845243        0.22598475        1.46294683
 C           -2.93276887        1.32706599        2.10829651
 C           -2.32997334        2.35543519        1.28030603
 C           -2.36459975        2.22525019       -0.10927749
 C           -3.96006219        0.35220493        0.12102463
 C           -3.29994754        1.36606870       -0.69271134




