%chk=000589.chk
%mem=8GB
%Nproc=32
#p B3LYP/6-31G* opt pop=NPA

Template file

0 1
 C            4.21400487       -1.21991573       -1.00420041
 C            3.59398002       -2.23117984       -0.16755729
 C            3.58470902       -1.73640469        1.18961490
 C            4.36282723       -0.01728392       -0.20153321
 C            4.06818810       -0.36348350        1.16788906
 C            3.58162895        1.03148058       -0.82560246
 C            3.29320845       -0.91983905       -2.08803830
 C            3.01757954        0.49802887       -2.05873249
 C            2.32749347       -2.58912101       -0.77263543
 C            2.16708083       -1.82372621       -1.99346624
 C            1.20285534       -2.75800746        0.02241946
 C            2.32871425       -1.74657100        1.91698823
 C            1.20322098       -2.33381345        1.36042927
 C            3.10513701        0.44568606        1.88596444
 C            2.17180989       -0.45414293        2.54640970
 C            2.79284953        1.88323911       -0.04766192
 C            2.60713948        1.62157123        1.32368938
 C            1.87478051        2.67801004       -0.73409336
 C            1.75424554        0.93425702       -2.43891553
 C            1.37250465        2.20130067       -2.01157514
 C            0.89634737       -1.33334139       -2.28921733
 C            0.76137615       -0.01185016       -2.73266830
 C           -0.02159496       -2.82282456       -0.62999931
 C           -0.21577701       -1.98852714       -1.74281548
 C           -1.10659503       -3.22224517        0.13397590
 C           -0.02338127       -2.06366990        1.96091584
 C           -1.10715304       -2.81667107        1.52559660
 C            0.88858012        0.01875780        2.82060253
 C           -0.22849868       -0.79426405        2.53731311
 C            1.55876476        2.23079767        2.01076964
 C            0.73822482        1.40198577        2.88093207
 C            0.77524628        3.31459264       -0.03379478
 C            0.67642481        3.16629189        1.33661533
 C           -0.00960367        2.62037855       -2.14073212
 C           -0.41761106        3.19622247       -0.86547996
 C           -0.49949030        0.43294300       -3.11735905
 C           -0.89094285        1.80654530       -2.83242648
 C           -1.50446400       -1.57469889       -2.11340218
 C           -1.65290397       -0.41637547       -2.87243937
 C           -2.43908323       -3.04370725       -0.38905100
 C           -2.62551607       -2.08446163       -1.45437013
 C           -2.44214293       -2.39088902        1.86243023
 C           -3.29726216       -2.66210940        0.71901535
 C           -1.53219792       -0.26600931        2.65933841
 C           -2.63027380       -1.01453776        2.24933885
 C           -0.58401476        1.97752774        2.92241133
 C           -0.63815941        3.04625405        1.93742004
 C           -1.71517717        1.11047413        2.69752824
 C           -1.64854090        2.84801864       -0.29858529
 C           -1.78845890        2.80321247        1.08394073
 C           -2.55660800        1.72391087        1.68302984
 C           -2.28151475        1.79855925       -2.42699295
 C           -2.78654702        0.45088878       -2.60560772
 C           -2.61788004        2.22707033       -1.08112097
 C           -3.69170188       -1.17600367       -1.04611101
 C           -3.95750374       -1.42271146        0.35414429
 C           -3.57079567       -0.40766592        1.31480195
 C           -3.33118448        0.89471645        0.87353974
 C           -3.63915008        0.14019966       -1.47483998
 C           -3.46719319        1.20313101       -0.48603930




