%chk=000259.chk
%mem=8GB
%Nproc=32
#p B3LYP/6-31G* opt pop=NPA

Template file

0 1
 C            4.67453765       -0.13021699        0.23951274
 C            4.32844311       -1.51780786        0.47806733
 C            3.58162098       -1.99020451       -0.67392264
 C            4.12460750        0.24899582       -1.05144882
 C            3.37728001       -0.87104267       -1.57350261
 C            3.42189950        1.49518410       -0.87024189
 C            4.00087106        0.67276847        1.24552667
 C            3.36322670        1.77420700        0.55919727
 C            3.42715109       -1.56014709        1.61621233
 C            3.15933911       -0.19971804        2.03575942
 C            2.40418244       -2.67533169       -0.17573049
 C            2.29797506       -2.38534567        1.24314650
 C            1.23294826       -2.60154358       -0.92157034
 C            2.08773098       -0.65491522       -2.04943870
 C            1.19248188       -1.72109658       -2.00858517
 C            2.27263307        1.73922984       -1.61307456
 C            1.58781470        0.65182860       -2.19411949
 C            1.54733719        2.85385241       -1.21618803
 C            2.16458845        2.27267893        1.06134540
 C            1.45461973        3.11475530        0.20966378
 C            1.83598038        0.17814403        2.24110783
 C            1.45555929        1.50162002        1.99501171
 C            1.03915744       -2.04960178        1.72207076
 C            0.85012277       -0.81058021        2.34818815
 C            0.03695666       -2.90804530       -0.27076146
 C           -0.05329226       -2.64260538        1.10015098
 C           -1.11617420       -3.02856437       -1.04034181
 C            0.02207542       -1.61696372       -2.74291129
 C           -1.11329896       -2.43915431       -2.36421813
 C            0.28630575        0.82651020       -2.70607567
 C           -0.47146955       -0.28957203       -3.06000036
 C            0.25723803        3.10701139       -1.80484785
 C           -0.39149841        2.02803460       -2.51175447
 C            0.08047299        3.47020083        0.51104001
 C           -0.63574531        3.55420899       -0.74712882
 C            0.18583549        1.90745788        2.39456024
 C           -0.54312190        2.88583785        1.60096262
 C           -0.44246910       -0.44763502        2.74037202
 C           -0.76791863        0.90542625        2.84479727
 C           -1.29201786       -2.49757518        1.70987897
 C           -1.46476630       -1.39106343        2.63264704
 C           -2.41680214       -2.77466421       -0.44694290
 C           -2.51009213       -2.62941263        0.93079599
 C           -2.31548726       -1.63610852       -2.49949720
 C           -1.90882432       -0.27839248       -2.81296456
 C           -3.14153116       -1.86736781       -1.33165164
 C           -1.78005557        1.99677966       -2.07853491
 C           -1.88671288        2.83536928       -0.89424876
 C           -2.47589127        0.79189667       -2.12111215
 C           -1.92141479        2.42800388        1.48410463
 C           -2.09719029        1.36999787        2.46811143
 C           -2.53240928        2.33007744        0.22865478
 C           -2.84706901       -0.95209804        2.54323462
 C           -3.49661110       -1.72419172        1.49484586
 C           -3.12449548        0.45190905        2.30800629
 C           -3.84790681       -0.79732640       -0.79857680
 C           -3.48159964        0.56197391       -1.17614002
 C           -3.53071560        1.38421292        0.02459766
 C           -4.18030389       -0.79636478        0.61546128
 C           -3.96410760        0.54648402        1.12849997




