%chk=000070.chk
%mem=8GB
%Nproc=32
#p B3LYP/6-31G* opt pop=NPA

Template file

0 1
 C            5.04970330       -0.35696140       -0.05744233
 C            4.53699630       -1.64708463       -0.47178247
 C            3.68490689       -2.14064579        0.59454240
 C            4.49189518       -0.06145187        1.25297435
 C            3.49451160       -1.07059449        1.55043266
 C            4.07872601        1.31768327        1.22546067
 C            4.52017143        0.63811958       -0.97365207
 C            4.11722437        1.76220620       -0.16647707
 C            3.67829720       -1.43231495       -1.62433854
 C            3.51749876       -0.00578876       -1.80389074
 C            2.50325479       -2.68008469       -0.03514163
 C            2.48381910       -2.21647109       -1.40832991
 C            1.29819131       -2.58956739        0.64093981
 C            2.18224583       -0.69672331        1.86043505
 C            1.16135029       -1.62516791        1.65059068
 C            2.76189782        1.65769841        1.72854512
 C            1.84366207        0.65153789        2.05279702
 C            2.83209146        2.37279004       -0.43158072
 C            2.31520711        2.73060078        0.87083655
 C            2.21910093        0.51095766       -1.85411107
 C            1.94840604        1.78878521       -1.34615843
 C            1.26747096       -1.72353153       -1.86266463
 C            1.15345603       -0.35136122       -2.14303566
 C            0.16292516       -2.88479077       -0.10198646
 C            0.12967081       -2.38897289       -1.41082589
 C           -1.01369820       -3.02825245        0.61654263
 C           -0.12710224       -1.32171896        2.08774532
 C           -1.10154220       -2.28763113        1.85759436
 C            0.48952741        1.01314717        2.14639255
 C           -0.50449404        0.02571933        2.17192504
 C            0.98812160        3.08168024        0.93645979
 C            0.13242273        2.32273590        1.82793775
 C            0.62636203        2.24186878       -1.32558850
 C            0.26033355        3.12861528       -0.31136981
 C           -0.12065682        0.18593289       -2.35351382
 C           -0.37462324        1.51018302       -1.97596756
 C           -1.07950731       -2.03279434       -1.98949262
 C           -1.18262709       -0.70011869       -2.54981007
 C           -2.29201039       -2.90674067       -0.05227317
 C           -2.33082947       -2.34417833       -1.32061084
 C           -2.49197219       -1.96951841        2.08471459
 C           -3.25072602       -2.49423508        0.95695371
 C           -1.86369357        0.39048494        2.06771520
 C           -2.85294105       -0.58041957        2.23858356
 C           -1.22102027        2.60559460        1.39328000
 C           -1.12737969        3.22247844        0.07248592
 C           -2.22155371        1.67143701        1.61939500
 C           -1.69082329        1.99041813       -1.94042886
 C           -2.08305174        2.89715603       -0.87068087
 C           -2.55521345       -0.25661617       -2.39095241
 C           -3.27161297       -1.27464550       -1.62684661
 C           -2.80762048        1.08940920       -2.18137479
 C           -4.25937709       -1.51039237        0.61815459
 C           -4.13721566       -0.42576454        1.57917994
 C           -4.25463469       -0.91366402       -0.70632776
 C           -3.42577371        1.86471678        0.93857214
 C           -3.37551697        2.46551623       -0.38032954
 C           -3.90272041        1.49079127       -1.31516426
 C           -4.40857540        0.80576715        0.87493763
 C           -4.60093473        0.48417151       -0.53397493




