%chk=001017.chk
%mem=8GB
%Nproc=32
#p B3LYP/6-31G* opt pop=NPA

Template file

0 1
 C            4.32524413       -0.12166379       -0.00000000
 C            3.79638438       -0.79491181       -1.17089348
 C            2.98224595       -1.91409073       -0.72510203
 C            3.79638438       -0.79491181        1.17089348
 C            2.98224595       -1.91409073        0.72510203
 C            3.18245130        0.20780414        2.01956172
 C            3.80216888        1.23336401       -0.00000000
 C            3.08561131        1.43712261        1.24613455
 C            3.18245130        0.20780414       -2.01956172
 C            3.08561131        1.43712261       -1.24613455
 C            2.09876532       -0.17566035       -2.79366731
 C            1.78960593       -2.17996394       -1.38914428
 C            1.49978544       -1.48199362       -2.56456743
 C            0.75398771       -2.81813962       -0.70279956
 C            1.78960593       -2.17996394        1.38914428
 C            0.75398771       -2.81813962        0.70279956
 C            2.09876532       -0.17566035        2.79366731
 C            1.49978544       -1.48199362        2.56456743
 C            1.00809756        0.76227375        2.99655860
 C            1.87354310        2.12163799        1.21018390
 C            0.95185358        1.93163698        2.24591455
 C            1.87354310        2.12163799       -1.21018390
 C            1.45115499        2.68380818       -0.00000000
 C            1.00809756        0.76227375       -2.99655860
 C            0.95185358        1.93163698       -2.24591455
 C            0.12814627       -1.41398547       -3.04304600
 C           -0.21333974       -0.00746509       -3.18113295
 C           -0.40133539       -3.14238912       -1.41582904
 C           -0.80665017       -2.28436383       -2.51253093
 C           -1.60871821       -3.54169565       -0.72154815
 C           -0.40133539       -3.14238912        1.41582904
 C           -1.60871821       -3.54169565        0.72154815
 C            0.12814627       -1.41398547        3.04304600
 C           -0.21333974       -0.00746509        3.18113295
 C           -0.80665017       -2.28436383        2.51253093
 C           -1.40511557        0.48267491        2.64586622
 C           -0.26030663        2.61227388        2.21045766
 C           -1.49021171        1.85139546        2.38340945
 C            0.37054978        3.55724465       -0.00000000
 C           -0.48405605        3.59494875        1.16906150
 C           -0.26030663        2.61227388       -2.21045766
 C           -0.48405605        3.59494875       -1.16906150
 C           -1.40511557        0.48267491       -2.64586622
 C           -1.49021171        1.85139546       -2.38340945
 C           -2.12699901       -1.77899048       -2.18555793
 C           -2.68066755       -2.66642429       -1.17313123
 C           -2.32871674       -0.40345685       -2.07435807
 C           -2.68066755       -2.66642429        1.17313123
 C           -2.12699901       -1.77899048        2.18555793
 C           -2.32871674       -0.40345685        2.07435807
 C           -3.31545210       -2.09154003        0.00000000
 C           -3.27960506        0.06429003       -1.16610470
 C           -3.27960506        0.06429003        1.16610470
 C           -3.61486653       -0.73701064        0.00000000
 C           -2.46262115        2.35319760        1.42824560
 C           -1.86310980        3.47385364        0.72499014
 C           -1.86310980        3.47385364       -0.72499014
 C           -2.46262115        2.35319760       -1.42824560
 C           -3.24842463        1.44831993        0.73043222
 C           -3.24842463        1.44831993       -0.73043222




