%chk=001360.chk
%mem=8GB
%Nproc=32
#p B3LYP/6-31G* opt pop=NPA

Template file

0 1
 C            3.93619208        1.01125273        0.90659748
 C            4.10683309       -0.29079081        0.30595026
 C            3.82113200       -0.15481752       -1.11700972
 C            3.67070661        1.94428873       -0.17516952
 C            3.23304988        1.15276878       -1.30644156
 C            2.77412357        2.94823622        0.34506841
 C            2.87487574        1.18819316        1.87634033
 C            2.38419049        2.53763213        1.68902482
 C            1.94815490        0.16724352        2.07567224
 C            3.29237091       -1.38854672        0.78678725
 C            2.22906996       -1.14309005        1.65640792
 C            3.05300965       -1.31914835       -1.50661853
 C            3.05484039       -2.22531592       -0.36783999
 C            1.87027441       -1.15103338       -2.22190716
 C            1.90619912        1.23536864       -1.73074963
 C            1.31677737        0.13120163       -2.36061058
 C            1.54461215        3.21351751       -0.37103319
 C            1.12582192        2.35449557       -1.39089469
 C            0.95633804        2.78352269        1.80693906
 C            0.58797716        3.57779456        0.64977550
 C            0.66177347        0.49689712        2.51065416
 C            0.11209702        1.74256036        2.19371284
 C           -0.17258968       -0.51337729        2.96014520
 C            1.25378191       -2.13325773        1.80533125
 C            0.16279446       -1.88780591        2.63422601
 C            2.05527720       -3.18125950       -0.28714758
 C            1.19425523       -3.19013534        0.88764164
 C            1.05789474       -2.27229803       -2.38527126
 C            1.20148440       -3.37193588       -1.44650461
 C           -0.36014387       -2.11137996       -2.65206674
 C            0.06641564        0.27569566       -2.95189263
 C           -0.83649857       -0.86320070       -3.00698901
 C           -0.21626009        2.41583160       -1.78334872
 C           -0.72775460        1.45273984       -2.64987388
 C           -0.74397756        3.61598289        0.29148081
 C           -1.09427950        3.23110490       -1.06440296
 C           -1.25461318        1.84623930        1.90399694
 C           -1.69599311        2.93293707        1.14370774
 C           -1.60940944       -0.35221091        2.82435279
 C           -2.11106643        0.76636269        2.16383416
 C           -1.07782592       -2.60422931        2.40109568
 C           -2.17212250       -1.65656077        2.51485464
 C           -0.09800474       -3.72600208        0.47604678
 C           -0.12451034       -3.73063759       -0.97382176
 C           -1.08585098       -2.88146959       -1.65508004
 C           -1.23871454       -3.32426844        1.15347685
 C           -3.00579467       -1.79069637        1.33343930
 C           -2.09298896       -2.26715914       -0.91232190
 C           -2.30899559       -2.67139069        0.40936386
 C           -2.11664805       -0.42808036       -2.48111076
 C           -2.11676808        1.02398792       -2.53225180
 C           -2.67644570       -1.08705169       -1.38452385
 C           -2.51494217        2.92074784       -1.04151042
 C           -2.90796549        2.82272502        0.35786053
 C           -2.99155712        1.73206679       -1.72150655
 C           -3.30773578        0.62567200        1.45368483
 C           -3.61866137       -0.65255585        0.83752681
 C           -3.61267803       -0.42286612       -0.59528319
 C           -3.72522529        1.64336154        0.51036877
 C           -3.83630218        1.00214364       -0.79218265




