%chk=000273.chk
%mem=8GB
%Nproc=32
#p B3LYP/6-31G* opt pop=NPA

Template file

0 1
 C           -4.63715415       -0.44008305        0.28731710
 C           -4.31152068       -1.42843599       -0.72314991
 C           -3.35771490       -2.35438255       -0.14160958
 C           -3.86610062       -0.75162303        1.47920963
 C           -3.02971264       -1.89825397        1.19400256
 C           -3.21434454        0.46716059        1.90788489
 C           -4.18198005        0.85195290       -0.19449306
 C           -3.42114182        1.47151149        0.87066999
 C           -3.63531958       -0.74638562       -1.81409593
 C           -3.51994583        0.65610639       -1.46740540
 C           -2.27062947       -2.50157979       -1.08385777
 C           -2.41463658       -1.47804402       -2.10364856
 C           -0.99549856       -2.71003239       -0.59067023
 C           -1.68608590       -1.83973408        1.55348475
 C           -0.74551268       -2.52167843        0.77286555
 C           -1.95155983        0.38383322        2.48669025
 C           -1.25058905       -0.82937557        2.41631960
 C           -1.23554867        1.57340450        2.58348191
 C           -2.34399523        2.28718794        0.53450296
 C           -1.43973827        2.57565950        1.55255914
 C           -2.29316263        1.27583520       -1.66529303
 C           -1.89333663        2.29455830       -0.79192192
 C           -1.27268873       -0.76094421       -2.46513239
 C           -1.33394607        0.63424514       -2.45453390
 C            0.05262892       -2.49767212       -1.46716549
 C           -0.02542714       -1.38392378       -2.31662035
 C            1.28223109       -3.00371761       -1.08778023
 C            0.57737858       -2.61676237        1.22166744
 C            1.54739919       -3.09662345        0.33707211
 C            0.05120332       -0.89629028        2.90429674
 C            0.97455549       -1.86116009        2.32743222
 C            0.17561100        1.55071464        2.91890955
 C            0.79105823        0.33090691        3.15640232
 C           -0.15180340        3.16909319        1.23858994
 C            0.84367002        2.55719242        2.10640245
 C           -0.77562083        3.05522972       -1.12700225
 C            0.15850487        3.45019673       -0.08470044
 C           -0.22069568        1.35343652       -2.86231471
 C            0.00138213        2.66922010       -2.29078330
 C            1.13778372       -0.68959608       -2.68939772
 C            1.06199689        0.67805071       -2.93876698
 C            2.46937375       -2.50692344       -1.73746320
 C            2.39119482       -1.21589669       -2.38147533
 C            2.94278847       -2.75216145        0.54678875
 C            3.53266208       -2.46334794       -0.74921241
 C            2.31117004       -1.27788526        2.37912681
 C            2.16846774        0.12233887        2.73967246
 C            3.25962323       -1.65421979        1.43704349
 C            2.12876866        2.32291643        1.63077433
 C            2.82392434        1.09775332        1.99497283
 C            1.50949011        3.22343699       -0.57734593
 C            1.41053881        2.78381353       -1.95372599
 C            2.06459227        1.54930201       -2.34485886
 C            2.45850484        2.63197445        0.24720641
 C            3.37575477       -0.34606447       -1.75220530
 C            4.04175165       -1.10518570       -0.70901550
 C            3.94905222       -0.63260665        0.65714052
 C            3.65623649        0.70818769        0.86795250
 C            3.03221066        0.98303110       -1.51898523
 C            3.29390175        1.55233939       -0.26580830




