%chk=000418.chk
%mem=8GB
%Nproc=32
#p B3LYP/6-31G* opt pop=NPA

Template file

0 1
 C            4.26253476        0.84281096       -1.40046849
 C            4.25523168        1.49627213       -0.10201250
 C            4.31397549        0.46572512        0.91691322
 C            4.16594147       -0.58772817       -1.17496130
 C            4.31873854       -0.82248139        0.24218801
 C            2.95268685       -1.06138777       -1.81635517
 C            3.06635424        1.25876880       -2.11237046
 C            2.28126248        0.08037616       -2.41295015
 C            3.14480466        2.42798659       -0.08128802
 C            2.43531837        2.31101681       -1.34797744
 C            2.39649168        2.56256229        1.08363520
 C            3.28344623        0.42985832        1.94583926
 C            2.41436214        1.50117692        2.08643525
 C            3.33620377       -1.66129034        0.89165187
 C            2.74718393       -0.91853838        1.99215657
 C            2.16253779       -2.01442391       -1.18055371
 C            2.48018060       -2.43820898        0.12356279
 C            0.84892683       -2.15402538       -1.62986620
 C            0.89448226        0.15904591       -2.30327052
 C            0.17384499       -1.01660310       -2.10194775
 C            1.04678499        2.37790645       -1.33015753
 C            0.29669139        1.38032952       -1.97628727
 C            1.02230954        3.01185427        0.96627271
 C            0.45177676        3.10118317       -0.29943842
 C            1.03812284        1.23914594        2.47599204
 C            0.25216263        2.36446624        2.01642672
 C            1.39472229       -1.13761223        2.27573081
 C            0.51782267       -0.04612891        2.35244386
 C            1.50077936       -3.11065773        0.84320395
 C            0.88660667       -2.39232910        1.95349591
 C            0.13493821       -3.26410285       -1.19936380
 C            0.44420757       -3.77544273        0.11503425
 C           -1.30292073       -3.28664231       -1.33683718
 C           -1.22331896       -0.95496382       -2.08843845
 C           -1.96914781       -2.10882751       -1.85312364
 C           -1.09839831        1.46574765       -1.94160923
 C           -1.86315164        0.28871685       -2.01980156
 C           -0.91622803        3.30333371       -0.35760566
 C           -1.65203737        2.62791418       -1.40232244
 C           -1.10776899        2.20136548        1.79701095
 C           -1.67169073        3.05614366        0.85398771
 C           -0.84579903       -0.19863101        2.05331557
 C           -1.67360457        0.93203478        1.98274097
 C           -0.54648460       -2.58439648        1.86131441
 C           -0.76137768       -3.66220029        0.91235735
 C           -1.86344850       -3.54871559       -0.01505255
 C           -1.38494686       -1.47328989        1.82678239
 C           -3.19411944       -1.99781805       -1.08871134
 C           -2.84976037       -2.51740292        0.22068173
 C           -2.65972366       -1.60464521        1.26065146
 C           -3.24736715        0.32099540       -1.80151512
 C           -3.88218274       -0.80140723       -1.13028526
 C           -3.04147017        2.66055013       -0.98866482
 C           -3.04933333        2.87365382        0.45500011
 C           -3.87236591        1.51604432       -1.26707239
 C           -3.04250649        0.76042306        1.76938010
 C           -3.53467499       -0.52691571        1.31241292
 C           -4.35833198       -0.28362002        0.13770143
 C           -3.78722683        1.78700224        1.05477297
 C           -4.52204683        1.14602613       -0.01878413




