%chk=001022.chk
%mem=8GB
%Nproc=32
#p B3LYP/6-31G* opt pop=NPA

Template file

0 1
 C            3.84870180       -2.12820468        0.59328828
 C            2.74746062       -3.02714153        0.30751445
 C            1.73309280       -2.83077784        1.32817720
 C            3.43082311       -1.25079042        1.67301765
 C            2.09548171       -1.63503954        2.06806320
 C            3.64559269        0.10917583        1.23775595
 C            4.04875110       -1.30022382       -0.58132059
 C            4.16360023        0.06688856       -0.12721645
 C            2.36218565       -2.83734902       -1.07907426
 C            2.99508715       -1.60898452       -1.53086364
 C            1.03590199       -3.05486102       -1.40481601
 C            0.40039948       -2.99479132        0.96441008
 C            0.12189524       -3.41653403       -0.33641759
 C           -0.57356407       -2.26172424        1.64722245
 C            1.12631739       -0.65489541        2.23762063
 C           -0.20409506       -1.06156616        2.26891549
 C            2.70587938        1.08718984        1.56174923
 C            1.43304045        0.70409007        2.03478248
 C            2.86424887        2.32236558        0.93891106
 C            3.75445498        1.06396264       -0.99778836
 C            3.39079396        2.33634745       -0.41279085
 C            2.21130624       -0.56087949       -2.02488138
 C            2.72324704        0.73458139       -1.98118189
 C            0.34085677       -2.05372445       -2.19214352
 C            0.83949732       -0.75634361       -2.22306920
 C           -1.21032729       -3.21372117       -0.86674987
 C           -1.07704527       -2.26906865       -1.97221221
 C           -1.91481933       -2.51007954        1.34933763
 C           -2.24856027       -3.02972878        0.03163775
 C           -2.93765389       -1.54540235        1.72126804
 C           -1.16555683       -0.14645873        2.66772404
 C           -2.55737433       -0.34598369        2.30740406
 C            0.42241858        1.66949969        2.20737677
 C           -0.86628949        1.26605575        2.54886692
 C            1.79619945        3.29226445        0.98461434
 C            0.55017521        2.92172743        1.61825965
 C            2.37632380        2.92914753       -1.25921165
 C            1.81112222        1.86069996       -2.06523544
 C            1.49292672        3.67454704       -0.38926614
 C           -0.05160448        0.32331315       -2.13536455
 C            0.43634430        1.63407078       -2.02335212
 C           -1.95623007       -1.19413143       -2.04479579
 C           -1.43702379        0.10326091       -2.18026498
 C           -3.41729801       -2.31311303       -0.43542227
 C           -3.95022106       -1.55281066        0.68078499
 C           -3.24509098       -1.38984645       -1.54000468
 C           -4.43227841       -0.29106251        0.14940471
 C           -4.10876102       -0.26003778       -1.27118142
 C           -3.07569803        0.92271525        1.80679042
 C           -2.00263878        1.90650814        1.89552616
 C           -3.95747676        0.95161556        0.73038838
 C           -0.51797527        3.39667861        0.75570512
 C            0.06781412        3.50818389       -0.56617883
 C           -0.40417584        2.65185832       -1.55423309
 C           -1.77533142        2.80820902        0.85199733
 C           -2.28603333        1.20667360       -2.11773116
 C           -3.62826349        1.06317174       -1.58655713
 C           -3.69527241        1.85767161       -0.36876366
 C           -1.77285442        2.44182260       -1.56871862
 C           -2.50242696        2.68097948       -0.33170714




