%chk=001433.chk
%mem=8GB
%Nproc=32
#p B3LYP/6-31G* opt pop=NPA

Template file

0 1
 C            4.33278735       -0.17838167       -0.50501340
 C            4.13205447        0.49656702        0.75924882
 C            3.62737595        1.82562626        0.46790700
 C            3.71712638        0.63439131       -1.54615457
 C            3.21429322        1.84474323       -0.92566611
 C            2.78625534       -0.20682606       -2.27337759
 C            3.83150741       -1.52744232       -0.65127808
 C            3.05198050       -1.56976896       -1.87697940
 C            3.00901996       -2.10186498        0.40272026
 C            3.24763854       -0.09621368        1.74858066
 C            2.69564371       -1.36369725        1.54478621
 C            2.64343776        2.16207760        1.48381473
 C            2.40669512        0.96806774        2.28070669
 C            1.55863626        2.93637223        1.10763302
 C            1.92544020        2.27600176       -1.22551452
 C            1.29194132        3.11327509       -0.31036583
 C            1.46278256        0.20696593       -2.39068093
 C            1.14587876        1.54045980       -2.12526164
 C            0.43571007       -0.74467104       -2.50166362
 C            1.91962142       -2.43364944       -1.64065320
 C            1.96570504       -2.87303592       -0.25390736
 C            0.68309691       -2.08847036       -2.16410195
 C            0.75849221       -3.10881331        0.40558265
 C            1.56819570       -1.71805899        2.27732702
 C            0.60419333       -2.65544262        1.71526731
 C            1.11594731        0.65650434        2.70691076
 C            0.82301575       -0.67970910        2.97017520
 C            0.27971965        2.71778143        1.75513657
 C            0.07523854        1.57920616        2.53082832
 C           -0.12285988        3.39734007       -0.45930373
 C           -0.75956615        3.13831435        0.82677716
 C           -0.11656013        2.00884948       -2.46867477
 C           -0.75976572        3.00476890       -1.62444086
 C           -0.87337841       -0.30944238       -2.76681241
 C           -1.12941159        1.05513299       -2.88243349
 C           -1.95446346       -1.17486262       -2.59032509
 C           -0.37271968       -2.88500749       -1.75238245
 C           -0.37643747       -3.34328605       -0.37250113
 C           -1.71968162       -2.51718974       -2.11248753
 C           -1.69960370       -3.07473581        0.16841179
 C           -2.56435198       -2.73131315       -0.94849229
 C           -0.71548995       -2.27971486        2.20716184
 C           -0.55486008       -1.11858814        3.07338422
 C           -1.82269163       -2.37989100        1.36646378
 C           -1.23892627        1.21430240        2.82093604
 C           -1.55906653       -0.16828503        3.13494105
 C           -2.00737077        2.51749278        0.88204798
 C           -2.31851979        1.74789948        2.00117946
 C           -2.17401327        2.69711511       -1.56809772
 C           -2.41913468        1.57218037       -2.45353690
 C           -2.77169481        2.38900045       -0.28096219
 C           -3.16399902       -0.69307439       -1.93881930
 C           -3.45087259       -1.58853791       -0.82760406
 C           -3.34764497        0.67498662       -1.78908417
 C           -3.62795371        1.22528926       -0.46970855
 C           -2.92978929       -1.55513498        1.57352673
 C           -2.84567016       -0.47603357        2.54074423
 C           -3.35081708        0.73128793        1.90828994
 C           -3.69437765       -1.06322488        0.43498430
 C           -3.86773869        0.37236760        0.60081105




