%chk=000892.chk
%mem=8GB
%Nproc=32
#p B3LYP/6-31G* opt pop=NPA

Template file

0 1
 C            3.83787985       -2.08109502       -0.38001462
 C            4.03855891       -1.00864147        0.57678611
 C            3.10086619       -1.19908880        1.67006511
 C            2.73667763       -2.89733855        0.09690040
 C            2.34556921       -2.41719217        1.40518922
 C            1.72322872       -2.92951150       -0.93374366
 C            3.42734900       -1.47716544       -1.63520677
 C            2.09691674       -1.96607135       -1.95622415
 C            4.01091180        0.24506057       -0.14926869
 C            3.63219024       -0.04655813       -1.52745999
 C            3.47508055        1.35768141        0.48515443
 C            2.43707331       -0.09425817        2.20277500
 C            2.73486880        1.18572330        1.73090709
 C            1.24942360       -0.30642268        2.89674952
 C            0.99572832       -2.45196897        1.74161777
 C            0.54623610       -1.56577512        2.71636191
 C            0.39537509       -2.96769257       -0.54289274
 C            0.07831843       -2.97187688        0.82083878
 C           -0.54728534       -2.48659332       -1.43991204
 C            1.13053985       -1.06902186       -2.41850107
 C           -0.22117263       -1.36290086       -2.20523693
 C            2.74174062        0.79322035       -2.18353829
 C            1.50672660        0.23964434       -2.72726077
 C            2.78831454        2.36969206       -0.29936882
 C            2.42537607        2.09107737       -1.61252220
 C            1.72819794        2.23649439        1.79494643
 C            1.84342141        3.03567986        0.58066138
 C            0.25192564        0.75034061        2.97817533
 C            0.47188142        1.96580082        2.33929585
 C           -0.87736581       -1.30879896        2.86291882
 C           -1.06368517        0.13207295        2.89965367
 C           -1.26691570       -3.03860354        1.18291897
 C           -1.77869049       -2.08733415        2.15747562
 C           -1.87651290       -2.81897002       -1.22127382
 C           -2.26715356       -3.16116192        0.13244092
 C           -2.91651689       -1.98211338       -1.78386411
 C           -1.18808110       -0.37800847       -2.43657961
 C           -2.53643354       -0.71507608       -2.37733510
 C            0.50711945        1.29494545       -2.71183747
 C            1.10369213        2.46551628       -2.08917495
 C           -0.81637755        0.96903215       -2.43692609
 C            0.70706609        3.62458933        0.04448550
 C            0.30458586        3.29609265       -1.31731982
 C           -0.62834121        2.72949045        1.95346844
 C           -0.49108310        3.67338438        0.85933998
 C           -2.05423708        0.73201773        2.12338676
 C           -1.93192071        2.09029798        1.82763648
 C           -2.94546455       -1.45046381        1.57328052
 C           -3.38964525       -2.31167639        0.48981052
 C           -3.88592098       -1.71020924       -0.73144688
 C           -2.96758550       -0.06166355        1.41727752
 C           -3.47554378        0.27603764       -1.89920872
 C           -4.14761186       -0.28673462       -0.73873269
 C           -3.74420776        0.51095357        0.40692925
 C           -1.67232640        1.93831801       -1.89452179
 C           -1.13235607        3.08574119       -1.31610174
 C           -1.63302312        3.50218582       -0.01900440
 C           -2.59115051        2.64327579        0.65352686
 C           -2.96010415        1.57298849       -1.50843262
 C           -3.36612740        1.80263205       -0.12806360




