%chk=001782.chk
%mem=8GB
%Nproc=32
#p B3LYP/6-31G* opt pop=NPA

Template file

0 1
 C            2.38494403       -3.02856749        0.07311861
 C            2.61064329       -2.35958231       -1.19893154
 C            1.36591007       -2.40359855       -1.94392786
 C            1.01781628       -3.52436123        0.08508855
 C            0.39351831       -3.15154322       -1.16092433
 C            0.39351831       -3.09184774        1.31165832
 C            2.61064329       -2.29897539        1.31140295
 C            1.36591007       -2.30698845        2.05765542
 C            3.37394099       -1.14249168        1.28144954
 C            3.37394099       -1.20300053       -1.22482239
 C            3.95915459       -0.72475202        0.01749767
 C            2.88294216       -0.04730132       -1.95921728
 C            0.92611783       -1.28782686       -2.65253748
 C            1.59342261       -0.06027131       -2.49643334
 C           -0.39351831       -1.31165832       -3.09184774
 C           -0.92611783       -2.71159475       -1.15832078
 C           -1.36591007       -2.05765542       -2.30698845
 C           -0.92611783       -2.65253748        1.28782686
 C           -1.59342261       -2.49643334        0.06027131
 C           -1.36591007       -1.94392786        2.40359855
 C            0.92611783       -1.15832078        2.71159475
 C           -0.39351831       -1.16092433        3.15154322
 C            2.88294216        0.04730132        1.95921728
 C            1.59342261        0.06027131        2.49643334
 C            3.95915459        0.72475202       -0.01749767
 C            3.37394099        1.14249168       -1.28144954
 C            3.37394099        1.20300053        1.22482239
 C            2.61064329        2.29897539       -1.31140295
 C            0.92611783        1.15832078       -2.71159475
 C            1.36591007        2.30698845       -2.05765542
 C           -1.01781628       -0.08508855       -3.52436123
 C           -0.39351831        1.16092433       -3.15154322
 C           -2.61064329       -1.31140295       -2.29897539
 C           -2.38494403       -0.07311861       -3.02856749
 C           -2.88294216       -1.95921728        0.04730132
 C           -3.37394099       -1.28144954       -1.14249168
 C           -2.61064329       -1.19893154        2.35958231
 C           -3.37394099       -1.22482239        1.20300053
 C           -1.01781628        0.08508855        3.52436123
 C           -2.38494403        0.07311861        3.02856749
 C            0.92611783        1.28782686        2.65253748
 C           -0.39351831        1.31165832        3.09184774
 C            2.61064329        2.35958231        1.19893154
 C            2.38494403        3.02856749       -0.07311861
 C            1.36591007        2.40359855        1.94392786
 C            0.39351831        3.09184774       -1.31165832
 C            1.01781628        3.52436123       -0.08508855
 C            0.39351831        3.15154322        1.16092433
 C           -1.36591007        1.94392786       -2.40359855
 C           -2.61064329        1.19893154       -2.35958231
 C           -0.92611783        2.65253748       -1.28782686
 C           -3.95915459       -0.01749767       -0.72475202
 C           -3.95915459        0.01749767        0.72475202
 C           -3.37394099        1.22482239       -1.20300053
 C           -2.61064329        1.31140295        2.29897539
 C           -1.36591007        2.05765542        2.30698845
 C           -0.92611783        2.71159475        1.15832078
 C           -1.59342261        2.49643334       -0.06027131
 C           -3.37394099        1.28144954        1.14249168
 C           -2.88294216        1.95921728       -0.04730132




