%chk=000709.chk
%mem=8GB
%Nproc=32
#p B3LYP/6-31G* opt pop=NPA

Template file

0 1
 C            3.68267418        1.94280839        1.40482088
 C            4.26046470        0.70487866        0.91742484
 C            4.15089782        0.70504245       -0.53074087
 C            3.02352796        2.59042441        0.28453672
 C            3.22821607        1.77530463       -0.89356080
 C            1.66488435        2.87597578        0.68338561
 C            2.65656842        1.60107242        2.37392501
 C            1.43951620        2.29578604        1.99416019
 C            3.66598325       -0.39357104        1.66031588
 C            2.60368270        0.15651826        2.48729331
 C            3.45582386       -1.59787077        1.00470281
 C            4.05862127       -0.51689708       -1.18432395
 C            3.85649815       -1.72139747       -0.39068937
 C            3.20896873       -0.61679569       -2.35655335
 C            2.13827217        1.49877851       -1.72015961
 C            2.20908495        0.41205168       -2.58733207
 C            0.64832250        2.73919150       -0.24582605
 C            0.88749291        2.07646916       -1.45889033
 C           -0.64832250        2.73919150        0.24582605
 C            0.21709289        1.66258986        2.21428775
 C           -0.88749291        2.07646916        1.45889033
 C            1.34887887       -0.44449724        2.49648474
 C            0.22926163        0.36173690        2.72253199
 C            2.18119246       -2.27963681        1.16085622
 C            1.17042605       -1.71488246        1.93415598
 C            2.87022047       -2.54685243       -1.06748881
 C            2.51937842       -1.89715437       -2.30752429
 C            1.81154347       -2.83981812       -0.12257514
 C            0.98326314       -0.26146616       -2.97454564
 C            1.11783289       -1.64797727       -2.57903757
 C           -0.21709289        1.66258986       -2.21428775
 C           -0.22926163        0.36173690       -2.72253199
 C           -1.66488435        2.87597578       -0.68338561
 C           -1.43951620        2.29578604       -1.99416019
 C           -3.02352796        2.59042441       -0.28453672
 C           -2.13827217        1.49877851        1.72015961
 C           -3.22821607        1.77530463        0.89356080
 C           -0.98326314       -0.26146616        2.97454564
 C           -2.20908495        0.41205168        2.58733207
 C           -0.13316301       -2.18341580        1.75267554
 C           -1.11783289       -1.64797727        2.57903757
 C            0.47835665       -2.73639595       -0.50688353
 C            0.13316301       -2.18341580       -1.75267554
 C           -0.47835665       -2.73639595        0.50688353
 C           -1.34887887       -0.44449724       -2.49648474
 C           -1.17042605       -1.71488246       -1.93415598
 C           -2.65656842        1.60107242       -2.37392501
 C           -3.68267418        1.94280839       -1.40482088
 C           -2.60368270        0.15651826       -2.48729331
 C           -4.15089782        0.70504245        0.53074087
 C           -4.26046470        0.70487866       -0.91742484
 C           -3.66598325       -0.39357104       -1.66031588
 C           -3.20896873       -0.61679569        2.35655335
 C           -2.51937842       -1.89715437        2.30752429
 C           -4.05862127       -0.51689708        1.18432395
 C           -1.81154347       -2.83981812        0.12257514
 C           -2.18119246       -2.27963681       -1.16085622
 C           -3.45582386       -1.59787077       -1.00470281
 C           -2.87022047       -2.54685243        1.06748881
 C           -3.85649815       -1.72139747        0.39068937




