%chk=001394.chk
%mem=8GB
%Nproc=32
#p B3LYP/6-31G* opt pop=NPA

Template file

0 1
 C            4.46094907        0.17055079        0.50449443
 C            3.82518456       -0.28319146        1.72466009
 C            3.42150277       -1.66043841        1.51469814
 C            4.22759927       -0.83700369       -0.52077393
 C            3.47414476       -1.92149210        0.08679160
 C            3.68754209       -0.17079076       -1.69275620
 C            4.06846728        1.45194808       -0.03836853
 C            3.68991044        1.25616460       -1.43067450
 C            2.98394540        2.18448900        0.59117922
 C            2.66672989        0.43518395        2.23548175
 C            2.21692528        1.58807015        1.59920920
 C            2.16165294       -1.85731161        2.20254357
 C            1.69340994       -0.55354902        2.65539288
 C            1.24082860       -2.72348813        1.63594211
 C            2.33363557       -2.41151201       -0.54960241
 C            1.35188773       -3.03809652        0.21675138
 C            2.59498081       -0.73028227       -2.33840239
 C            2.01858474       -1.96758787       -1.83256151
 C            1.49046792        0.12455459       -2.75178606
 C            2.47177466        2.02202147       -1.65606448
 C            2.30242632        2.86920274       -0.49016393
 C            1.35139286        1.39322933       -2.20507976
 C            1.04590364        3.37782030       -0.23870155
 C            0.88119800        1.97215048        1.74572817
 C            0.46499192        3.11122045        1.06073357
 C            0.33579231       -0.25567219        2.55912972
 C           -0.07042273        1.03544807        2.19043524
 C           -0.16383773       -2.51461730        1.91963020
 C           -0.57341425       -1.31243394        2.48455540
 C            0.00196197       -3.20101464       -0.30988006
 C           -0.92302708       -3.05502062        0.80634555
 C            0.64287221       -2.01670886       -2.30144486
 C            0.32547515       -0.71884548       -2.88211199
 C           -0.33328589       -2.67204920       -1.55425677
 C           -0.93897605       -0.19338182       -2.66387457
 C            0.07420484        1.89389054       -1.91899943
 C           -0.00733438        3.07822952       -1.18640002
 C           -1.06620243        1.07655698       -2.07250173
 C           -0.94488746        3.39206190        0.92479637
 C           -1.23418633        3.41635070       -0.50547833
 C           -1.44013939        1.34868433        2.18582661
 C           -1.89580697        2.49291627        1.53500541
 C           -1.93064036       -1.03524074        2.48382280
 C           -2.36677495        0.34631230        2.46280438
 C           -2.20356935       -2.56276023        0.57630147
 C           -2.78972178       -1.78001119        1.57554054
 C           -1.66576243       -2.35895876       -1.81123016
 C           -1.95859721       -1.12387283       -2.52050649
 C           -2.64570350       -2.47187353       -0.74413855
 C           -3.27428156       -0.68581157       -2.12642084
 C           -3.75512767       -1.60114994       -1.10167040
 C           -2.32290756        1.51486948       -1.59980812
 C           -2.39405645        2.58777656       -0.71794517
 C           -2.99107414        2.37647418        0.58858255
 C           -3.42310655        0.65870734       -1.62462243
 C           -3.67002368        0.38071014        1.81015133
 C           -3.94808586       -0.95043104        1.29254423
 C           -4.40327025       -0.81341315       -0.07420732
 C           -3.89503061        1.33621140        0.73864952
 C           -4.27708833        0.58620523       -0.44729491




