%chk=001745.chk
%mem=8GB
%Nproc=32
#p B3LYP/6-31G* opt pop=NPA

Template file

0 1
 C            3.57511105       -1.35298382        1.19645283
 C            2.66493785       -2.39461857        1.61159307
 C            2.31311326       -3.17104942        0.43313347
 C            3.72238790       -1.43218030       -0.24928440
 C            2.86154122       -2.49627505       -0.72700324
 C            3.55666280       -0.09096027       -0.78526311
 C            3.24717540        0.01778250        1.52512132
 C            3.47879953        0.82602042        0.34137291
 C            2.13790676        0.30512018        2.31232774
 C            1.42925141       -2.01538291        2.27336015
 C            1.14649482       -0.67363362        2.50958883
 C            0.88606954       -3.42609972        0.48985335
 C            0.38325918       -2.86011439        1.73408511
 C            0.10912995       -3.30546606       -0.66127660
 C            2.03826850       -2.25770985       -1.81782827
 C            0.66751098       -2.75431467       -1.81747045
 C            2.73196504        0.12267750       -1.88619116
 C            2.03963240       -0.94736522       -2.45674026
 C            2.29987188        1.42060702       -2.14078830
 C            2.77382272        2.02010910        0.19654445
 C            2.41033842        2.42129148       -1.08881336
 C            1.80571730        1.64842078        2.42904489
 C            2.09142374        2.53184385        1.30683643
 C            0.52259757        2.01981098        2.98117513
 C           -0.18856854       -0.30282761        2.70511278
 C           -0.49644004        0.99959960        3.09084907
 C           -0.93517028       -2.42120437        1.76717297
 C           -1.22570047       -1.16644181        2.32470045
 C           -1.27273957       -3.26642741       -0.50006020
 C           -1.79737207       -2.97230760        0.82115408
 C           -2.08617902       -2.52290695       -1.44907741
 C           -0.12642636       -1.85460494       -2.64280106
 C            0.71573283       -0.72933249       -3.02140741
 C           -1.46463859       -1.64441920       -2.33066442
 C            1.03445053        1.63615860       -2.82553358
 C            0.18527480        0.55565717       -3.04632760
 C            1.33031653        3.37445625       -1.27122478
 C            0.48411890        2.89313615       -2.35022825
 C            0.94366507        3.41535156        1.13389599
 C           -0.02114416        3.09802018        2.16901295
 C            0.48073829        3.69277736       -0.14288214
 C           -1.73678461        1.59632700        2.63143127
 C           -1.36515419        2.71091264        1.77906372
 C           -2.53511107       -0.67658154        2.30062580
 C           -2.75041597        0.75559799        2.21366074
 C           -3.13438926       -2.44187298        0.65177941
 C           -3.29948320       -2.11736714       -0.75722669
 C           -3.51949456       -1.28518165        1.42630332
 C           -3.36105626        0.99881753        0.91892056
 C           -3.73922269       -0.73833358       -0.84986879
 C           -3.96854343       -0.25548104        0.50033119
 C           -2.04308752       -0.40428237       -2.60145860
 C           -1.19562087        0.72816694       -2.94894494
 C           -3.12567599        0.10184661       -1.76699266
 C           -0.89113815        2.92495063       -1.89302216
 C           -0.88846658        3.33861492       -0.49919140
 C           -1.70273120        2.67852986        0.42562030
 C           -2.68372806        1.78257762       -0.01538492
 C           -1.74316180        1.90792203       -2.28802679
 C           -2.76964165        1.45462214       -1.36914135




