%chk=001357.chk
%mem=8GB
%Nproc=32
#p B3LYP/6-31G* opt pop=NPA

Template file

0 1
 C            4.13957259       -0.22559860        0.69120956
 C            3.74024257       -1.61187873        0.68024071
 C            3.42493759       -1.96038191       -0.69917797
 C            4.13957259        0.22559860       -0.69120956
 C            3.32721537       -0.71770743       -1.42988421
 C            3.74024257        1.61187873       -0.68024071
 C            3.32721537        0.71770743        1.42988421
 C            3.42493759        1.96038191        0.69917797
 C            2.07609320        0.32597947        1.90803621
 C            2.59505281       -2.00831118        1.47322788
 C            1.75420427       -1.03848817        2.02369133
 C            2.26301585       -2.82281135       -0.65847623
 C            1.99639673       -3.10374138        0.74416842
 C            1.18248649       -2.55391047       -1.49497090
 C            2.07609320       -0.32597947       -1.90803621
 C            1.08989553       -1.29859584       -2.11747096
 C            2.59505281        2.00831118       -1.47322788
 C            1.75420427        1.03848817       -2.02369133
 C            2.26301585        2.82281135        0.65847623
 C            1.99639673        3.10374138       -0.74416842
 C            1.08989553        1.29859584        2.11747096
 C            1.18248649        2.55391047        1.49497090
 C           -0.07734524        0.94001561        2.78266153
 C            0.46311489       -1.42081508        2.40721036
 C           -0.42628417       -0.46393905        2.88164067
 C            0.71768711       -3.50125351        1.09457895
 C           -0.04268400       -2.66090379        2.00980362
 C            0.02851300       -3.30915933       -1.29039488
 C           -0.18193628       -3.89040540        0.02379185
 C           -1.25678156       -2.83263252       -1.77097611
 C           -0.07734524       -0.94001561       -2.78266153
 C           -1.30115831       -1.69061649       -2.55683964
 C            0.46311489        1.42081508       -2.40721036
 C           -0.42628417        0.46393905       -2.88164067
 C            0.71768711        3.50125351       -1.09457895
 C           -0.04268400        2.66090379       -2.00980362
 C            0.02851300        3.30915933        1.29039488
 C           -0.18193628        3.89040540       -0.02379185
 C           -1.30115831        1.69061649        2.55683964
 C           -1.25678156        2.83263252        1.77097611
 C           -1.84416868       -0.59789683        2.57719884
 C           -2.38992100        0.73975772        2.39326561
 C           -1.44992673       -2.77342944        1.65146862
 C           -1.53340813       -3.57111912        0.44019600
 C           -2.23346563       -3.02173928       -0.70485340
 C           -2.27630310       -1.66058447        1.78284581
 C           -3.19388907       -2.04709190       -0.47449519
 C           -3.30650107       -1.47138118        0.85840713
 C           -2.38992100       -0.73975772       -2.39326561
 C           -1.84416868        0.59789683       -2.57719884
 C           -3.36436321       -0.96492587       -1.42937453
 C           -1.44992673        2.77342944       -1.65146862
 C           -1.53340813        3.57111912       -0.44019600
 C           -2.23346563        3.02173928        0.70485340
 C           -2.27630310        1.66058447       -1.78284581
 C           -3.36436321        0.96492587        1.42937453
 C           -3.92029181       -0.16460428        0.70963936
 C           -3.92029181        0.16460428       -0.70963936
 C           -3.19388907        2.04709190        0.47449519
 C           -3.30650107        1.47138118       -0.85840713




