%chk=000197.chk
%mem=8GB
%Nproc=32
#p B3LYP/6-31G* opt pop=NPA

Template file

0 1
 C            4.44216307       -1.37194229       -0.02229794
 C            4.70781032       -0.00359342        0.37879354
 C            4.22830509        0.86413380       -0.67933277
 C            3.74100136       -1.33659520       -1.29559216
 C            3.54199235        0.04566890       -1.66703658
 C            2.57415914       -2.17491564       -1.16866808
 C            3.53244379       -1.95003481        0.95082258
 C            2.47038926       -2.59861935        0.21447724
 C            3.90598788        0.27993336        1.55668613
 C            3.15811510       -0.91894401        1.89410510
 C            3.48119644        1.93628503       -0.05208835
 C            3.16156821        1.50306259        1.30166971
 C            2.47511450        2.52567185       -0.79557241
 C            2.28292633        0.45908545       -2.10488965
 C            1.96416669        1.80481837       -1.95441761
 C            1.39544062       -1.79284064       -1.79249614
 C            1.24306475       -0.47419545       -2.25625975
 C            0.25213178       -2.49510786       -1.43118768
 C            1.19369591       -2.61695431        0.76104023
 C            0.15047332       -2.93111855       -0.10148755
 C            1.81168676       -0.78111226        2.21139338
 C            0.91007955       -1.79459401        1.86108586
 C            1.83884287        1.57522926        1.74116534
 C            1.31834223        0.49688291        2.45825885
 C            1.31341444        3.03528743       -0.09806278
 C            0.95841247        2.47377667        1.12629704
 C            0.59941902        2.24530073       -2.16176065
 C            0.29576149        3.20864818       -1.11062620
 C           -0.03891763       -0.03389476       -2.63479453
 C           -0.37185825        1.32497392       -2.54150651
 C           -0.88483876       -2.28702023       -2.19712631
 C           -1.05247474       -0.98282333       -2.80677512
 C           -2.17532700       -2.74139612       -1.72081464
 C           -1.08978154       -3.17013823        0.47230927
 C           -2.28079672       -3.19246875       -0.35171105
 C           -0.41582509       -1.69210281        2.30772510
 C           -1.40330015       -2.48545075        1.71170737
 C            0.05552712        0.61124928        3.01250878
 C           -0.78997978       -0.56930063        3.04811263
 C           -0.38115205        2.50869963        1.53045427
 C           -0.77473265        1.73332397        2.61828323
 C           -1.01782627        3.35660917       -0.70278487
 C           -1.35444415        3.04678534        0.67898539
 C           -1.70831242        1.71347128       -2.44669892
 C           -2.05833070        2.79673810       -1.54366125
 C           -2.44836365       -0.60117079       -2.64739668
 C           -3.11997799       -1.65468946       -1.90724780
 C           -2.75008837        0.71246838       -2.33727521
 C           -3.29044359       -2.38400178        0.31015766
 C           -2.77799303       -2.00432119        1.61248254
 C           -3.69683175       -1.33815331       -0.61127739
 C           -2.16848953       -0.11343994        3.01893701
 C           -2.15966129        1.31272202        2.73711636
 C           -3.09387536       -0.74799741        2.10366758
 C           -2.71459282        2.51944833        0.69318107
 C           -3.13056996        2.32970330       -0.68152385
 C           -3.50435611        0.99863485       -1.12316491
 C           -3.70264135       -0.01201007       -0.18160326
 C           -3.06283807        1.55980319        1.63107697
 C           -3.58501108        0.27253206        1.18463838




