%chk=001686.chk
%mem=8GB
%Nproc=32
#p B3LYP/6-31G* opt pop=NPA

Template file

0 1
 C            2.15581618       -3.28861365        0.57078016
 C            3.06875548       -2.58342456       -0.29588057
 C            3.68967506       -1.52805776        0.48579493
 C            2.14447929       -2.60578175        1.85761010
 C            2.95482044       -1.41753734        1.73401551
 C            0.76690890       -2.45868576        2.26210090
 C            0.77768264       -3.43879929        0.15014702
 C           -0.04860561       -3.20920025        1.32222504
 C            0.35172139       -2.93858573       -1.07892895
 C            2.54747263       -1.98129511       -1.50428992
 C            1.23451857       -2.22473493       -1.91037742
 C            3.79411210       -0.34783727       -0.35600321
 C            3.05805809       -0.62059944       -1.58123953
 C            3.64691421        0.89053703        0.24475995
 C            2.42392540       -0.17670603        2.07721323
 C            3.10210196        0.93855359        1.59323629
 C            0.30440953       -1.22156886        2.69479815
 C            1.06346454       -0.06610959        2.43180618
 C           -1.07085437       -1.11230553        2.88170474
 C           -1.37607391       -2.82645972        1.15538617
 C           -1.93869491       -2.02032757        2.14325759
 C           -1.02308858       -2.86134244       -1.28776739
 C           -1.91476157       -2.81722348       -0.13506927
 C           -1.56563904       -1.98242386       -2.30806290
 C            0.73054630       -1.40363787       -2.91836292
 C           -0.69929503       -1.30969373       -3.15077590
 C            2.24498617        0.35892134       -2.15303731
 C            1.29858774       -0.07272684       -3.07624832
 C            2.98467012        1.94497502       -0.49454303
 C            2.08895589        1.59943816       -1.50982097
 C            2.53740648        2.25409101        1.77759810
 C            2.61458306        2.93877635        0.49419033
 C            0.43212195        1.19161819        2.42884394
 C            1.17329036        2.35335661        2.23947452
 C           -1.69688598        0.19305162        2.86412440
 C           -0.96202003        1.27241793        2.39114859
 C           -3.19186998       -1.33396931        1.89258756
 C           -3.07363874        0.00806083        2.43943974
 C           -3.02559675       -1.93410295       -0.47128983
 C           -2.70546930       -1.27970659       -1.73314207
 C           -3.67175708       -1.22225447        0.52889297
 C           -2.81728328        0.10903630       -1.85930166
 C           -0.99993733        0.06158258       -3.51414902
 C            0.23991912        0.82030465       -3.48069229
 C           -1.99125282        0.79162152       -2.74546521
 C            0.96470045        2.41072158       -1.76526835
 C            0.01541833        2.01332300       -2.69858094
 C           -1.39352058        2.05197092       -2.32845580
 C            1.38096047        3.66584457        0.31722255
 C            0.56480985        3.43552895        1.49860830
 C            0.55994672        3.36594915       -0.83671660
 C           -1.58947108        2.28997878        1.65190258
 C           -1.76804774        2.62269754       -1.10945588
 C           -0.80415092        3.26703595        1.05770505
 C           -0.82451562        3.36681445       -0.39513244
 C           -3.62773024        0.92842251        1.47320954
 C           -4.01010896        0.16813318        0.29361261
 C           -3.45892598        0.84408698       -0.86956840
 C           -2.80632993        2.03566260        1.03255140
 C           -2.86021410        2.09119878       -0.41832207




