%chk=001042.chk
%mem=8GB
%Nproc=32
#p B3LYP/6-31G* opt pop=NPA

Template file

0 1
 C            3.68807360       -2.22435020       -0.33562305
 C            3.48371091       -1.86981000        1.05689278
 C            2.17533406       -2.35318369        1.46080765
 C            2.50667354       -2.93586641       -0.78670482
 C            1.61706911       -3.09574042        0.34208314
 C            1.99129171       -2.25443564       -1.95377877
 C            3.77417190       -0.98806046       -1.09392494
 C            2.73172941       -1.00660301       -2.09452493
 C            3.76101533       -0.45683798        1.19211331
 C            3.79524608        0.10864419       -0.15328272
 C            3.08812956        0.24214700        2.18205652
 C            1.33720049       -1.51194851        2.19803172
 C            1.85085162       -0.31832740        2.71919192
 C           -0.05040718       -1.67352564        2.08955825
 C            0.25346990       -3.00012239        0.11812539
 C           -0.54773017       -2.61699010        1.18544387
 C            0.61296081       -2.22859590       -2.14919236
 C           -0.22210480       -2.80872206       -1.18567157
 C            0.10172782       -1.22821534       -2.97243846
 C            2.01886834        0.15883920       -2.35758739
 C            0.83671538        0.02114740       -3.08033915
 C            3.04560792        1.25207569       -0.42637522
 C            2.21464848        1.29909929       -1.55957131
 C            2.86967224        1.66039172        1.97721456
 C            2.84248239        2.15686398        0.61446797
 C            0.94491730        0.78691337        2.98987597
 C            1.60515966        2.01355750        2.59695159
 C           -0.89462536       -0.66590748        2.56617394
 C           -0.40032465        0.62836055        2.69376018
 C           -2.27029519       -0.86023535        2.56678757
 C           -1.91614006       -2.82867129        1.08422066
 C           -2.81748603       -2.00274068        1.86243184
 C           -1.60160384       -2.77591523       -1.38733426
 C           -2.48131468       -2.96837183       -0.24391912
 C           -1.31721524       -0.91107626       -2.93995029
 C           -2.16955125       -1.70694473       -2.19377279
 C           -0.12727661        1.10385698       -3.12212985
 C           -1.44155604        0.53460464       -2.85238441
 C            1.43198364        2.43530845       -1.78640193
 C            0.21156946        2.32812000       -2.57203493
 C            1.76327685        3.12098270        0.53489132
 C            0.90782542        2.90971700        1.69694795
 C            1.17604656        3.36381933       -0.69568015
 C           -1.12965795        1.70253922        2.16606482
 C           -0.46278637        2.74583315        1.51213380
 C           -3.12426155        0.27585207        2.28247443
 C           -2.49731649        1.54485850        1.94877319
 C           -3.86380532       -1.52139265        0.97198779
 C           -3.57106569       -2.01387558       -0.35868733
 C           -3.20463760       -1.06888741       -1.40039852
 C           -3.98268259       -0.09165589        1.16734153
 C           -2.26448227        1.10665071       -1.87977062
 C           -3.05691229        1.97641366        0.67885244
 C           -3.10465071        0.29448683       -1.10999789
 C           -3.65381997        0.80245184        0.07082231
 C           -0.82125519        3.09879849       -1.90653104
 C           -0.23282436        3.71101793       -0.72798046
 C           -1.06146357        3.35488418        0.41029786
 C           -2.04370115        2.42826452       -1.49254634
 C           -2.30447530        2.82050943       -0.11824167




