%chk=000503.chk
%mem=8GB
%Nproc=32
#p B3LYP/6-31G* opt pop=NPA

Template file

0 1
 C            4.27249432        1.75413429        0.16298628
 C            4.33822977        0.76329937       -0.89299537
 C            4.60462398       -0.50059020       -0.24545532
 C            3.98217182        1.04602630        1.40067536
 C            4.25556119       -0.34804180        1.16529130
 C            2.64814428        1.43052586        1.82207952
 C            3.13723103        2.60632872       -0.11816449
 C            2.29765303        2.61514787        1.06205373
 C            3.13493610        0.89770169       -1.70682080
 C            2.52120949        2.16369559       -1.35626817
 C            2.31907018       -0.21224732       -1.93354911
 C            3.90521706       -1.66745854       -0.73185237
 C            2.81044991       -1.49019525       -1.67391334
 C            3.21820868       -1.31558189        1.45742745
 C            3.33875346       -2.32203338        0.43118080
 C            1.65616109        0.46398647        2.03974344
 C            1.93080522       -0.89721657        1.82113503
 C            0.32473600        0.90439770        2.09098299
 C            0.95200002        2.85087063        0.86184748
 C            0.06097413        2.22991094        1.72624352
 C            1.14135996        2.28517237       -1.43515405
 C            0.52683235        3.04793101       -0.44982766
 C            0.93990019       -0.03297039       -2.09452370
 C            0.39309365        1.25945137       -2.01698060
 C            0.10071575       -1.15354215       -2.20266618
 C            1.87063926       -2.54965282       -1.37810232
 C            2.12429240       -2.95468019       -0.00422748
 C            0.53742136       -2.40562538       -1.75067707
 C            0.86638666       -1.79673668        1.66321898
 C            1.03573200       -2.93220346        0.84530710
 C           -0.72146706       -0.02821876        2.12690909
 C           -0.42587426       -1.39668756        2.02962026
 C           -2.05598964        0.41816225        2.14143494
 C           -1.24571275        2.69108123        1.69537778
 C           -2.33029028        1.76904781        1.95478600
 C           -0.80089971        3.38764994       -0.63937531
 C           -1.62396264        3.50020844        0.54921123
 C           -0.99075566        1.44653094       -2.12875976
 C           -1.55973683        2.61134041       -1.60539333
 C           -1.25178945       -0.96995867       -2.47912255
 C           -1.81334343        0.36671225       -2.44211296
 C           -2.23509956       -1.88150225       -1.91099164
 C           -0.37151929       -3.22866388       -1.08148135
 C           -0.09306026       -3.52613112        0.31372757
 C           -1.79712550       -2.99346305       -1.20501756
 C           -1.45796423       -2.33551421        1.97353273
 C           -1.32611890       -3.43516597        1.04785827
 C           -2.39995184       -3.32435210        0.07645069
 C           -3.09304644       -0.47450025        1.88314884
 C           -2.82952089       -1.89118824        1.87863027
 C           -3.38930869       -2.43476854        0.64568604
 C           -3.15455649        0.27565717       -1.87105814
 C           -3.35409796       -1.08966509       -1.41611743
 C           -3.99827431       -0.20062956        0.77672644
 C           -3.87049357       -1.31508283       -0.14207401
 C           -3.43828874        2.13355485        1.08172746
 C           -2.98379110        3.16991427        0.17770989
 C           -2.94319934        2.59558124       -1.15615025
 C           -4.04331781        1.09118607        0.27577601
 C           -3.64644771        1.32906103       -1.10965418




