%chk=000757.chk
%mem=8GB
%Nproc=32
#p B3LYP/6-31G* opt pop=NPA

Template file

0 1
 C            3.59805058       -1.96466364        1.37207383
 C            4.14666843       -1.01932533        0.41887504
 C            3.63969666       -1.36294230       -0.90080333
 C            2.65944411       -2.81079330        0.65954494
 C            2.62374703       -2.38746926       -0.72714912
 C            1.41254967       -2.80155877        1.39768542
 C            2.84252856       -1.21069577        2.35793620
 C            1.50112519       -1.76193201        2.40774802
 C            3.90827242        0.31890412        0.93192676
 C            2.99263942        0.19988258        2.05745867
 C            3.72060578        1.34848221        0.02052880
 C            3.41599326       -0.34014720       -1.80966052
 C            3.68720738        1.02879609       -1.39885463
 C            2.18059782       -0.32921202       -2.57620911
 C            1.37511347       -2.24165187       -1.32764704
 C            1.15971703       -1.23141619       -2.27381557
 C            0.22774651       -2.88863185        0.68444639
 C            0.27552093       -2.83922196       -0.71250442
 C           -0.93103835       -2.45572494        1.31704890
 C            0.42230769       -0.89038131        2.54272376
 C           -0.84789293       -1.33603546        2.15657704
 C            1.86257579        1.01074101        2.10642288
 C            0.66740599        0.48260994        2.61701725
 C            2.68421897        2.33568183        0.27140664
 C            1.84613607        2.20387792        1.37358845
 C            2.70282216        1.88890204       -2.03226789
 C            1.84439564        1.05890522       -2.85110461
 C            2.09487044        2.71309855       -1.00414357
 C            0.50893687        1.40818022       -2.96325861
 C           -0.14393257       -0.95114252       -2.70155297
 C           -0.48606437        0.35494009       -3.04506205
 C           -0.92162492       -2.88168853       -1.41552488
 C           -1.16915895       -1.84218076       -2.39786489
 C           -2.14161835       -2.82494629        0.74873084
 C           -2.15527625       -3.09334888       -0.67503814
 C           -3.33661526       -2.07720869        1.06633042
 C           -1.95748685       -0.49882377        2.34628041
 C           -3.20595044       -0.86365422        1.84324772
 C           -0.39874706        1.33407430        2.86889643
 C           -1.75298518        0.83697802        2.69546491
 C            0.70604123        2.99713257        1.39613004
 C           -0.35112614        2.67649039        2.33043255
 C            0.72581067        2.97413409       -1.05442783
 C           -0.03486402        2.45688243       -2.10598287
 C            0.08908339        3.35235232        0.12558472
 C           -1.74489246        0.90770249       -2.57364775
 C           -1.45027589        2.17038307       -1.91044607
 C           -2.51023709       -1.32368003       -2.16100896
 C           -3.18026396       -2.25350812       -1.26772001
 C           -3.99531443       -1.73690698       -0.18862548
 C           -2.69721780        0.05482944       -2.02761279
 C           -4.01192783        0.14872590        1.18573760
 C           -4.28299796       -0.31908530       -0.16119165
 C           -3.58040537        0.56675764       -1.07462980
 C           -2.52951443        1.87536827        2.02664288
 C           -1.61798075        2.94115584        1.67305891
 C           -1.34898304        3.18109221        0.26683652
 C           -2.05966908        2.46458454       -0.69429305
 C           -3.47297607        1.49057475        1.08826027
 C           -3.20479137        1.75575718       -0.32259563




