%chk=001362.chk
%mem=8GB
%Nproc=32
#p B3LYP/6-31G* opt pop=NPA

Template file

0 1
 C            4.05835637       -0.78650785        0.74667859
 C            3.56848962       -2.04769859        0.24360480
 C            3.28269355       -1.86882959       -1.17495969
 C            4.19132189        0.10069434       -0.39596913
 C            3.36077121       -0.45302168       -1.44808278
 C            3.90199065        1.43698331        0.07294886
 C            3.26063716       -0.08189097        1.72831583
 C            3.43050100        1.32932357        1.44851705
 C            1.98433784       -0.54472169        2.03952585
 C            2.37288074       -2.61475330        0.83503842
 C            1.59045879       -1.85027811        1.70191995
 C            2.03945813       -2.55273948       -1.44184516
 C            1.71513130       -3.31307871       -0.24538960
 C            1.01215963       -1.87886367       -2.09576737
 C            2.20877849        0.23465576       -1.83587918
 C            1.03598793       -0.47505586       -2.16177039
 C            2.91299140        2.21534799       -0.64142227
 C            2.16327294        1.62327965       -1.66058518
 C            2.27948330        2.20940855        1.57978077
 C            2.22042758        2.99867096        0.36345630
 C            1.03589981        0.36379046        2.50793813
 C            1.09203439        1.70604008        2.10482357
 C           -0.11820597       -0.13193895        3.09421933
 C            0.26879235       -2.25359928        1.93330082
 C           -0.55915592       -1.46431976        2.72754866
 C            0.40033314       -3.70476151       -0.06661427
 C           -0.32030884       -3.20798354        1.09906867
 C           -0.20499205       -2.54643163       -2.18606925
 C           -0.49175156       -3.57902808       -1.20349578
 C           -1.42634048       -1.79819910       -2.39953370
 C           -0.12251380        0.22612340       -2.53105943
 C           -1.36359686       -0.41948596       -2.56116016
 C            1.07717355        2.33529449       -2.15128971
 C           -0.07892895        1.61381721       -2.64760522
 C            1.01604625        3.58420360        0.00940229
 C            0.59044846        3.46451378       -1.37383489
 C           -0.09084420        2.42266248        1.88633967
 C           -0.15384290        3.34229614        0.84156992
 C           -1.28562979        0.72079136        3.17262868
 C           -1.28876684        1.95070584        2.40919453
 C           -1.97999055       -1.39010808        2.41693198
 C           -2.44292577       -0.06202397        2.77418915
 C           -1.72023347       -3.05764217        0.72424510
 C           -1.82872314       -3.35130110       -0.69256596
 C           -2.46375667       -2.37556491       -1.54944310
 C           -2.45362319       -2.00013730        1.25778226
 C           -3.40621377       -1.53191581       -0.98380603
 C           -3.40948183       -1.34962953        0.46449858
 C           -2.53308967        0.32213695       -2.39684953
 C           -3.60586329       -0.23176179       -1.59128903
 C           -1.26253746        2.39803270       -2.32331687
 C           -0.85862197        3.43138251       -1.39326412
 C           -1.32640020        3.34634403       -0.02067945
 C           -2.44798670        1.73102687       -2.07133343
 C           -2.47251754        1.95121123        1.56169685
 C           -3.19180339        0.70455454        1.79927596
 C           -3.77696859        0.03631616        0.73545987
 C           -3.90042409        0.72221922       -0.53470928
 C           -2.38891064        2.49401152        0.27626167
 C           -3.09590737        1.90743328       -0.77657213




