%chk=001409.chk
%mem=8GB
%Nproc=32
#p B3LYP/6-31G* opt pop=NPA

Template file

0 1
 C            4.23194784        0.61286476        0.95977288
 C            4.27173290        0.05464395       -0.37632815
 C            3.94541300       -1.35588084       -0.26828935
 C            3.62471576       -0.37911876        1.83673684
 C            3.37385485       -1.57329190        1.05102338
 C            2.50601901        0.25105792        2.51216358
 C            3.52872988        1.86176249        1.16142878
 C            2.60684103        1.67319097        2.27025774
 C            2.75569558        2.42249412        0.06627988
 C            3.41201354        0.61706220       -1.40523836
 C            2.55884994        1.68191351       -1.10226187
 C            3.15616200       -1.71739781       -1.43502236
 C            2.91406720       -0.49696932       -2.19343848
 C            2.12655406       -2.63656795       -1.27185912
 C            2.13171940       -2.19537679        1.14264693
 C            1.71682124       -2.99065099        0.07696803
 C            1.25629942       -0.35228605        2.43408056
 C            1.17110706       -1.68163468        2.02012471
 C            0.09755667        0.43350573        2.47870024
 C            1.39578317        2.40080318        1.94827504
 C            1.62120070        3.07924062        0.68376015
 C            0.15970088        1.79756803        2.15764050
 C            0.51859234        3.37089176       -0.10028439
 C            1.38508702        1.86312180       -1.84417882
 C            0.44828288        2.81341084       -1.44224298
 C            1.72380955       -0.34311290       -2.88933106
 C            1.01237137        0.92043621       -2.79866908
 C            0.91844106       -2.52040461       -2.07407313
 C            0.73240396       -1.40959172       -2.88070128
 C            0.33798196       -3.43439894        0.01237859
 C           -0.19327494       -3.01473842       -1.27842818
 C           -0.04123810       -2.34674957        2.16386127
 C           -0.45594002       -3.29419766        1.13901838
 C           -1.14768025       -0.19428160        2.59496714
 C           -1.21281953       -1.58719807        2.56644049
 C           -2.31578855        0.54738260        2.40194175
 C           -0.96138921        2.41842764        1.61333909
 C           -0.80274267        3.22296498        0.48446605
 C           -2.21762322        1.90813830        1.90769470
 C           -0.96199805        2.61706018       -1.76391371
 C           -1.73383402        3.09364266       -0.62204622
 C           -0.39791906        0.64569121       -3.02190905
 C           -0.58133111       -0.79547355       -2.95070916
 C           -1.36397270        1.47277248       -2.45696185
 C           -1.43986233       -2.38628668       -1.33695558
 C           -1.64385909       -1.30340035       -2.20486963
 C           -1.88546554       -3.14328041        0.95186102
 C           -2.36990814       -2.23148774        1.97163892
 C           -2.36628936       -2.65987069       -0.32943733
 C           -3.47540658       -0.07355056        1.77182135
 C           -3.39175691       -1.39934051        1.36870842
 C           -3.44054254       -1.72445197       -0.05515321
 C           -3.30803023        2.12749623        0.97063978
 C           -2.99513944        2.57133399       -0.37702888
 C           -4.07497518        0.89776781        0.87581237
 C           -2.63326770        0.94162038       -2.23554472
 C           -2.77390401       -0.49765906       -2.06570808
 C           -3.71599415       -0.73167124       -0.98434300
 C           -3.53378671        1.59267742       -1.30127186
 C           -4.20401594        0.55937734       -0.52824966




