%chk=001399.chk
%mem=8GB
%Nproc=32
#p B3LYP/6-31G* opt pop=NPA

Template file

0 1
 C            4.28150212       -0.58395186       -0.93915694
 C            3.66570030       -1.87278803       -0.70230856
 C            3.49588907       -2.01819975        0.73252104
 C            4.30720909        0.13511249        0.32730978
 C            3.66608101       -0.70407075        1.32587691
 C            3.79420498        1.47321344        0.09420612
 C            3.69016164        0.28896069       -1.92978820
 C            3.53448060        1.60279862       -1.32609427
 C            2.41133452       -0.07047725       -2.52299984
 C            2.38297118       -2.17228409       -1.31749300
 C            1.74057565       -1.22529088       -2.12003654
 C            2.24802167       -2.72278229        0.95778286
 C            1.60282751       -2.90380699       -0.33402183
 C            1.46614730       -2.34613582        2.03765498
 C            2.64062602       -0.17939727        2.11204404
 C            1.68671075       -1.04230646        2.64988787
 C            2.88214042        2.00925461        0.99224883
 C            2.39019675        1.19138541        2.09278085
 C            1.76351469        2.80414769        0.50109504
 C            2.25432896        2.13270955       -1.76118931
 C            1.65757338        1.15899976       -2.66349584
 C            1.42938393        2.79444647       -0.85379075
 C            0.27343427        1.09130669       -2.73677938
 C            0.34858429       -1.27083626       -2.23283468
 C           -0.34030484       -0.16123595       -2.74280671
 C            0.21644954       -2.84234902       -0.41431172
 C           -0.34992791       -2.27421008       -1.55383610
 C            0.03313641       -2.55840542        1.96412909
 C           -0.54498788       -2.92929016        0.75639731
 C            0.39350000       -0.52650045        3.07823317
 C           -0.61353027       -1.52879204        2.75862671
 C            1.07526796        1.69606145        2.45978276
 C            0.71272108        2.73432226        1.50548255
 C            0.09277387        0.82355124        2.92124625
 C           -0.61880188        2.86733734        1.12917871
 C            0.10487047        3.00646591       -1.22341877
 C           -0.45129618        2.19374930       -2.29233079
 C           -0.92308524        3.14688638       -0.20320330
 C           -1.88310014        2.07663272       -2.07037866
 C           -2.18170958        2.69502556       -0.78654173
 C           -1.72322089       -0.22018767       -2.89409718
 C           -2.52714366        0.90361581       -2.44249077
 C           -1.70981800       -2.44385760       -1.77824999
 C           -2.42392617       -1.43705904       -2.53543987
 C           -1.93011270       -2.85216034        0.66273556
 C           -2.54093403       -2.82060957       -0.65304943
 C           -1.90132230       -1.12276862        2.41773730
 C           -2.63137954       -1.89268499        1.50564666
 C           -1.24139815        1.21039665        2.82653136
 C           -1.59309193        2.32880092        1.96515593
 C           -2.27320482        0.19559566        2.67316484
 C           -3.16754022        2.15678640        0.03081520
 C           -2.93464795        2.09719149        1.46000888
 C           -3.37219070        0.79450242        1.93571397
 C           -3.60212424        0.37660367       -1.61692697
 C           -3.61308109       -1.06668323       -1.78254938
 C           -3.67333398       -1.91093616       -0.60477609
 C           -3.69141418       -1.28908346        0.70710430
 C           -3.84516723        0.93023403       -0.36202104
 C           -3.94052374        0.07304685        0.81531879




