%chk=000633.chk
%mem=8GB
%Nproc=32
#p B3LYP/6-31G* opt pop=NPA

Template file

0 1
 C            4.55996333        0.64969231       -0.32787398
 C            3.91399308        0.72499933       -1.62669373
 C            3.59920594       -0.62426022       -2.03461084
 C            4.33528468       -0.68820232        0.19287338
 C            3.88061561       -1.50511866       -0.90946397
 C            3.48405687       -0.57194237        1.36601025
 C            3.88209314        1.58024554        0.55533566
 C            3.43533061        0.83959727        1.71756698
 C            2.83111344        1.68405001       -1.53010851
 C            2.88407418        2.29955756       -0.21803978
 C            1.57973115        1.37775376       -2.05094343
 C            2.24937709       -0.91356164       -2.48329718
 C            1.30639294        0.09876151       -2.56275705
 C            2.70712642       -2.32770367       -0.71032101
 C            1.84609598       -2.15738805       -1.86851273
 C            2.32029094       -1.34565938        1.45878904
 C            2.10492094       -2.38875174        0.54348308
 C            1.27377882       -0.90519974        2.28408648
 C            2.31836199        1.31269086        2.38170580
 C            1.34801850        0.35668428        2.87238209
 C            1.68008452        2.63227530        0.40129507
 C            1.55035639        2.38867303        1.77177592
 C            0.50941195        2.18033335       -1.66431495
 C            0.52519461        2.74729280       -0.38240206
 C           -0.69113588        2.02203608       -2.34997569
 C           -0.02313369       -0.27679923       -2.72477827
 C           -0.93060550        0.74062623       -2.98168313
 C            0.48792426       -2.42258127       -1.70050133
 C           -0.46253864       -1.49200825       -2.16528406
 C            0.91713408       -3.10441907        0.60413073
 C            0.15956133       -3.24743707       -0.62890143
 C            0.07450626       -1.61986328        2.34769387
 C           -0.03824675       -2.81522252        1.65171640
 C           -1.07736243       -1.00982845        2.85261727
 C            0.12642889        1.10157031        3.11721179
 C            0.22837603        2.35343486        2.37769796
 C           -1.07626130        0.41298710        3.14671814
 C           -0.67132795        3.10989990        0.23660897
 C           -0.85741331        2.81208254        1.64563264
 C           -1.93899671        2.45922098       -1.75324025
 C           -1.94047564        2.88831411       -0.43427111
 C           -2.34592890        0.46681434       -2.92745848
 C           -2.98614502        1.57009766       -2.22653266
 C           -1.83123268       -1.69696798       -1.89462190
 C           -2.78030959       -0.76622969       -2.31378716
 C           -1.22533778       -3.43791087       -0.27308353
 C           -1.34064579       -3.24085442        1.16429199
 C           -2.21786131       -2.60637178       -0.91113582
 C           -2.38333211       -1.34244675        2.29967461
 C           -2.49732708       -2.39600641        1.40280661
 C           -3.15026078       -2.18164313        0.12059285
 C           -2.26108990        0.99479254        2.53397898
 C           -2.15339483        2.16939017        1.79648157
 C           -2.86089621        2.29885684        0.53270855
 C           -3.09200494       -0.09663972        2.04664630
 C           -3.92025398        1.00581713       -1.27152475
 C           -3.88056978       -0.43950354       -1.41949558
 C           -3.89540153       -1.02879703       -0.09139296
 C           -3.76040782        1.31190445        0.13869890
 C           -3.82890618        0.05886610        0.87579544




