%chk=000375.chk
%mem=8GB
%Nproc=32
#p B3LYP/6-31G* opt pop=NPA

Template file

0 1
 C            4.67969456       -0.70175179       -0.25194040
 C            4.51700589        0.58185642        0.40340058
 C            4.09487691        1.52629176       -0.61072969
 C            4.02614678       -0.62041465       -1.55039524
 C            3.70654937        0.76454167       -1.79148382
 C            2.94884147       -1.59141583       -1.55780041
 C            3.95838397       -1.68729097        0.52888281
 C            3.14183138       -2.44291345       -0.39509486
 C            3.67523292        0.39003897        1.57594937
 C            3.27966391       -1.00736197        1.61969848
 C            2.73958257        1.35910612        1.90414767
 C            3.00448870        2.43035955       -0.29976565
 C            2.51181661        2.47927614        0.99852316
 C            2.33561232        1.11598029       -2.10123415
 C            2.05303735        2.34980270       -1.39469744
 C            1.64427337       -1.20942936       -1.90420862
 C            1.33808675        0.13649032       -2.15583502
 C            0.60716189       -2.10081445       -1.61752862
 C            2.02139710       -3.05885180        0.12160500
 C            0.85918949       -3.14503452       -0.72801651
 C            1.95116751       -1.35682127        1.88309649
 C            1.51066082       -2.58490434        1.40233615
 C            1.44256611        0.93821410        2.40668738
 C            1.00841918       -0.36055851        2.17959498
 C            1.14033614        2.90522254        1.18840172
 C            0.52926910        2.03392105        2.17964520
 C            0.72357232        2.65665176       -1.14912750
 C            0.37948147        3.24001906        0.07548677
 C            0.00767491        0.56524896       -2.09485651
 C           -0.24163792        1.91470310       -1.82952946
 C           -0.72125199       -1.72816732       -1.84065470
 C           -1.03246032       -0.36956936       -2.00483961
 C           -1.71922934       -2.63494832       -1.46970750
 C           -0.19829596       -3.55997619        0.16053525
 C            0.09432048       -2.88915863        1.42024686
 C           -1.48969800       -3.48924193       -0.31413888
 C           -0.36793943       -0.61484842        2.04859577
 C           -0.80560455       -1.93656149        1.89044614
 C           -0.83177987        1.78527468        2.05648928
 C           -1.28858605        0.45552906        1.99233601
 C           -0.96541246        3.48845755        0.31250990
 C           -1.57282223        2.78916602        1.43609628
 C           -1.54354152        2.38402150       -1.82043080
 C           -1.88154089        3.35620576       -0.80056315
 C           -2.36909404        0.07188503       -1.98109628
 C           -2.63815725        1.43801677       -1.91639099
 C           -3.09713136       -2.19986570       -1.40484015
 C           -3.38300104       -0.79335083       -1.56429247
 C           -2.51320058       -3.14655971        0.64683404
 C           -2.15648983       -2.20001407        1.69307313
 C           -3.62040668       -2.60249931       -0.10730896
 C           -2.65362461        0.20390628        1.75704335
 C           -4.23704539       -0.39466933       -0.44898757
 C           -3.10272340       -1.10617713        1.63526715
 C           -4.05158434       -1.40007695        0.57215981
 C           -2.95968734        2.55402286        1.11280631
 C           -3.17608975        3.01106409       -0.25105734
 C           -3.68020532        1.88198233       -1.00539132
 C           -3.46001683        1.20227042        1.20142271
 C           -4.17208308        0.92372068       -0.04137414




