%chk=000061.chk
%mem=8GB
%Nproc=32
#p B3LYP/6-31G* opt pop=NPA

Template file

0 1
 C            5.06835470       -0.11177565       -0.43869193
 C            4.74698784       -1.25554813        0.39058902
 C            4.04469844       -0.76770942        1.56658480
 C            4.58859289        1.07462426        0.24805264
 C            3.79712739        0.64496262        1.39187894
 C            3.95126042        1.90018292       -0.75266330
 C            4.29994328       -0.22825820       -1.66794240
 C            3.73958948        1.07550981       -1.93667464
 C            3.80913676       -2.08308107       -0.34784284
 C            3.39286537       -1.35385013       -1.52369867
 C            2.90207359       -1.62496296        1.75924698
 C            2.77679279       -2.47370613        0.58099001
 C            1.72792524       -1.08086793        2.26791706
 C            2.48957173        1.12085463        1.53697048
 C            1.50310852        0.29980997        2.12667863
 C            2.67367929        2.49604951       -0.42586906
 C            2.10868535        2.26625679        0.82413370
 C            2.33087457        1.16587804       -2.26679099
 C            1.81736545        2.33192066       -1.58478813
 C            2.02188899       -1.17523920       -1.72668211
 C            1.53922234        0.02460098       -2.26798765
 C            1.48937769       -2.67782508        0.10016464
 C            1.11832053       -2.05616339       -1.10453076
 C            0.63235894       -1.92960617        2.23141033
 C            0.52195251       -2.80877807        1.08127606
 C           -0.68478345       -1.40997428        2.51113365
 C            0.21232958        0.81824954        2.33623668
 C           -0.86777285       -0.03996345        2.60331049
 C            0.83074471        2.76735124        1.00491913
 C           -0.04033826        2.13617617        1.96984960
 C            0.44505793        2.41906044       -1.37742522
 C            0.02909736        2.99906242       -0.18792447
 C            0.16562768        0.20984314       -2.31587209
 C           -0.38067525        1.44732156       -1.94654089
 C           -0.24383722       -1.97013441       -1.44218466
 C           -0.64178151       -0.91412847       -2.26996512
 C           -0.86470643       -2.85693265        0.69373581
 C           -1.63063168       -2.19750985        1.73592732
 C           -1.19586453       -2.60414010       -0.62563053
 C           -2.85824414       -1.63836451        1.39730796
 C           -2.18015492        0.43475567        2.54803297
 C           -3.22121630       -0.43417094        2.00844989
 C           -1.38732785        2.53586245        1.61202442
 C           -1.36064509        2.88151200        0.19741406
 C           -2.44854109        1.78524166        2.08212785
 C           -1.76551197        1.53605500       -1.76120455
 C           -2.26383593        2.26200486       -0.66332933
 C           -1.98118045       -0.74925569       -2.59102022
 C           -2.55548031        0.56865761       -2.38590221
 C           -2.54924869       -2.45150276       -0.90527897
 C           -3.42616695       -2.01304001        0.17412920
 C           -2.92613139       -1.71636842       -2.08880464
 C           -3.94414358        0.39478954       -2.00572930
 C           -4.50145192       -1.23330439       -0.41720326
 C           -4.17646559       -1.02728055       -1.81805248
 C           -4.24123333        0.42008278        1.42250631
 C           -3.65585000        1.73903960        1.27384749
 C           -3.53398368        1.99433400       -0.14990923
 C           -4.82316823        0.06016431        0.14466528
 C           -4.42423878        1.07322783       -0.82537176




