%chk=000979.chk
%mem=8GB
%Nproc=32
#p B3LYP/6-31G* opt pop=NPA

Template file

0 1
 C            4.48033948       -0.17709728        0.48369836
 C            3.85411798       -1.37859726        0.99416542
 C            2.81466519       -0.99080590        1.93267942
 C            3.92344148        0.94502555        1.21043565
 C            2.84833948        0.45511686        2.05627424
 C            3.59211578        1.95326947        0.22949312
 C            4.07066818       -0.03587175       -0.90543468
 C            3.42152468        1.24706862       -1.03552918
 C            3.45606402       -2.16202256       -0.15390936
 C            3.32190353       -1.21952797       -1.25902090
 C            2.43057361       -3.07019342        0.03068917
 C            1.58842466       -1.64208493        1.84943783
 C            1.53390739       -2.85395421        1.16258077
 C            0.40830617       -0.91812758        2.02824827
 C            1.65418606        1.17005080        2.07380314
 C            0.43822263        0.48341389        2.11622399
 C            2.61803017        2.87148854        0.57540773
 C            1.66908798        2.48909964        1.61799446
 C            1.83284864        3.42615987       -0.50522894
 C            2.19108811        1.33279313       -1.69004567
 C            1.54713950        2.56332678       -1.63783144
 C            2.07999960       -1.08928228       -1.88718021
 C            1.44067594        0.16398525       -1.91779137
 C            1.58511247       -3.34210822       -1.11110455
 C            1.32848854       -2.25041531       -2.03421084
 C            0.24178260       -3.40873513        0.80463311
 C            0.31035055       -3.78905736       -0.59701705
 C           -0.81897016       -1.58485036        1.96232472
 C           -0.92181444       -2.78758967        1.24625436
 C           -1.97144571       -0.90468346        2.35264860
 C           -0.75823545        1.20925766        2.11274265
 C           -1.95593084        0.54732823        2.36648292
 C            0.41222328        3.15902707        1.33159759
 C            0.56740700        3.83909865        0.05833051
 C           -0.78826816        2.49935434        1.57421124
 C            0.12554661        2.64748271       -1.89521719
 C           -0.44095882        3.60940504       -0.95202987
 C            0.04371206        0.24354923       -2.10581252
 C           -0.58814163        1.49161510       -2.19774630
 C           -0.10718096       -2.16702537       -2.21502522
 C           -0.71170149       -3.27461377       -1.48444782
 C           -0.72948974       -0.92451171       -2.19095464
 C           -2.07647035       -3.04533807        0.50803075
 C           -1.97015520       -3.08325145       -0.94147396
 C           -3.26548526       -1.32590265        1.84497740
 C           -3.30595851       -2.35080516        0.82725156
 C           -3.18183941        1.01567037        1.73412066
 C           -3.93665160       -0.15370493        1.31247109
 C           -1.91122363        2.91222431        0.85354097
 C           -1.73514448        3.39660766       -0.51101224
 C           -3.12267217        2.11295614        0.88572279
 C           -1.98011618        1.56334934       -2.16301959
 C           -2.59759221        2.59593787       -1.35042345
 C           -3.57536318        1.96065365       -0.48824529
 C           -2.11143816       -0.87251764       -1.98147824
 C           -2.76029331       -1.96851592       -1.41628497
 C           -3.77911735       -1.73882402       -0.40650553
 C           -4.16457455       -0.37392841       -0.10919514
 C           -2.75986558        0.35443432       -1.98929507
 C           -3.80419486        0.62519364       -1.00400126




