%chk=001585.chk
%mem=8GB
%Nproc=32
#p B3LYP/6-31G* opt pop=NPA

Template file

0 1
 C            4.04477873       -0.84501373        0.32161985
 C            3.73015940       -1.40472479       -0.97874258
 C            3.45702468       -0.30305344       -1.88600041
 C            4.01053778        0.60403526        0.20510868
 C            3.63870961        0.93972389       -1.15528625
 C            3.20924227        1.12289886        1.29890931
 C            3.23152176       -1.22329303        1.46575441
 C            2.75436296       -0.00592991        2.09715292
 C            2.37523382       -2.30916169        1.36855236
 C            2.63505497       -2.35106540       -1.08516375
 C            2.11586208       -2.92197414        0.06853041
 C            2.17937504       -0.55959123       -2.53260973
 C            1.71402261       -1.86492768       -2.10070262
 C            1.25877491        0.47558984       -2.65319425
 C            2.73151563        1.96817353       -1.36218564
 C            1.64726678        1.77072806       -2.30896314
 C            2.32922735        2.17979746        1.07332950
 C            2.17375890        2.68402659       -0.22013929
 C            1.32758324        2.40197867        2.01463561
 C            1.48004872        0.04861984        2.66126979
 C            0.96189337        1.31451543        2.90911598
 C            1.11708557       -2.27465122        2.09269052
 C            0.61613433       -1.05594711        2.55175046
 C            0.73144288       -3.35309762        0.06686625
 C            0.22976309       -3.20465864        1.42299288
 C            0.34653263       -2.07025908       -1.93781081
 C           -0.09762783       -3.01120717       -0.99945857
 C           -0.10022010        0.16969142       -2.74870135
 C           -0.54436727       -1.12603052       -2.45964309
 C           -1.02399736        1.20880245       -2.88122010
 C            0.63565514        2.76418284       -2.00085066
 C            0.88561757        3.22460547       -0.63901325
 C           -0.66694746        2.53801841       -2.41425163
 C            0.10106189        3.07929452        1.62502707
 C           -0.16249053        3.30183326        0.27751169
 C           -0.43479730        1.46171044        3.24276790
 C           -0.96037207        2.58645078        2.48600517
 C           -0.76785046       -0.91750878        2.76065222
 C           -1.31083484        0.33429904        3.03282226
 C           -1.13603381       -3.07733053        1.60962663
 C           -1.64388643       -1.89214393        2.28179373
 C           -1.46069666       -3.25548252       -0.86062145
 C           -2.01146396       -3.35018476        0.48106370
 C           -1.90926224       -1.39662109       -2.45812792
 C           -2.40329509       -2.50484350       -1.66496173
 C           -2.42316066        0.98547111       -2.55138109
 C           -2.84471328       -0.30408742       -2.27402226
 C           -1.74997826        3.01517672       -1.57754145
 C           -1.48277991        3.28163426       -0.17587247
 C           -2.83221181        2.04795446       -1.65001664
 C           -2.21693696        2.17678960        1.88665901
 C           -2.44702944        0.78764582        2.24380917
 C           -2.50852320        2.59793506        0.60188732
 C           -3.21540670        1.69879500       -0.29123487
 C           -2.84386807       -1.45910614        1.58096203
 C           -3.14271605       -2.44241823        0.56109882
 C           -3.43312031       -1.98277486       -0.77537714
 C           -3.52102309       -0.55677700       -1.01256902
 C           -3.01468841       -0.09731278        1.32711328
 C           -3.35894817        0.35079988        0.03858426




