%chk=001642.chk
%mem=8GB
%Nproc=32
#p B3LYP/6-31G* opt pop=NPA

Template file

0 1
 C            3.59500952        1.21223469       -1.44136917
 C            3.94951729       -0.14083862       -1.08566036
 C            4.10909368       -0.19289685        0.36070603
 C            3.57536100        1.99828585       -0.21769249
 C            3.61555293        1.06435690        0.89394006
 C            2.46215151        2.92499597       -0.31323177
 C            2.33466576        1.44554845       -2.11448797
 C            1.82601911        2.70426775       -1.60442451
 C            1.44077134        0.39325277       -2.32667033
 C            3.04757517       -1.21299239       -1.44876067
 C            1.80705153       -0.93147232       -2.02710497
 C            3.51555541       -1.43635181        0.81852905
 C            3.10854586       -2.17576437       -0.36723070
 C            2.67640947       -1.41159996        1.92523259
 C            2.57130161        1.05966557        1.81916211
 C            2.18831686       -0.13553436        2.43081522
 C            1.66814323        3.12548859        0.80784029
 C            1.72415105        2.16461953        1.90289433
 C            0.27996038        3.52307328        0.63666550
 C            0.47415823        2.97680187       -1.75457340
 C           -0.27996038        3.52307328       -0.63666550
 C            0.11119925        0.70159041       -2.63208424
 C           -0.37053719        1.98927211       -2.40531721
 C           -0.80453965       -0.31892203       -2.84757016
 C            0.84146047       -1.94325380       -2.03897901
 C           -0.42352775       -1.68634346       -2.55918434
 C            2.08917633       -3.10983808       -0.27096532
 C            1.05165021       -3.10023443       -1.28672653
 C            1.58994423       -2.37363407        2.01796372
 C            1.42302169       -3.31247776        1.00732117
 C            0.80453965       -0.31892203        2.84757016
 C            0.42352775       -1.68634346        2.55918434
 C            0.37053719        1.98927211        2.40531721
 C           -0.47415823        2.97680187        1.75457340
 C           -0.11119925        0.70159041        2.63208424
 C           -1.82601911        2.70426775        1.60442451
 C           -1.66814323        3.12548859       -0.80784029
 C           -1.72415105        2.16461953       -1.90289433
 C           -2.46215151        2.92499597        0.31323177
 C           -2.18831686       -0.13553436       -2.43081522
 C           -2.57130161        1.05966557       -1.81916211
 C           -1.58994423       -2.37363407       -2.01796372
 C           -2.67640947       -1.41159996       -1.92523259
 C           -0.08612420       -3.80129943       -0.72255886
 C            0.08612420       -3.80129943        0.72255886
 C           -1.42302169       -3.31247776       -1.00732117
 C           -0.84146047       -1.94325380        2.03897901
 C           -1.05165021       -3.10023443        1.28672653
 C           -2.08917633       -3.10983808        0.27096532
 C           -1.44077134        0.39325277        2.32667033
 C           -2.33466576        1.44554845        2.11448797
 C           -1.80705153       -0.93147232        2.02710497
 C           -3.57536100        1.99828585        0.21769249
 C           -3.61555293        1.06435690       -0.89394006
 C           -3.59500952        1.21223469        1.44136917
 C           -3.51555541       -1.43635181       -0.81852905
 C           -3.10854586       -2.17576437        0.36723070
 C           -3.04757517       -1.21299239        1.44876067
 C           -4.10909368       -0.19289685       -0.36070603
 C           -3.94951729       -0.14083862        1.08566036




