%chk=000064.chk
%mem=8GB
%Nproc=32
#p B3LYP/6-31G* opt pop=NPA

Template file

0 1
 C            5.04380677        0.28148146        0.03664383
 C            4.69922192       -0.39508635       -1.20142220
 C            3.96948854       -1.59971224       -0.85716193
 C            4.49835838       -0.49614217        1.13816419
 C            3.74672934       -1.59999533        0.57556717
 C            3.81203861        0.42238818        2.01560476
 C            4.36509409        1.56534561        0.04399523
 C            3.75725266        1.71627895        1.34630026
 C            3.78152163        0.45640548       -1.93710268
 C            3.50739596        1.62805191       -1.12637848
 C            2.79910796       -1.66148807       -1.71438798
 C            2.65278750       -0.36350595       -2.35179521
 C            1.64884032       -2.24567245       -1.20383014
 C            2.45181614       -1.86500258        1.01732266
 C            1.62308180       -2.57641369        0.15521710
 C            2.46112493        0.10007680        2.43786799
 C            1.84780845       -1.07167838        2.00775337
 C            2.38297935        2.16920335        1.41126550
 C            1.69716685        1.32338235        2.36399457
 C            2.17699830        2.01771910       -0.98820790
 C            1.69998537        2.49792472        0.24233913
 C            1.38341901        0.21445169       -2.36427783
 C            1.25793324        1.53196860       -1.91920487
 C            0.44237405       -1.93110489       -1.82380763
 C            0.26481523       -0.62809140       -2.29944048
 C           -0.66137380       -2.70535929       -1.49907923
 C            0.44675681       -3.08697027        0.68174012
 C           -0.61801806       -3.42272588       -0.24101915
 C            0.46478230       -1.18298449        2.19519272
 C           -0.15059931       -2.35853655        1.78686700
 C            0.32136384        1.23297199        2.23403456
 C           -0.30341450       -0.01647598        2.32822124
 C            0.32749514        2.73083028        0.36558621
 C           -0.31455210        2.23118280        1.50568100
 C            0.01130313        2.12977785       -1.96782747
 C           -0.40742738        2.88597819       -0.80624612
 C           -1.01562936       -0.05923590       -2.34018521
 C           -1.12398660        1.32908498       -2.37846005
 C           -1.99454374       -2.15395868       -1.64240846
 C           -2.15039423       -0.83452188       -2.06605494
 C           -1.87276117       -3.19334124        0.44217364
 C           -1.59142806       -2.39916502        1.62463473
 C           -2.79901001       -2.65222460       -0.52970530
 C           -1.70301346       -0.06190779        2.21650157
 C           -2.34830060       -1.25126249        1.83497155
 C           -1.69441788        2.31157993        1.61657030
 C           -2.38504363        1.15949463        2.16356606
 C           -1.85869819        2.84742460       -0.75655839
 C           -2.30469470        1.97441243       -1.83873851
 C           -2.47444417        2.77746225        0.48536796
 C           -3.38956602       -0.21547995       -1.87065925
 C           -3.46215664        1.22595764       -1.69044236
 C           -3.81598158       -1.84532952       -0.05093246
 C           -3.61912464       -1.21192006        1.24718088
 C           -4.32204851       -0.81878431       -0.93474559
 C           -3.75532571        1.22700928        1.69509608
 C           -3.79348590        2.17956382        0.59312974
 C           -4.33868480        1.49492818       -0.56205561
 C           -4.39519500        0.01145235        1.25414272
 C           -4.87952789        0.23028800       -0.10055843




