%chk=000745.chk
%mem=8GB
%Nproc=32
#p B3LYP/6-31G* opt pop=NPA

Template file

0 1
 C            3.72994700       -2.39084565       -0.06486872
 C            4.21196144       -1.03082764        0.04689954
 C            3.74531414       -0.49954168        1.31744824
 C            2.85959918       -2.63470731        1.07195052
 C            2.70329508       -1.39420581        1.79568054
 C            1.66715092       -3.25050432        0.55832614
 C            2.90798379       -2.46557917       -1.26208800
 C            1.67345624       -3.10594868       -0.88926538
 C            3.84016616       -0.33058125       -1.17074174
 C            2.83142090       -1.14230587       -1.83500681
 C            3.64220265        1.03866606       -1.08952411
 C            3.53726452        0.86506434        1.40658187
 C            3.76129965        1.67083548        0.21527532
 C            2.30674704        1.34277587        2.01036312
 C            1.41102461       -0.90349672        2.01228979
 C            1.21911412        0.47364164        2.15481356
 C            0.46185783       -2.98901995        1.18475935
 C            0.30277293       -1.74873383        1.83796122
 C           -0.62960100       -3.49987264        0.50786479
 C            0.48428455       -2.68569361       -1.47717583
 C           -0.66003742       -3.25055558       -0.92455606
 C            1.57827267       -0.58907912       -2.10197179
 C            0.40865933       -1.37125703       -1.97661109
 C            2.48173228        1.62067475       -1.74320369
 C            1.48753633        0.79645175       -2.26627815
 C            2.83342812        2.78511425        0.25826326
 C            2.08678370        2.68413953        1.49611447
 C            2.09062629        2.80340829       -0.98995890
 C            0.79800098        3.17846492        1.50618631
 C           -0.07389157        1.00269445        2.21779741
 C           -0.22911230        2.38909043        2.15204774
 C           -0.99094255       -1.23068179        2.02718485
 C           -1.18586639        0.16024245        2.06223864
 C           -1.94142154       -3.24107170        1.03405002
 C           -2.08668657       -2.08589335        1.88559633
 C           -1.95578691       -2.69034574       -1.22710320
 C           -2.81431727       -3.04092038       -0.10599422
 C           -0.84790563       -0.77488778       -2.18637795
 C           -2.02408162       -1.41267966       -1.77048725
 C            0.26647917        1.37311774       -2.57573270
 C           -0.91341228        0.53820878       -2.64495968
 C            0.74513002        3.16212079       -0.95581981
 C            0.21738892        3.63168959        0.24985214
 C           -0.10395916        2.62179603       -1.92440941
 C           -1.48274357        2.94483058        1.70025928
 C           -1.21904119        3.65788484        0.45613590
 C           -2.46677339        0.71398849        1.85055195
 C           -2.57743945        2.04274055        1.45971079
 C           -3.39130779       -1.53810787        1.58704866
 C           -3.82999894       -2.10231428        0.31349334
 C           -3.53131664       -0.10651317        1.49841257
 C           -3.20926912       -0.68063729       -1.64289006
 C           -4.13668128       -0.99698352       -0.56968559
 C           -4.23277174        0.18627075        0.25938250
 C           -2.05586774        1.36880609       -2.30033839
 C           -1.54751547        2.61043372       -1.73378178
 C           -2.09623216        3.10658902       -0.55850454
 C           -3.10823326        2.33315263        0.13744125
 C           -3.17904549        0.76759785       -1.75142818
 C           -3.76964108        1.31330077       -0.53321840




