%chk=000674.chk
%mem=8GB
%Nproc=32
#p B3LYP/6-31G* opt pop=NPA

Template file

0 1
 C           -4.56426272       -0.52134480       -0.42388557
 C           -4.01132790        0.40602383       -1.39449508
 C           -3.86843965        1.66875314       -0.71759289
 C           -4.28358510        0.02164114        0.89549861
 C           -3.99206539        1.41890646        0.71715679
 C           -3.27336620       -0.82081552        1.50565544
 C           -3.82352058       -1.75969104       -0.53772708
 C           -3.31241927       -2.07929936        0.78068108
 C           -2.82621020       -0.20362887       -1.97010764
 C           -2.85567027       -1.61052873       -1.61074979
 C           -1.60396878        0.47628301       -1.93936763
 C           -2.63538408        2.40584688       -0.89097469
 C           -1.55617917        1.83080621       -1.57376077
 C           -2.79485426        1.95962669        1.32668824
 C           -2.37487664        2.98962735        0.40635175
 C           -2.02998649       -0.28302097        1.87128004
 C           -1.81282120        1.10329422        1.84238826
 C           -0.94777869       -1.15240463        2.03438994
 C           -2.19146927       -2.88312591        0.83336046
 C           -1.12536816       -2.50430997        1.73460977
 C           -1.64792972       -2.27742311       -1.47368980
 C           -1.52303123       -3.18356594       -0.41977891
 C           -0.42214585       -0.26925517       -2.00759369
 C           -0.49255219       -1.66864474       -1.96067923
 C            0.81820423        0.38224039       -1.96804252
 C           -0.31509313        2.45821029       -1.42754992
 C            0.85889801        1.77178530       -1.76764226
 C           -1.12837354        3.53036890        0.59850759
 C           -0.24734367        3.54242417       -0.54326452
 C           -0.50964636        1.60795751        1.96307170
 C           -0.31181590        2.95366340        1.64648434
 C            0.34888290       -0.64213300        2.15668768
 C            0.58066892        0.72282542        1.96838108
 C            1.43086356       -1.52224063        2.22100278
 C            0.01835063       -3.29852057        1.33148286
 C           -0.20145107       -3.66757634       -0.06722651
 C            1.27669641       -2.88627287        1.73852662
 C            0.67693457       -2.41683461       -1.96486461
 C            0.82206559       -3.48516140       -0.98616918
 C            2.00779644       -0.35843530       -2.09254835
 C            1.95276984       -1.74768988       -2.09097018
 C            3.22053712        0.21495184       -1.72416821
 C            2.08832953        2.42330100       -1.62561614
 C            3.29957953        1.64307653       -1.52286634
 C            1.02432267        3.94101327        0.01308074
 C            1.02470004        3.44516865        1.38746187
 C            2.22288775        3.45940319       -0.62226505
 C            1.89393340        1.18272920        1.74145402
 C            3.82806901        1.85133627       -0.17770912
 C            2.13617352        2.53424058        1.50159236
 C            3.04526156        2.89899896        0.43253471
 C            2.74942172       -1.06135485        1.82882606
 C            3.96899328       -0.39091684       -0.63529353
 C            2.91697157        0.26750174        1.46670318
 C            3.83860172        0.55023699        0.45579595
 C            2.41982337       -3.19702386        0.89848628
 C            2.18948474       -3.47087759       -0.50702737
 C            2.91534197       -2.47979516       -1.27947044
 C            3.35031645       -2.08829057        0.98787272
 C            3.75805662       -1.73206029       -0.36291590




