%chk=000606.chk
%mem=8GB
%Nproc=32
#p B3LYP/6-31G* opt pop=NPA

Template file

0 1
 C            4.45835460        0.65004726       -0.21960748
 C            4.05833501       -0.31323057       -1.22865530
 C            3.87626002       -1.57786791       -0.55578191
 C            4.14579447        0.07548405        1.07948576
 C            3.84577014       -1.32146169        0.87912320
 C            3.13862476        0.91143875        1.69671591
 C            3.63077427        1.82999018       -0.38785364
 C            2.98280091        2.10377172        0.87667014
 C            2.93457378        0.24438951       -1.96435440
 C            2.77815715        1.62653701       -1.53895549
 C            1.78968972       -0.53229297       -2.17446575
 C            2.69288158       -2.34585843       -0.86889182
 C            1.81400620       -1.89961543       -1.85444117
 C            2.58708135       -1.84463308        1.38403879
 C            2.12240042       -2.78714750        0.39011306
 C            1.99620938        0.34192737        2.26098855
 C            1.65420011       -0.99138990        1.97314588
 C            0.99861886        1.22737866        2.64691229
 C            1.73127231        2.70891434        0.84983385
 C            0.90678617        2.50043374        1.95074251
 C            1.49690864        2.15228599       -1.48732429
 C            1.13425901        2.94746623       -0.39278847
 C            0.56273708        0.12190280       -2.36429275
 C            0.49712563        1.50985416       -2.21160464
 C           -0.62045598       -0.61544630       -2.45191806
 C            0.65003382       -2.64533712       -1.99929071
 C           -0.55407454       -1.99936977       -2.47948623
 C            0.78283961       -3.14006358        0.37841665
 C            0.24822044       -3.45954125       -0.86680375
 C            0.31165525       -1.39853274        2.00157692
 C           -0.06371481       -2.58725310        1.34508932
 C           -0.34692236        0.74560017        2.86794823
 C           -0.65146667       -0.58131717        2.61220378
 C           -0.49346850        2.87830686        1.87989610
 C           -1.27796030        1.77871859        2.43209046
 C           -0.10186935        3.58783863       -0.42867621
 C           -0.94792745        3.55236571        0.75678418
 C           -0.72220728        2.15995423       -2.36758240
 C           -0.95433982        3.35750307       -1.58103534
 C           -1.83953946        0.00167965       -2.17020118
 C           -1.94303998        1.37315338       -2.34973116
 C           -2.78694716       -0.66171533       -1.37837681
 C           -1.68358006       -2.76618569       -1.97741491
 C           -1.17168631       -3.70757484       -0.99100960
 C           -2.79532098       -2.05604613       -1.37026340
 C           -1.38574399       -3.03139769        1.39661752
 C           -1.98806097       -3.59254851        0.19835765
 C           -3.12610687       -2.75834353       -0.14214387
 C           -1.99801226       -0.90668604        2.53005154
 C           -2.39249257       -2.19831050        2.01411299
 C           -3.44668253       -1.97787253        1.03287238
 C           -2.49235504        1.40235550        1.84847584
 C           -3.46915898        0.03775057       -0.37042663
 C           -2.92260179        0.08407380        2.00002023
 C           -3.60157913       -0.54563666        0.88408599
 C           -2.31362806        3.33422688        0.32662631
 C           -2.33145822        3.34087154       -1.12558110
 C           -2.92463682        2.09140776       -1.56579435
 C           -3.00452823        2.13900785        0.77666687
 C           -3.47480426        1.42604002       -0.40491005




