%chk=000253.chk
%mem=8GB
%Nproc=32
#p B3LYP/6-31G* opt pop=NPA

Template file

0 1
 C           -4.71088440        0.41894113        0.15057837
 C           -4.60537920       -1.01797097        0.01612725
 C           -3.79976676       -1.50073459        1.12431599
 C           -3.95137931        0.80441129        1.32810799
 C           -3.24693018       -0.35950447        1.81771832
 C           -3.16070245        1.94773508        0.95691456
 C           -4.04769754        1.01590177       -0.99619741
 C           -3.22648336        2.09191539       -0.49173996
 C           -3.86005457       -1.29326823       -1.20174874
 C           -3.38297238       -0.03763535       -1.73249982
 C           -2.86793824       -2.44718201        0.57382034
 C           -2.87575789       -2.29275004       -0.87402096
 C           -1.62102787       -2.56902925        1.16218347
 C           -1.85998183       -0.28623030        1.97945501
 C           -1.08498814       -1.44938029        1.83249407
 C           -1.91286538        2.11174726        1.53667832
 C           -1.22993828        0.96925638        2.00509498
 C           -1.16759193        3.14113813        0.98628980
 C           -2.03170908        2.38343013       -1.14424882
 C           -1.17918633        3.24698299       -0.46129481
 C           -2.02126028        0.10771961       -1.99150930
 C           -1.46596708        1.39348526       -1.96355414
 C           -1.63400297       -2.25138330       -1.50148845
 C           -1.17616745       -1.02007945       -2.00506337
 C           -0.74953004       -3.37074054        0.44764739
 C           -0.69863905       -3.13861193       -0.98584994
 C            0.59681997       -3.52059360        0.92643897
 C            0.29863750       -1.38231981        2.06803181
 C            1.09595658       -2.50372660        1.81751049
 C            0.15305484        1.03367453        2.23916970
 C            0.91159232       -0.14198320        2.28092663
 C            0.17915620        3.34609143        1.44397632
 C            0.81269789        2.26242808        2.15547210
 C            0.19141928        3.41814254       -0.90243691
 C            1.00041594        3.64439142        0.28017533
 C           -0.18427076        1.57319264       -2.47085551
 C            0.67941128        2.60266070       -1.90997089
 C            0.18766997       -0.84714931       -2.29956928
 C            0.63329330        0.40220103       -2.72917471
 C            0.69195472       -3.00483824       -1.34918257
 C            1.46267338       -3.53564665       -0.23784821
 C            1.12311571       -1.83782881       -1.96668484
 C            2.49725312       -2.33286266        1.48215985
 C            2.68831080       -2.85952977        0.13114923
 C            2.30949680       -0.06039083        2.35134485
 C            3.12612147       -1.15660947        1.85595072
 C            2.20516676        2.29710714        1.75947839
 C            2.24186820        2.91222503        0.43940007
 C            2.98061752        1.17669173        1.98545333
 C            2.02486536        2.05341596       -1.81071523
 C            2.02009754        0.78714690       -2.52918142
 C            2.76686006        2.18928048       -0.63118305
 C            2.48685502       -1.53155910       -1.91564745
 C            3.30023536       -2.06513498       -0.82888507
 C            2.94807007       -0.18388063       -2.19759328
 C            4.15106241       -0.59445693        0.99047295
 C            3.99630516        0.84758767        1.00211270
 C            3.80004779        1.29308724       -0.36824179
 C            4.20716136       -1.02192666       -0.39460032
 C            3.98480907        0.14294903       -1.23566304




