%chk=001513.chk
%mem=8GB
%Nproc=32
#p B3LYP/6-31G* opt pop=NPA

Template file

0 1
 C            4.14578517        0.31122359        0.87485783
 C            4.21536057       -0.63075165       -0.22553128
 C            3.66362913       -1.88798874        0.24294034
 C            3.40621612       -0.32241590        1.95748547
 C            3.01857289       -1.64277890        1.52235246
 C            2.37194518        0.58748354        2.38154193
 C            3.55770140        1.61656827        0.63712371
 C            2.54757378        1.83972746        1.66239851
 C            3.30053563        2.01525178       -0.66733340
 C            3.55493095       -0.30026339       -1.47736207
 C            3.17381253        1.01164056       -1.72056308
 C            2.85661252       -2.44532661       -0.82728004
 C            2.61902914       -1.37287573       -1.78098051
 C            1.78201859       -3.23878926       -0.46354797
 C            1.70086055       -2.06655524        1.67950409
 C            1.32128258       -3.16448782        0.91404848
 C            1.08150570        0.11685558        2.58776008
 C            0.71504248       -1.16208194        2.12967542
 C            0.10263513        1.08192594        2.77638906
 C            1.41933791        2.61634193        1.38769018
 C            0.26255404        2.37441114        2.12375376
 C            2.27137333        3.00966480       -0.89170085
 C            1.31467746        3.28421977        0.16813215
 C            1.91376310        1.25446141       -2.39560818
 C            1.51872659        2.60496234       -2.06850496
 C            1.30547180       -1.07104832       -2.15545692
 C            0.94042920        0.25837975       -2.40972277
 C            0.58580722       -3.19829596       -1.27978398
 C            0.32179980       -2.05912467       -2.03932328
 C           -0.05295843       -3.60236867        0.92846757
 C           -0.46961629       -3.76113810       -0.45809464
 C           -0.64796606       -1.52273410        2.08592827
 C           -1.03189382       -2.76267572        1.57421298
 C           -1.29368566        0.71746023        2.71039425
 C           -1.64390947       -0.56721137        2.31910535
 C           -1.03513874        2.76536891        1.59239061
 C           -2.01926032        1.86074602        2.17446816
 C            0.01292718        3.42330664       -0.46600210
 C            0.12118453        2.85725246       -1.80162137
 C           -1.14766301        3.16857205        0.26024516
 C           -0.41207296        0.61352651       -2.49811719
 C           -0.82709896        1.91884063       -2.18922785
 C           -0.99581021       -1.76284514       -2.38126913
 C           -1.35983757       -0.38955117       -2.67521022
 C           -1.80975755       -3.22002260       -0.57467172
 C           -2.23432080       -2.84870244        0.76703259
 C           -2.09389598       -2.36900294       -1.63557824
 C           -2.94830146       -0.80726989        1.88466484
 C           -3.19810354       -1.86677479        0.92520889
 C           -3.23142069        1.65495222        1.53074952
 C           -3.79091837        0.31484015        1.50554214
 C           -2.29059070        2.82775282       -0.46190797
 C           -2.12284579        2.13517833       -1.72991751
 C           -3.42916301        2.24011737        0.21966693
 C           -2.72648291       -0.18444585       -2.22523280
 C           -3.13710944       -1.36916266       -1.48136526
 C           -3.77845437       -1.23975413       -0.25185557
 C           -4.28719161        0.05652584        0.16137357
 C           -3.11472546        1.07871767       -1.80105021
 C           -3.99290904        1.22016799       -0.65128322




