%chk=001138.chk
%mem=8GB
%Nproc=32
#p B3LYP/6-31G* opt pop=NPA

Template file

0 1
 C            4.39939865        0.09092830       -0.54595154
 C            4.11738572        1.27160106        0.24998217
 C            3.31811632        2.17350321       -0.56600970
 C            3.80668688        0.29506904       -1.85868199
 C            2.94783631        1.45855515       -1.77075447
 C            3.22792582       -0.95948622       -2.28172411
 C            3.96525260       -1.21075268       -0.06856762
 C            3.40212897       -1.91867233       -1.20093031
 C            3.34962731       -1.32482115        1.17326734
 C            3.44057318        1.12359747        1.52543491
 C            3.14129641       -0.14754168        2.00829435
 C            2.25510013        2.70865268        0.26943746
 C            2.44272767        2.17763972        1.60906328
 C            0.96229247        2.78577987       -0.24640219
 C            1.59345367        1.35267370       -2.07550609
 C            0.72328827        2.29800200       -1.53774172
 C            1.82872579       -0.98737415       -2.66281655
 C            1.06162328        0.17057380       -2.61310212
 C            2.14363576       -2.62576315       -1.04010944
 C            1.26135161       -2.19931251       -2.11672891
 C            2.19478261       -2.19955012        1.33660692
 C            1.60520244       -2.81834733        0.23114724
 C            1.92492757       -0.35766768        2.77843116
 C            1.34867311       -1.62968608        2.37728456
 C            1.32656971        2.00225873        2.41562999
 C            1.08339819        0.71132540        3.04456012
 C           -0.10527362        2.93837923        0.64578214
 C            0.04401043        2.51541815        1.96197938
 C           -1.39511764        3.08575132        0.14984203
 C           -0.55253516        2.38346321       -2.07511828
 C           -1.60087881        2.98512645       -1.27943904
 C           -0.32607578        0.03424558       -2.68818930
 C           -1.09633307        1.19513527       -2.70448225
 C           -0.11089900       -2.25222594       -1.90547342
 C           -0.91360898       -1.19564758       -2.35322899
 C            0.27049337       -3.20428353        0.31475120
 C           -0.56745966       -3.05174031       -0.86211287
 C           -0.03382514       -1.77576372        2.28464225
 C           -0.52452332       -2.77971429        1.45462854
 C           -0.35210524        0.49255744        3.06688133
 C           -0.99458344        1.69391218        2.55847572
 C           -0.88235784       -0.74980001        2.72596357
 C           -2.49176195        2.38751115        0.81000256
 C           -2.22518178        1.57635305        1.91757786
 C           -2.82578557        2.24135147       -1.51207191
 C           -2.51767637        1.14025101       -2.41006966
 C           -3.42882755        1.95457326       -0.22157022
 C           -2.29699496       -1.28920159       -2.18897170
 C           -3.11832515       -0.08998870       -2.19449415
 C           -1.94249887       -2.93251552       -0.41295825
 C           -1.91491456       -2.76880352        1.03762028
 C           -2.83114399       -2.19045572       -1.17968548
 C           -2.25174010       -0.81583126        2.46974972
 C           -2.95785101        0.40754632        2.11590696
 C           -2.79194504       -1.89038572        1.65564772
 C           -4.13174881        0.76816447       -0.06090896
 C           -4.10497589       -0.21773135       -1.13175229
 C           -3.95018490       -1.53118259       -0.53096131
 C           -4.02685524        0.05794215        1.19829467
 C           -3.92249580       -1.36359540        0.90962944




