%chk=000474.chk
%mem=8GB
%Nproc=32
#p B3LYP/6-31G* opt pop=NPA

Template file

0 1
 C            4.20627237        1.54619829       -1.08074953
 C            4.45383964        0.12787216       -0.90466835
 C            4.63594979       -0.09338733        0.51372192
 C            3.82595087        2.08444135        0.21646230
 C            4.11703822        1.07752310        1.20991949
 C            2.46525847        2.57053355        0.10495783
 C            3.06261138        1.68650145       -1.96382754
 C            2.09552047        2.52453483       -1.29629941
 C            3.40244547       -0.59830388       -1.60427322
 C            2.62698847        0.36737910       -2.36426676
 C            2.72866594       -1.64552374       -0.97182968
 C            4.01562350       -1.25739137        1.10655351
 C            3.14175276       -2.08489817        0.29210474
 C            3.04378891        0.62769508        2.07713322
 C            3.21738584       -0.79989132        2.23282316
 C            1.49892495        2.19402041        1.04153667
 C            1.74879676        1.12176995        1.90796247
 C            0.17003991        2.48938965        0.72897414
 C            0.75449722        2.31882453       -1.56934478
 C           -0.14056164        2.75350481       -0.60999986
 C            1.26205471        0.14753093       -2.49865922
 C            0.37277865        1.22156151       -2.35019024
 C            1.45484371       -2.00009639       -1.43100792
 C            0.78514690       -1.14520055       -2.31594718
 C            0.73704956       -2.97183186       -0.73345893
 C            2.15103841       -2.61279911        1.21114316
 C            2.03063499       -1.63111459        2.27520818
 C            0.98572296       -3.14523991        0.68483317
 C            0.67053617        0.36041606        2.36928216
 C            0.79107924       -1.03455897        2.47198605
 C           -0.84077750        2.05613212        1.58993654
 C           -0.60194344        0.93295318        2.39200971
 C           -2.14229797        2.50769999        1.36051530
 C           -1.46427795        2.84078791       -0.99767800
 C           -2.48248362        2.94754882        0.02408356
 C           -0.99863200        0.99206013       -2.54297608
 C           -1.92154352        1.90069800       -2.00541573
 C           -0.52621854       -1.41226453       -2.69265915
 C           -1.42212195       -0.28814774       -2.90534907
 C           -0.69533899       -3.09714948       -0.93474612
 C           -1.27546968       -2.45745168       -2.01522197
 C           -0.27313841       -2.87152108        1.36155409
 C           -0.33942037       -1.82677293        2.28108543
 C           -1.33229970       -3.01134959        0.37460930
 C           -1.66062865        0.13501898        2.82400469
 C           -1.58097952       -1.29030609        2.58719471
 C           -3.27837347        1.75802704        1.85981573
 C           -3.03267210        0.53224797        2.58012408
 C           -3.63747707        2.18550501       -0.41835627
 C           -3.25722084        1.46131810       -1.61904902
 C           -4.13511719        1.44448363        0.72499696
 C           -2.76449867       -0.73047033       -2.56798435
 C           -2.65264061       -2.01864857       -1.90404621
 C           -3.60061820        0.12275466       -1.74708410
 C           -2.50673551       -2.27715892        0.53899133
 C           -2.72501210       -1.64553217        1.76181996
 C           -3.67884628       -0.55293831        1.85505589
 C           -4.24446372       -0.00209033        0.63857113
 C           -3.24293172       -1.89015502       -0.58308168
 C           -3.99749531       -0.64473837       -0.57080020




