%chk=000614.chk
%mem=8GB
%Nproc=32
#p B3LYP/6-31G* opt pop=NPA

Template file

0 1
 C            4.57611290       -1.23493981        0.04042108
 C            3.79449550       -1.82437219        1.11402720
 C            2.96521007       -2.83931494        0.51374345
 C            3.90168655       -1.55432132       -1.20746578
 C            3.02063916       -2.66116980       -0.93469836
 C            3.32614363       -0.32721610       -1.72555351
 C            4.52000718        0.20292100        0.20488426
 C            3.97814464        0.76463040       -1.02082782
 C            3.14679424       -0.74444755        1.83771239
 C            3.82599331        0.48143284        1.45178866
 C            1.75476121       -0.74389074        1.98760111
 C            1.56288980       -2.88166187        0.87090199
 C            1.01332869       -1.90249365        1.70061742
 C            1.64936345       -2.58373202       -1.39641965
 C            0.85591809       -3.18652371       -0.35100890
 C            1.95190030       -0.25278497       -1.98629996
 C            1.16082974       -1.41391435       -1.98355369
 C            1.34179843        1.00361945       -2.03914048
 C            3.31773992        1.97764868       -0.93046611
 C            2.05088107        2.13474883       -1.62313897
 C            3.13864761        1.67993388        1.54797742
 C            3.14515632        2.56190753        0.39132296
 C            1.09220394        0.46876561        2.21373599
 C            1.78131633        1.67286308        2.07000889
 C           -0.30240135        0.49674300        2.25986596
 C           -0.38290990       -1.84987589        1.75755509
 C           -0.99675673       -0.71383514        2.28263457
 C           -0.49630426       -2.92632959       -0.36274175
 C           -1.09666950       -2.64755311        0.85537414
 C           -0.23089617       -1.29898017       -2.09102277
 C           -1.01577914       -2.28763009       -1.47906176
 C           -0.03554230        1.10235500       -2.24194644
 C           -0.79851030       -0.05677647       -2.39235675
 C           -0.67415372        2.31344652       -1.96752662
 C            1.34136316        3.21016858       -0.95113305
 C            1.89435121        3.29489978        0.38694558
 C            1.08610128        2.80822715        1.49123163
 C           -0.03468665        3.25795454       -1.07608020
 C           -0.97444435        1.69082715        1.95485636
 C           -0.28527463        2.71047239        1.30298883
 C           -0.83495927        3.24646667        0.13697907
 C           -2.36259379        1.70243750        1.88297875
 C           -2.37907567       -0.71398140        2.45474726
 C           -3.10169788        0.53117094        2.30170458
 C           -2.48563599       -2.63863073        0.88121952
 C           -3.16059863       -1.74952741        1.80451257
 C           -2.40132461       -2.24111103       -1.58389481
 C           -3.18061187       -2.56770241       -0.39634354
 C           -2.18512431        0.05461320       -2.51403763
 C           -3.01726518       -1.09430140       -2.21474520
 C           -2.08192219        2.31692804       -1.61177586
 C           -2.17938905        2.85499358       -0.25917421
 C           -2.98600695        2.21830058        0.67525682
 C           -2.85439022        1.22593327       -1.97337182
 C           -4.17196056        0.31541981        1.33992046
 C           -4.25867046       -1.11122328        1.09308898
 C           -4.25260653       -1.59627134       -0.27480166
 C           -4.11525682       -0.64905347       -1.36717038
 C           -3.95602840        1.23283477        0.23021442
 C           -3.90433032        0.76090223       -1.08105973




