%chk=001590.chk
%mem=8GB
%Nproc=32
#p B3LYP/6-31G* opt pop=NPA

Template file

0 1
 C            4.09534847       -1.02351024        0.44734422
 C            3.96343212       -0.95138174       -0.99493416
 C            3.11828561       -2.05215079       -1.42149194
 C            3.30420708       -2.14807865        0.91338314
 C            2.77873041       -2.84232628       -0.24987061
 C            2.37021449       -1.65880252        1.91581578
 C            3.72306095        0.13842585        1.23168885
 C            2.62183272       -0.24348212        2.10912833
 C            3.67517591        1.37672464        0.60734741
 C            3.43848707        0.26869549       -1.58300751
 C            3.46281434        1.44019748       -0.83861919
 C            2.04135440       -1.50541252       -2.23202274
 C            2.22456169       -0.06839370       -2.31207333
 C            0.75761913       -2.00538055       -2.06597906
 C            1.50165246       -3.37743576       -0.16963033
 C            0.57081606       -3.12590808       -1.25462398
 C            1.05840577       -2.10918404        1.88396492
 C            0.73926835       -3.18119880        1.05071154
 C            0.03947666       -1.26722188        2.32676661
 C            1.54619709        0.62985637        2.28707395
 C            0.24196334        0.12260457        2.33986843
 C            2.85064934        2.40384565        1.21207317
 C            1.74465601        1.98939360        2.05640054
 C            2.43705656        2.43618809       -1.08250206
 C            2.29728393        3.20432174        0.13802676
 C            1.11110605        0.76651673       -2.21642842
 C            1.28205870        2.08626578       -1.78335826
 C           -0.33212067       -1.18257484       -2.34636463
 C           -0.17608651        0.21443645       -2.30599650
 C           -1.60207841       -1.75023392       -2.29374359
 C           -0.75687410       -3.41971482       -0.73601734
 C           -0.65382912       -3.43814289        0.71856139
 C           -1.85011674       -2.81462109       -1.33878296
 C           -1.24667849       -1.79003172        2.41575596
 C           -1.64074940       -2.83337878        1.48528606
 C           -2.37136028       -0.89734613        2.58094071
 C           -0.85053572        1.00615786        2.29569785
 C           -2.14893755        0.52461658        2.44359967
 C            0.61135887        2.83075734        1.72081272
 C            0.96374637        3.60390285        0.53291930
 C           -0.67555378        2.31303482        1.83458648
 C            0.17030476        2.91643981       -1.66923263
 C            0.01304482        3.73066448       -0.46722461
 C           -1.29540511        1.06116762       -2.33690121
 C           -1.13749033        2.41012351       -2.03751000
 C           -2.76943837       -0.90090025       -2.31368975
 C           -2.58000548        0.52841398       -2.24286756
 C           -2.98967578       -2.41369233       -0.52883052
 C           -2.88343810       -2.41309286        0.85831441
 C           -3.39525886       -1.28533765        1.62119383
 C           -3.62703748       -1.29433149       -1.20411085
 C           -3.19617002        1.04992780        1.58483552
 C           -3.48868853        1.04270680       -1.22887242
 C           -3.83146854       -0.08291304        0.92935606
 C           -3.96196787       -0.09291827       -0.45553162
 C           -1.70841846        2.93314885        1.12867404
 C           -1.37928998        3.66394921       -0.07795154
 C           -2.11096117        3.04607992       -1.16582134
 C           -2.93976086        2.20753661        0.86335581
 C           -3.15477381        2.22299730       -0.57949285




