%chk=001778.chk
%mem=8GB
%Nproc=32
#p B3LYP/6-31G* opt pop=NPA

Template file

0 1
 C            2.53266771       -3.07090735       -0.24573861
 C            2.66159597       -2.24230800       -1.43374709
 C            1.36658814       -2.22536497       -2.09433553
 C            1.23228459       -3.71449908       -0.28682402
 C            0.52071465       -3.22257664       -1.45313670
 C            0.61529940       -3.54811492        1.01374143
 C            2.68060992       -2.45187837        1.06225043
 C            1.39369234       -2.54967024        1.72897408
 C            3.39460472       -1.26812514        1.15380809
 C            3.38646852       -1.06429259       -1.34078488
 C            3.98256840       -0.72272846       -0.05918179
 C            2.81730623        0.15541641       -1.88957087
 C            0.79962659       -1.01831847       -2.49810075
 C            1.46840705        0.18481346       -2.24691312
 C           -0.55880759       -1.00507323       -2.78472124
 C           -0.84784194       -2.98125075       -1.34979175
 C           -1.41502402       -2.02101714       -2.18932874
 C           -0.76502626       -3.46579088        1.06684829
 C           -1.51032473       -3.36670797       -0.18096974
 C           -1.36675200       -2.51280665        1.97834744
 C            0.76119005       -1.39492245        2.19516617
 C           -0.62006205       -1.41779175        2.41206480
 C            2.81730623       -0.15541641        1.88957087
 C            1.46840705       -0.18481346        2.24691312
 C            3.98256840        0.72272846        0.05918179
 C            3.39460472        1.26812514       -1.15380809
 C            3.38646852        1.06429259        1.34078488
 C            2.68060992        2.45187837       -1.06225043
 C            0.76119005        1.39492245       -2.19516617
 C            1.39369234        2.54967024       -1.72897408
 C           -1.28065539        0.25078768       -2.78060003
 C           -0.62006205        1.41779175       -2.41206480
 C           -2.68827028       -1.39537802       -1.85771013
 C           -2.62832775       -0.00850301       -2.28997496
 C           -2.80383466       -2.79099597        0.14829595
 C           -2.72995689       -2.30840395        1.52012506
 C           -3.33264289       -1.71922503       -0.67089764
 C           -3.28809490       -0.96984056        1.55646688
 C           -3.77800295       -0.65925142        0.22159354
 C           -1.28065539       -0.25078768        2.78060003
 C           -2.62832775        0.00850301        2.28997496
 C            0.79962659        1.01831847        2.49810075
 C           -0.55880759        1.00507323        2.78472124
 C            2.66159597        2.24230800        1.43374709
 C            2.53266771        3.07090735        0.24573861
 C            1.36658814        2.22536497        2.09433553
 C            0.61529940        3.54811492       -1.01374143
 C            1.23228459        3.71449908        0.28682402
 C            0.52071465        3.22257664        1.45313670
 C           -1.36675200        2.51280665       -1.97834744
 C           -0.76502626        3.46579088       -1.06684829
 C           -3.28809490        0.96984056       -1.55646688
 C           -3.77800295        0.65925142       -0.22159354
 C           -2.72995689        2.30840395       -1.52012506
 C           -2.68827028        1.39537802        1.85771013
 C           -1.41502402        2.02101714        2.18932874
 C           -0.84784194        2.98125075        1.34979175
 C           -1.51032473        3.36670797        0.18096974
 C           -3.33264289        1.71922503        0.67089764
 C           -2.80383466        2.79099597       -0.14829595




