%chk=000579.chk
%mem=8GB
%Nproc=32
#p B3LYP/6-31G* opt pop=NPA

Template file

0 1
 C            4.27744497        1.07079205       -1.06076091
 C            3.90195260       -0.16625661       -1.72332807
 C            4.02705144       -1.22999593       -0.75751495
 C            4.30626650        0.80858362        0.36843533
 C            4.23490006       -0.62117758        0.55186025
 C            3.28823042        1.63268335        0.98598943
 C            3.22562712        2.04252603       -1.30907121
 C            2.75090158        2.52083576       -0.03370631
 C            2.61423532        0.04229293       -2.35278971
 C            2.25735353        1.44019244       -2.19043387
 C            1.60073679       -0.90782213       -2.21991210
 C            2.92992376       -2.16725570       -0.61486683
 C            1.77115943       -2.02822116       -1.38426438
 C            3.21409176       -1.15859246        1.43227350
 C            2.78320155       -2.39396937        0.80793021
 C            2.40001199        1.08251856        1.91320615
 C            2.24468929       -0.31296455        1.98414127
 C            1.34516717        1.90066466        2.30702816
 C            1.41732242        2.89166979        0.08910572
 C            0.93746105        2.95128206        1.38889884
 C            0.91577558        1.73426452       -1.99732695
 C            0.51680564        2.57991148       -0.94816888
 C            0.30892593       -0.51412208       -2.57061686
 C           -0.01186030        0.84748097       -2.52699523
 C           -0.69869093       -1.46938852       -2.56696728
 C            0.65004860       -2.77888635       -1.00554193
 C           -0.54712557       -2.62233760       -1.70358681
 C            1.60574161       -2.96503811        1.24671250
 C            0.64243083       -3.39312888        0.24944670
 C            1.01376924       -0.87121325        2.36263911
 C            0.83774317       -2.24850397        2.24620753
 C            0.13083765        1.30310788        2.82339000
 C           -0.09067807       -0.04704083        2.60071685
 C           -0.46072627        3.21994253        1.61188105
 C           -0.94157540        2.24702530        2.58219579
 C           -0.85764403        2.82990966       -0.78057446
 C           -1.35611045        3.18199709        0.47634379
 C           -1.33051755        1.26627351       -2.60865727
 C           -1.75233294        2.34947204       -1.74000498
 C           -2.09185307       -1.05929022       -2.53995071
 C           -2.40106740        0.28818689       -2.67086850
 C           -1.82496805       -2.84965110       -1.03717589
 C           -2.77957290       -1.87944641       -1.55003659
 C           -0.61105224       -3.56116350        0.96189593
 C           -0.50420724       -2.79206145        2.19550089
 C           -1.84911476       -3.18146922        0.31143187
 C           -1.39625089       -0.51426021        2.37265704
 C           -1.62714930       -1.88053429        2.23747383
 C           -2.58038288       -2.33671708        1.24288468
 C           -2.21015039        1.74826774        2.09687600
 C           -2.58477927        2.57247563        0.95772687
 C           -2.42561899        0.37576237        2.03600274
 C           -3.13782456        2.10084882       -1.36947936
 C           -3.54559116        0.83825119       -1.96699135
 C           -3.49394509        2.07078262        0.03744213
 C           -3.70197522       -1.30256566       -0.68105759
 C           -3.50781638       -1.42838039        0.75550948
 C           -3.52196873       -0.08518712        1.30777900
 C           -4.18871584        0.04254489       -0.93955187
 C           -4.11854112        0.78609535        0.30861821




