%chk=000666.chk
%mem=8GB
%Nproc=32
#p B3LYP/6-31G* opt pop=NPA

Template file

0 1
 C            4.54777690       -0.97873407        0.13406920
 C            3.75532917       -2.01110849        0.76738699
 C            3.19121920       -2.80379849       -0.30144631
 C            4.07961542       -0.85586615       -1.23993920
 C            3.26913037       -2.01437491       -1.52413374
 C            3.48172231        0.45788554       -1.37133216
 C            4.24120020        0.26921181        0.79978754
 C            3.96117113        1.23513005       -0.24056094
 C            2.83925389       -1.37384970        1.70668911
 C            3.19462823        0.02924335        1.78368143
 C            1.49624519       -1.73713613        1.68502946
 C            1.81532878       -3.21464446       -0.16331510
 C            1.13974393       -2.91210615        1.01286500
 C            1.90835589       -1.81709284       -1.98979187
 C            1.13765361       -2.89014522       -1.40439803
 C            2.14164155        0.59343338       -1.76313565
 C            1.34998669       -0.54259044       -2.00260862
 C            1.52164324        1.83208245       -1.55806987
 C            3.21121345        2.33011581        0.12804681
 C            2.20184082        2.78912278       -0.79561130
 C            2.19601008        0.99370920        1.89841281
 C            2.51257402        2.25554929        1.40079649
 C            0.51482319       -0.76706648        1.94840082
 C            0.84635434        0.59556650        1.94603885
 C           -0.82672028       -1.15945000        2.01503324
 C           -0.18856261       -3.29167512        1.03440511
 C           -1.11443429       -2.51067254        1.81979056
 C           -0.24241199       -2.76757784       -1.32636932
 C           -0.82600022       -3.44021676       -0.26071852
 C           -0.04069115       -0.43143980       -1.97262571
 C           -0.84035316       -1.56933230       -1.74577087
 C            0.14292601        1.96607082       -1.78005546
 C           -0.62033676        0.83204725       -2.07830908
 C           -0.51194395        3.13916329       -1.39345415
 C            1.45291276        3.75359363       -0.02263758
 C            1.49158838        3.27347677        1.35408809
 C            0.07175446        3.96805606       -0.36115698
 C           -0.17889241        1.55569270        1.87466294
 C            0.14096365        2.90456178        1.70285861
 C           -0.69764798        3.70709117        0.84341755
 C           -1.84347235       -0.19891810        1.88957785
 C           -1.50672310        1.14453833        1.68206747
 C           -3.18012824       -0.59754173        1.77741378
 C           -2.42179345       -2.91446225        1.34484534
 C           -2.24394445       -3.30771763       -0.04721234
 C           -3.49288169       -1.95138852        1.37772772
 C           -2.23185817       -1.42613186       -1.61913677
 C           -2.95921178       -2.34122288       -0.84580017
 C           -4.01786202       -1.86556567        0.02436959
 C           -2.00313829        0.94470194       -2.22257970
 C           -2.83399036       -0.22724581       -1.99780776
 C           -1.91273971        3.06904251       -1.04390504
 C           -1.94497492        3.13385733        0.41046666
 C           -2.43309701        2.02467480        1.08284475
 C           -2.68968705        2.09475106       -1.64630771
 C           -4.09393511        0.23527522        1.02822474
 C           -4.50096630       -0.51731796       -0.15335051
 C           -4.03935490        0.21865146       -1.31268935
 C           -3.62177627        1.51930910        0.57634282
 C           -3.79507688        1.57078493       -0.86511154




