%chk=000024.chk
%mem=8GB
%Nproc=32
#p B3LYP/6-31G* opt pop=NPA

Template file

0 1
 C            5.00818150       -0.46097936        0.80027523
 C            5.16072807        0.73809873       -0.00398142
 C            4.82027833        0.39889935       -1.37496802
 C            4.45962033       -1.50309463       -0.05183455
 C            4.33701476       -0.97118005       -1.38901204
 C            3.26088364       -2.00561710        0.58989950
 C            4.02266306       -0.18262051        1.83220575
 C            3.05439279       -1.25670740        1.81386112
 C            4.18618849        1.70782346        0.46451691
 C            3.52808103        1.16389765        1.64324762
 C            3.71555738        1.25055895       -1.78287394
 C            3.35177391        2.09288741       -0.66243125
 C            3.02144705       -0.96594058       -1.99915458
 C            2.68247167        0.40131500       -2.34412598
 C            2.13011968       -2.28885657       -0.17206997
 C            2.00570553       -1.75268651       -1.46732581
 C            0.95438470       -2.55286566        0.53436202
 C            1.73751227       -0.96921011        2.15000389
 C            0.77065327       -1.88870220        1.75484153
 C            2.15978856        1.38135668        1.77429480
 C            1.34887727        0.36970655        2.30593726
 C            1.99855413        2.28875348       -0.42012114
 C            1.57386274        2.29212264        0.90445329
 C            1.35297256        0.78522275       -2.18283366
 C            1.07460215        1.90603376       -1.39765194
 C            0.71989534       -1.51840077       -1.95044653
 C            0.37043301       -0.20188256       -2.28140926
 C           -0.15384586       -2.94238883       -0.20903135
 C           -0.27010087       -2.39700083       -1.54405906
 C           -1.47676794       -2.93594993        0.38909395
 C           -0.50438917       -1.73109156        2.28044821
 C           -1.64549154       -2.35355279        1.63443554
 C           -0.00955969        0.65384078        2.51478100
 C           -0.89871200       -0.40260767        2.71065274
 C            0.26808023        2.67022960        1.15067287
 C           -0.50594737        1.88891648        2.09948792
 C           -0.26092618        2.24591582       -1.18915626
 C           -0.58859857        2.88418783        0.00456999
 C           -0.96988595        0.19617439       -2.22793025
 C           -1.25373658        1.51214701       -1.83897559
 C           -1.65726995       -2.05619715       -1.76404632
 C           -2.42305913       -2.63782730       -0.67325798
 C           -1.97648752       -0.77915768       -2.20767453
 C           -3.65180835       -2.07254369       -0.35984393
 C           -2.80275849       -1.50883089        1.87850604
 C           -2.31606033       -0.24077553        2.40909800
 C           -3.85430773       -1.50612926        0.96994381
 C           -1.90807268        2.02998516        1.72159237
 C           -1.95079820        2.81330818        0.49122077
 C           -2.79023937        0.96205136        1.88471886
 C           -2.57757549        1.91681236       -1.67722057
 C           -2.95639777        2.55423030       -0.42379848
 C           -3.31598813       -0.39836356       -2.17797065
 C           -4.22424552       -1.14329391       -1.31798537
 C           -3.64015370        1.00531765       -2.04636836
 C           -4.62119538       -0.28432986        0.81551853
 C           -4.00060635        0.97614982        1.18746064
 C           -4.14314748        1.88065746        0.05897434
 C           -5.03000453       -0.19331378       -0.57596119
 C           -4.69658562        1.13549761       -1.05555454




