%chk=001252.chk
%mem=8GB
%Nproc=32
#p B3LYP/6-31G* opt pop=NPA

Template file

0 1
 C           -4.24233756        1.15472553        0.11089410
 C           -4.35057286       -0.24397273        0.45083406
 C           -4.15199878       -0.98571782       -0.78344300
 C           -3.88321132        1.22544191       -1.30009067
 C           -3.43254770       -0.09875146       -1.67244003
 C           -2.96925871        2.33257609       -1.45312576
 C           -3.27247253        1.96086459        0.82012853
 C           -2.80506183        2.93755048       -0.14153515
 C           -2.33290175        1.35303473        1.65833404
 C           -3.40940039       -0.79303404        1.40634996
 C           -2.28278777       -0.04571490        1.76049973
 C           -3.52898818       -2.23253105       -0.41860644
 C           -3.24188727       -2.17065957        1.00992869
 C           -2.28189269       -2.59015152       -1.05881409
 C           -2.07028806       -0.32713248       -1.90948638
 C           -1.54301410       -1.61726301       -1.73928291
 C           -1.63802300        2.06608608       -1.95235391
 C           -1.20606184        0.75245417       -2.15549999
 C           -1.43079688        3.38587323       -0.03845270
 C           -0.75329369        2.98510987       -1.26213978
 C           -1.22553869        2.10409632        2.03584325
 C           -0.77136323        3.18313048        1.16326721
 C           -0.04903564        1.43094861        2.54912042
 C           -1.05953505       -0.69764816        2.02448617
 C            0.06635013        0.05281579        2.40195841
 C           -1.94852643       -2.78499219        1.19657392
 C           -1.60006494       -3.39786883       -0.07468508
 C           -0.95557732       -2.09277001        1.88328668
 C           -0.26992344       -3.69570164       -0.29754381
 C           -0.17179126       -1.83287381       -1.90499373
 C            0.40374411       -2.99637753       -1.37893356
 C            0.16933040        0.52954532       -2.24455493
 C            0.65340566       -0.77979470       -2.30011417
 C            0.59463674        2.66025801       -1.20242714
 C            1.04168378        1.59377733       -1.97781968
 C            0.67650254        3.13944969        1.14618750
 C            1.08826437        2.27990030        2.24123012
 C            1.33515409        3.03152048       -0.07662993
 C            2.35166439        1.71521826        2.19012561
 C            1.34017565       -0.52929635        2.41920194
 C            2.47593454        0.27089856        2.29010745
 C            0.30120621       -2.68767209        1.90294584
 C            0.62243094       -3.63086614        0.84383421
 C            1.47872582       -1.88068163        2.14065009
 C            1.82507059       -3.02415378       -1.07230246
 C            1.94676029       -3.31557247        0.34286503
 C            2.51787553       -2.30260395        1.20892105
 C            2.02386256       -1.00724548       -2.41982854
 C            2.63650746       -2.03775378       -1.60302296
 C            2.40944395        1.43800603       -2.15236394
 C            2.93768599        0.11970499       -2.42400768
 C            2.69978756        2.75485958       -0.05613867
 C            3.26223863        2.16258964        1.14689096
 C            3.29443529        2.07757757       -1.19692628
 C            3.52862186       -0.15464368        1.37942163
 C            3.34888951       -1.33305755        0.65455207
 C            3.58045770       -1.35778438       -0.72811688
 C            3.97491045       -0.15174783       -1.43756881
 C            4.08094743        1.03098672        0.74773901
 C            4.21144877        1.06703417       -0.69292858




