%chk=001746.chk
%mem=8GB
%Nproc=32
#p B3LYP/6-31G* opt pop=NPA

Template file

0 1
 C            3.52135444       -1.59763903        1.13995450
 C            3.64219659       -0.26810026        1.68685109
 C            3.94281963        0.64126641        0.59195285
 C            3.72095527       -1.51178583       -0.29929504
 C            3.88963592       -0.11385193       -0.64458019
 C            2.66406280       -2.27715996       -0.93870782
 C            2.29250990       -2.33003026        1.36824549
 C            1.91440619       -2.95119136        0.11045121
 C            1.29166439       -1.80295290        2.18229916
 C            2.52058785        0.28298636        2.42026713
 C            1.39880407       -0.49724193        2.69389551
 C            3.09382050        1.81038048        0.74176883
 C            2.32799689        1.65128229        1.96819676
 C            2.46740369        2.36192235       -0.37033522
 C            3.17966637        0.40520550       -1.71709086
 C            2.57241040        1.72596377       -1.61260000
 C            1.97406251       -1.74267802       -2.02434093
 C            2.26153988       -0.44740233       -2.46310989
 C            0.74974031       -2.31092050       -2.36749589
 C            0.57646774       -3.26556628       -0.11254586
 C            0.09540851       -3.19843122       -1.41852583
 C            0.05375178       -2.44038822        2.14870220
 C           -0.31315868       -3.20299586        0.96356546
 C           -1.13645735       -1.77101920        2.64095983
 C            0.26532278        0.16848302        3.15333783
 C           -1.03239150       -0.48053280        3.13351241
 C            1.05891104        2.22289745        2.05555665
 C            0.07763578        1.56877172        2.79960968
 C            1.42784610        3.25791876       -0.14549316
 C            0.67896101        3.16517655        1.10026062
 C            0.48839452        3.54570862       -1.21326959
 C            1.45960410        1.76199371       -2.55388941
 C            1.18096823        0.39534454       -2.95576863
 C            0.40297061        2.62806637       -2.33118822
 C           -0.28295705       -1.47278340       -2.95565035
 C           -0.12166607       -0.09332529       -2.92816992
 C           -1.33347730       -3.12742067       -1.66750451
 C           -1.56428179       -2.05130106       -2.62042767
 C           -1.74279842       -3.02428356        0.74245287
 C           -2.24923480       -2.13300324        1.77557036
 C           -2.23860686       -2.93522517       -0.55145082
 C           -3.22298551       -1.18884639        1.46360637
 C           -2.02752034        0.51778292        2.77468427
 C           -1.32876016        1.76237981        2.47879284
 C           -3.13692255        0.15217929        2.02334954
 C           -0.73024406        3.35868226        0.78942409
 C           -0.83435785        3.66267858       -0.62746285
 C           -1.68471612        2.52958785        1.37060218
 C           -0.95515919        2.10998468       -2.37705156
 C           -1.17035183        0.73469190       -2.49652311
 C           -1.75109393        2.88353630       -1.43699868
 C           -2.58810051       -1.18943844       -2.07651379
 C           -3.14148157       -1.85172548       -0.90427657
 C           -3.71411613       -1.07691323        0.09717516
 C           -2.38356356        0.18786530       -2.04823773
 C           -3.65182295        1.08061956        1.03671914
 C           -2.84214653        2.22440285        0.65233228
 C           -2.81538820        2.26530513       -0.80370171
 C           -3.95476312        0.32981539       -0.17156372
 C           -3.24335588        0.96127411       -1.27032677




