%chk=001417.chk
%mem=8GB
%Nproc=32
#p B3LYP/6-31G* opt pop=NPA

Template file

0 1
 C            4.31356337       -0.59199737        0.11751402
 C            4.03383786        0.25900584       -1.02100015
 C            3.76231602        1.58194895       -0.49987601
 C            3.86336570        0.11123980        1.31220837
 C            3.45129422        1.43800596        0.91237098
 C            2.90123060       -0.73292656        1.98187889
 C            3.72305295       -1.91188052        0.14333258
 C            3.03013340       -2.05901046        1.41336798
 C            2.76690400       -2.27048700       -0.88710410
 C            2.93486195       -0.08615813       -1.91052786
 C            2.25165472       -1.28513816       -1.73686007
 C            2.75855110        2.19029734       -1.35241229
 C            2.17153204        1.12447794       -2.15562296
 C            1.90283673        3.10625097       -0.76439557
 C            2.23898515        1.95348320        1.36435084
 C            1.75922790        3.06755909        0.68404648
 C            1.62326649       -0.24577997        2.22037146
 C            1.32707370        1.11406968        2.03399906
 C            0.58648744       -1.15915438        2.38763410
 C            1.81659431       -2.81798218        1.15215702
 C            1.84789661       -3.19449812       -0.25112745
 C            0.61000038       -2.37418522        1.69048986
 C            0.64370106       -3.44596849       -0.88214404
 C            0.92417428       -1.38146557       -2.15810243
 C            0.29238400       -2.61534589       -2.01812110
 C            0.78273085        1.04463590       -2.26959380
 C            0.16039788       -0.21223618       -2.33116549
 C            0.56496955        3.24068898       -1.29952696
 C            0.01789601        2.19301739       -2.03794951
 C            0.45084524        3.58733972        1.00643699
 C           -0.23364673        3.84402732       -0.24980452
 C            0.04202594        1.58542237        2.36446037
 C           -0.42436284        2.78186728        1.82512320
 C           -0.59411613       -0.71372915        2.95612177
 C           -0.90850482        0.69935614        2.87002782
 C           -1.81257941       -1.46166736        2.72098759
 C           -0.57917820       -2.89979765        1.17275735
 C           -0.55562237       -3.53189392       -0.06951317
 C           -1.80159300       -2.49005129        1.70084846
 C           -1.14093673       -2.71225438       -2.17826767
 C           -1.67166750       -3.34669282       -0.97876012
 C           -1.22474611       -0.28942197       -2.55200201
 C           -1.89354342       -1.50203282       -2.40037105
 C           -1.36478205        2.13299079       -2.17521972
 C           -1.98833087        0.87328001       -2.52548115
 C           -1.60956919        3.41426174       -0.10478738
 C           -1.74657209        2.81347526        1.21747899
 C           -2.21205661        2.79259684       -1.18588510
 C           -2.28965613        0.81784102        2.42094278
 C           -2.86657054       -0.51448221        2.39737471
 C           -2.59779664        1.72360103        1.40782413
 C           -2.92725015       -2.24137396        0.80887627
 C           -2.81939093       -2.57456904       -0.53638959
 C           -3.07189295       -1.56233828       -1.54878406
 C           -3.53032849       -0.97343899        1.19235968
 C           -3.29287768        0.83870040       -1.88340946
 C           -3.34484089        1.93056250       -0.92888563
 C           -3.49078418        1.35479308        0.39569622
 C           -3.69572020       -0.37399056       -1.19385349
 C           -3.86487460       -0.04284793        0.21590592




