%chk=001547.chk
%mem=8GB
%Nproc=32
#p B3LYP/6-31G* opt pop=NPA

Template file

0 1
 C            4.20334585        0.30478599        0.49200364
 C            4.13219243       -0.90569581       -0.30222555
 C            3.60863367       -1.94833597        0.55963281
 C            3.51562004        0.04782786        1.75247274
 C            3.00557864       -1.30196650        1.70996011
 C            2.58569295        1.13055209        1.96806165
 C            3.66161922        1.53625789       -0.05134000
 C            2.93588776        2.18016497        1.03012061
 C            3.11736993        1.54237726       -1.33333714
 C            3.34050514       -0.90910719       -1.52107516
 C            2.84702328        0.28656444       -2.02432221
 C            2.76243571       -2.80136704       -0.24634683
 C            2.46765391       -2.07069241       -1.47469881
 C            1.70762592       -3.43007326        0.39286437
 C            1.65716639       -1.54450219        1.96700199
 C            1.15521647       -2.78523094        1.58183806
 C            1.23856629        0.85439274        2.18773147
 C            0.76616611       -0.47114370        2.13751970
 C            0.33760064        1.91876049        2.11034241
 C            1.97123412        3.12797222        0.72799990
 C            0.72679927        3.09957715        1.47554130
 C            2.02030771        2.44742654       -1.63015888
 C            1.61731018        3.36318952       -0.66515561
 C            1.48020373        0.33475928       -2.51543135
 C            1.00947034        1.69725960       -2.36775175
 C            1.13934873       -1.97156348       -1.90440371
 C            0.61155239       -0.72095928       -2.24836469
 C            0.58454287       -3.82801607       -0.42587119
 C            0.27598814       -3.01414026       -1.58670843
 C           -0.27598814       -3.01414026        1.58670843
 C           -0.58454287       -3.82801607        0.42587119
 C           -0.61155239       -0.72095928        2.24836469
 C           -1.13934873       -1.97156348        1.90440371
 C           -1.00947034        1.69725960        2.36775175
 C           -1.48020373        0.33475928        2.51543135
 C           -2.02030771        2.44742654        1.63015888
 C           -0.24339199        3.83092605        0.68540672
 C            0.24339199        3.83092605       -0.68540672
 C           -1.61731018        3.36318952        0.66515561
 C           -0.33760064        1.91876049       -2.11034241
 C           -0.72679927        3.09957715       -1.47554130
 C           -1.97123412        3.12797222       -0.72799990
 C           -0.76616611       -0.47114370       -2.13751970
 C           -1.23856629        0.85439274       -2.18773147
 C           -1.15521647       -2.78523094       -1.58183806
 C           -1.70762592       -3.43007326       -0.39286437
 C           -1.65716639       -1.54450219       -1.96700199
 C           -2.46765391       -2.07069241        1.47469881
 C           -2.76243571       -2.80136704        0.24634683
 C           -2.84702328        0.28656444        2.02432221
 C           -3.11736993        1.54237726        1.33333714
 C           -3.34050514       -0.90910719        1.52107516
 C           -2.93588776        2.18016497       -1.03012061
 C           -2.58569295        1.13055209       -1.96806165
 C           -3.66161922        1.53625789        0.05134000
 C           -3.00557864       -1.30196650       -1.70996011
 C           -3.60863367       -1.94833597       -0.55963281
 C           -4.13219243       -0.90569581        0.30222555
 C           -3.51562004        0.04782786       -1.75247274
 C           -4.20334585        0.30478599       -0.49200364




