%chk=001621.chk
%mem=8GB
%Nproc=32
#p B3LYP/6-31G* opt pop=NPA

Template file

0 1
 C            3.04922641       -2.62812201        0.30650479
 C            3.03388144       -2.06818201        1.63710451
 C            3.82464798       -0.84814475        1.62300863
 C            3.83585007       -1.75069456       -0.54547622
 C            4.31060985       -0.64176304        0.26727629
 C            3.05928577       -1.47847158       -1.74597984
 C            1.78035751       -2.86302882       -0.35130599
 C            1.81242750       -2.21612733       -1.64554541
 C            0.59201637       -2.79072375        0.36823263
 C            1.75080306       -1.75910100        2.23637004
 C            0.57277179       -2.21459269        1.65078967
 C            3.04660593        0.19637726        2.27171165
 C            1.78387646       -0.38519763        2.69395573
 C            3.05928577        1.47847158        1.74597984
 C            4.31060985        0.64176304       -0.26727629
 C            3.83585007        1.75069456        0.54547622
 C            3.04660593       -0.19637726       -2.27171165
 C            3.82464798        0.84814475       -1.62300863
 C            1.78387646        0.38519763       -2.69395573
 C            0.62405091       -1.66174482       -2.11238823
 C            0.60496057       -0.35096926       -2.61047008
 C           -0.59201637       -2.79072375       -0.36823263
 C           -0.57277179       -2.21459269       -1.65078967
 C           -1.78035751       -2.86302882        0.35130599
 C           -0.62405091       -1.66174482        2.11238823
 C           -1.81242750       -2.21612733        1.64554541
 C            0.60496057        0.35096926        2.61047008
 C           -0.60496057       -0.35096926        2.61047008
 C            1.81242750        2.21612733        1.64554541
 C            0.62405091        1.66174482        2.11238823
 C            3.04922641        2.62812201       -0.30650479
 C            3.03388144        2.06818201       -1.63710451
 C            1.75080306        1.75910100       -2.23637004
 C            1.78035751        2.86302882        0.35130599
 C            0.57277179        2.21459269       -1.65078967
 C            0.59201637        2.79072375       -0.36823263
 C           -0.60496057        0.35096926       -2.61047008
 C           -0.62405091        1.66174482       -2.11238823
 C           -1.75080306       -1.75910100       -2.23637004
 C           -1.78387646       -0.38519763       -2.69395573
 C           -3.04922641       -2.62812201       -0.30650479
 C           -3.03388144       -2.06818201       -1.63710451
 C           -3.05928577       -1.47847158        1.74597984
 C           -3.83585007       -1.75069456        0.54547622
 C           -1.78387646        0.38519763        2.69395573
 C           -3.04660593       -0.19637726        2.27171165
 C           -0.57277179        2.21459269        1.65078967
 C           -0.59201637        2.79072375        0.36823263
 C           -1.75080306        1.75910100        2.23637004
 C           -1.81242750        2.21612733       -1.64554541
 C           -1.78035751        2.86302882       -0.35130599
 C           -3.04660593        0.19637726       -2.27171165
 C           -3.82464798       -0.84814475       -1.62300863
 C           -4.31060985       -0.64176304       -0.26727629
 C           -3.05928577        1.47847158       -1.74597984
 C           -3.82464798        0.84814475        1.62300863
 C           -3.03388144        2.06818201        1.63710451
 C           -3.04922641        2.62812201        0.30650479
 C           -4.31060985        0.64176304        0.26727629
 C           -3.83585007        1.75069456       -0.54547622




