%chk=001582.chk
%mem=8GB
%Nproc=32
#p B3LYP/6-31G* opt pop=NPA

Template file

0 1
 C            4.11563611       -0.01881984        0.73797131
 C            4.05031111        0.95770782       -0.33167705
 C            3.72409391        0.25257960       -1.56104754
 C            3.85444479       -1.32898163        0.16283504
 C            3.56087452       -1.15374842       -1.24589990
 C            2.88035278       -1.99989727        1.00395417
 C            3.25067183        0.14394664        1.89462956
 C            2.54454862       -1.10708413        2.10280260
 C            2.57201624        1.33801750        2.08268193
 C            3.13722128        2.08002848       -0.20329561
 C            2.54111899        2.34068317        1.02117135
 C            2.63219332        0.96012165       -2.20528942
 C            2.32639628        2.13829389       -1.40675446
 C            1.58264578        0.24383441       -2.77574681
 C            2.48879094       -1.84198574       -1.79506732
 C            1.56097555       -1.14818936       -2.67918488
 C            1.86200952       -2.75336689        0.42338626
 C            1.71010545       -2.75361844       -0.96495221
 C            0.77284027       -3.08815359        1.22283439
 C            1.23559019       -1.11191394        2.58286495
 C            0.51904996       -2.29057206        2.41254355
 C            1.25456322        1.30606753        2.69162517
 C            0.55072308        0.10328977        2.76069790
 C            1.22697125        2.95365949        1.04325601
 C            0.56960215        2.50948768        2.26241326
 C            1.00488670        2.57930392       -1.34170141
 C            0.48508530        3.06618306       -0.13432360
 C            0.40068642        0.92410013       -3.04873614
 C            0.14019282        2.17735420       -2.35820397
 C           -0.85594239        0.19633532       -3.13578811
 C            0.28816189       -1.85045134       -2.61051712
 C            0.37892162       -2.84287364       -1.54891183
 C           -0.90154684       -1.15316304       -2.78624434
 C           -0.51435347       -3.37871155        0.61177081
 C           -0.72335209       -3.06883134       -0.72995277
 C           -0.90229502       -2.30513088        2.66410523
 C           -1.53641268       -3.05502773        1.59183868
 C           -0.85094686        0.13610678        2.86193256
 C           -1.58814540       -1.04117575        2.79117540
 C           -0.81194886        2.55021685        2.32620776
 C           -1.53618442        1.33298085        2.65483501
 C           -0.87263404        3.36987727       -0.03278640
 C           -1.53018982        3.21485178        1.25380469
 C           -1.29676238        2.31232037       -2.19961586
 C           -1.91840736        1.10394993       -2.72029895
 C           -1.79861744        2.91351780       -1.05535290
 C           -3.05934613        0.59608210       -2.11382699
 C           -2.07169571       -1.69635361       -2.26263669
 C           -1.98158189       -2.64024476       -1.15885655
 C           -3.22177845       -0.84213549       -2.02572141
 C           -2.70773932       -2.31851710        1.16296754
 C           -2.76410024       -1.08268334        1.93502659
 C           -3.01177523       -2.28976107       -0.18777231
 C           -3.74697476       -1.15440641       -0.70649224
 C           -2.76346617        1.31280352        1.87151092
 C           -2.77730883        2.50214471        1.03849086
 C           -2.96663687        2.35107459       -0.39069834
 C           -3.52846639        1.17184956       -0.86263852
 C           -3.21023303        0.10183353        1.34513340
 C           -3.77283982        0.07519446        0.06552475




