%chk=000281.chk
%mem=8GB
%Nproc=32
#p B3LYP/6-31G* opt pop=NPA

Template file

0 1
 C            4.46348672        0.21739158        0.92860732
 C            4.56438414        0.03652293       -0.50976659
 C            3.89900365       -1.20687229       -0.84820312
 C            3.71446320       -0.90268916        1.46754020
 C            3.43380501       -1.82294335        0.38104639
 C            2.58789962       -0.37590244        2.22088098
 C            3.68164220        1.41466032        1.17152882
 C            2.58222514        1.06742346        2.05901387
 C            3.82331314        1.10924195       -1.14750808
 C            3.35273613        2.01014488       -0.11134545
 C            2.91289243       -0.92704572       -1.87970645
 C            2.83379417        0.51613296       -2.03378542
 C            1.72976440       -1.65348599       -1.85772687
 C            2.18675611       -2.43057181        0.35545601
 C            1.59306378       -2.64569563       -0.88576536
 C            1.37919439       -1.05828224        2.14742182
 C            1.34865210       -2.27027871        1.45793789
 C            0.18634930       -0.35231340        2.32479749
 C            1.36483801        1.70953116        1.86138230
 C            0.18189901        1.04660086        2.19895994
 C            2.08236373        2.54828789       -0.25531621
 C            1.31197634        2.71024180        0.89407679
 C            1.57997216        1.11890506       -2.10555214
 C            1.41201988        2.34376550       -1.46148710
 C            0.57727115       -1.06470254       -2.37833864
 C            0.45119747        0.32754251       -2.35042751
 C           -0.56395825       -1.85001639       -2.50697026
 C            0.48002660       -3.47457760       -0.93311861
 C           -0.56717041       -3.16437617       -1.88942684
 C            0.18668216       -3.02783635        1.50041409
 C           -0.15838607       -3.81405460        0.32662123
 C           -1.01723909       -1.06254333        2.36568802
 C           -1.03192827       -2.40907254        1.99193905
 C           -2.22296647       -0.37351114        2.44494006
 C           -1.02769338        1.74302596        2.09163352
 C           -2.23573039        1.06414035        2.25055871
 C            0.15108105        3.45840906        0.78287902
 C           -1.03593453        3.00072667        1.48444802
 C            0.22407277        3.03347536       -1.65755004
 C           -0.25896234        3.84324178       -0.55512366
 C           -0.81957971        0.91198715       -2.28251452
 C           -0.91552788        2.29609844       -2.17576691
 C           -1.86733163       -1.24930216       -2.28058552
 C           -1.94320207        0.11625462       -2.02405699
 C           -1.84954880       -3.35492518       -1.23365420
 C           -1.59607309       -3.74538369        0.13964634
 C           -2.14470359       -2.92781493        1.20517022
 C           -2.65693720       -2.17462696       -1.48194719
 C           -3.38599164       -0.91676499        1.76494768
 C           -3.20888690       -2.08347262        0.92258487
 C           -3.44805298       -1.66777022       -0.45930641
 C           -3.36606907        1.38923549        1.38226776
 C           -3.01234038        0.61821980       -1.26467948
 C           -3.94034129        0.13611694        0.93898773
 C           -3.73528352       -0.24631838       -0.44402314
 C           -2.18636628        3.38459073        0.68494267
 C           -1.70665720        3.84879140       -0.60318320
 C           -2.11333166        2.87035331       -1.59627580
 C           -3.19806927        2.38375614        0.43183839
 C           -3.06256260        1.97833447       -0.96504548




