%chk=000027.chk
%mem=8GB
%Nproc=32
#p B3LYP/6-31G* opt pop=NPA

Template file

0 1
 C            4.93858714        0.24775587        1.17247020
 C            5.20641123       -0.56634591        0.00000000
 C            4.93858714        0.24775587       -1.17247020
 C            4.37427034        1.50897031        0.72233915
 C            4.37427034        1.50897031       -0.72233915
 C            3.10576205        1.68980144        1.40240213
 C            3.91630134       -0.42552671        1.95352786
 C            2.88405825        0.54768231        2.26764585
 C            4.25761260       -1.66838473        0.00000000
 C            3.51084488       -1.62312833        1.24137340
 C            3.91630134       -0.42552671       -1.95352786
 C            3.51084488       -1.62312833       -1.24137340
 C            3.10576205        1.68980144       -1.40240213
 C            2.88405825        0.54768231       -2.26764585
 C            2.00663137        2.17467852        0.70320835
 C            2.00663137        2.17467852       -0.70320835
 C            0.77354550        2.10170907        1.34852834
 C            1.57446897        0.08896748        2.39123300
 C            0.52969846        0.99745496        2.17501028
 C            2.15070957       -1.90402818        1.20351022
 C            1.33655788       -1.26068444        2.12840785
 C            2.15070957       -1.90402818       -1.20351022
 C            1.57029427       -2.31834491        0.00000000
 C            1.57446897        0.08896748       -2.39123300
 C            1.33655788       -1.26068444       -2.12840785
 C            0.77354550        2.10170907       -1.34852834
 C            0.52969846        0.99745496       -2.17501028
 C           -0.29346617        2.72511194        0.72425165
 C           -0.29346617        2.72511194       -0.72425165
 C           -1.64331918        2.44108211        1.15996032
 C           -0.78491511        0.55788983        2.38686040
 C           -1.87082013        1.34818884        1.98923773
 C            0.04683143       -1.73446198        2.27184589
 C           -0.98888152       -0.79523754        2.64448079
 C            0.20465598       -2.63615946        0.00000000
 C           -0.49752237       -2.55407794        1.20232595
 C            0.04683143       -1.73446198       -2.27184589
 C           -0.49752237       -2.55407794       -1.20232595
 C           -0.78491511        0.55788983       -2.38686040
 C           -0.98888152       -0.79523754       -2.64448079
 C           -1.64331918        2.44108211       -1.15996032
 C           -2.49503582        2.64804486       -0.00000000
 C           -1.87082013        1.34818884       -1.98923773
 C           -3.76866710        2.10373178       -0.00000000
 C           -3.16811671        0.83278735        2.06883240
 C           -4.18953008        1.35708552        1.17237670
 C           -2.24435045       -1.41111798        2.27304004
 C           -1.94222053       -2.35525255        1.20335815
 C           -3.36282664       -0.60724562        2.15756389
 C           -1.94222053       -2.35525255       -1.20335815
 C           -2.24435045       -1.41111798       -2.27304004
 C           -2.64352399       -2.27917376        0.00000000
 C           -3.16811671        0.83278735       -2.06883240
 C           -4.18953008        1.35708552       -1.17237670
 C           -3.36282664       -0.60724562       -2.15756389
 C           -5.00889204        0.24358098        0.72619790
 C           -4.35848726       -0.97543664        1.17133652
 C           -3.92158513       -1.71646512        0.00000000
 C           -5.00889204        0.24358098       -0.72619790
 C           -4.35848726       -0.97543664       -1.17133652




