%chk=001077.chk
%mem=8GB
%Nproc=32
#p B3LYP/6-31G* opt pop=NPA

Template file

0 1
 C            1.88631825       -3.69573996       -0.57513698
 C            2.77699025       -2.97004766        0.30689551
 C            2.02274924       -2.55217297        1.47829459
 C            0.59894196       -3.78891834        0.08457258
 C            0.68391988       -3.10365066        1.36051432
 C           -0.40512834       -3.33239583       -0.85331143
 C            1.70747221       -2.88682351       -1.76987550
 C            0.29047513       -2.65520251       -1.93313492
 C            3.41714898       -1.93977468       -0.48492740
 C            2.58138726       -1.73923985       -1.66081081
 C            3.86201693       -0.81566178        0.18685972
 C            2.19318348       -1.24562714        1.93212154
 C            3.34989679       -0.57747438        1.52982175
 C            1.06840509       -0.50830034        2.33342024
 C           -0.40122744       -2.32931574        1.74558499
 C           -0.17123022       -1.14752070        2.45302751
 C           -1.53427510       -2.70960136       -0.34080106
 C           -1.59591852       -2.47397379        1.03510497
 C           -2.23996022       -1.85756671       -1.18462390
 C           -0.15922981       -1.39069208       -2.29301497
 C           -1.52189819       -1.13905335       -2.15273250
 C            2.07091356       -0.46551686       -1.91547165
 C            0.73807563       -0.30702949       -2.34320045
 C            3.78082707        0.46043749       -0.49036015
 C            2.79860032        0.64027956       -1.46705210
 C            3.48024153        0.84247313        1.78516288
 C            3.94942779        1.45606701        0.55246135
 C            1.10647160        0.89404638        2.35992981
 C            2.30837759        1.57309118        2.20868756
 C           -0.07496003        1.60720923        2.18299177
 C           -1.26934386       -0.39364525        2.86586222
 C           -1.25597886        1.03710746        2.61811874
 C           -2.75289114       -1.90980184        1.56164512
 C           -2.60767389       -0.87344639        2.56435005
 C           -3.50324873       -1.44127547       -0.77077633
 C           -3.80515213       -1.49164195        0.64819440
 C           -4.06961754       -0.21114526       -1.28294204
 C           -2.02121961        0.04179688       -2.68051686
 C           -3.30888101        0.55076902       -2.24718140
 C            0.25173407        0.97795376       -2.64272821
 C           -1.12536366        1.17399344       -2.78236268
 C            2.34950459        1.92151043       -1.76452140
 C            1.00517945        2.09362985       -2.27497220
 C            3.28129882        2.73232792        0.41337250
 C            2.29810728        2.83193666        1.48330931
 C            2.59687596        3.01220290       -0.83145567
 C           -0.12704591        2.59760621        1.20388257
 C            0.35798188        3.11845265       -1.46701033
 C            1.04494553        3.28477533        0.89629891
 C            1.31011679        3.58897372       -0.49063086
 C           -3.07704076        1.86580958       -1.67304206
 C           -1.73312775        2.25468359       -2.02151445
 C           -1.19387913        2.59852021        0.29107056
 C           -0.94572577        2.87371005       -1.06715538
 C           -2.48316577        1.37532247        1.92412567
 C           -3.40081343        0.26892933        2.13939594
 C           -4.24998154       -0.16534383        1.05115682
 C           -4.31450777        0.65556380       -0.14052324
 C           -2.40504923        1.99861373        0.67566341
 C           -3.41404957        1.78980674       -0.27011039




