%chk=000895.chk
%mem=8GB
%Nproc=32
#p B3LYP/6-31G* opt pop=NPA

Template file

0 1
 C            4.23456039       -0.53995736        1.03274880
 C            4.05436885       -0.99197636       -0.33569869
 C            3.08886318       -2.07637036       -0.32426561
 C            3.27643742       -1.24859266        1.86190197
 C            2.65542341       -2.27490924        1.05259799
 C            2.41254719       -0.27377337        2.49276972
 C            3.89688421        0.87024263        1.07793368
 C            2.78915067        1.04126321        2.00435308
 C            3.78567233        0.16929678       -1.16027729
 C            3.73473877        1.33519529       -0.28687596
 C            2.87036838        0.04476061       -2.19762894
 C            2.14039873       -2.16561441       -1.34329926
 C            2.10185537       -1.18723562       -2.33898209
 C            1.01015085       -2.94543604       -1.11444966
 C            1.31961950       -2.58402762        1.28209157
 C            0.63338270       -3.23106008        0.25991977
 C            1.06131706       -0.56852451        2.60513974
 C            0.59564728       -1.83133861        2.21464390
 C            0.16066218        0.48880976        2.72366032
 C            1.78033760        1.94729776        1.68514681
 C            0.49685129        1.74160576        2.19956784
 C            2.79903193        2.33287643       -0.52623959
 C            1.94142441        2.76652313        0.56607673
 C            1.99415153        1.15778253       -2.52980556
 C            1.97526360        2.28539889       -1.72521968
 C            0.83653739       -0.84159188       -2.96988275
 C            0.74026671        0.60957906       -3.01437040
 C           -0.21235273       -2.70045664       -1.86469975
 C           -0.30795273       -1.58139402       -2.69235436
 C           -0.81330906       -3.35230361        0.31820881
 C           -1.33264409       -3.08989896       -1.01545343
 C           -0.73667695       -2.16026447        2.45529883
 C           -1.48737167       -2.87158112        1.43322691
 C           -1.15272353        0.21545626        3.08933552
 C           -1.61555933       -1.15818214        3.03102123
 C           -2.22361535        1.05629895        2.58873128
 C           -0.50792753        2.66490569        1.90387391
 C           -1.90734758        2.29337279        2.05047885
 C            0.77859176        3.39173054       -0.03550331
 C            0.70186333        2.91122670       -1.40927299
 C           -0.38727045        3.48245613        0.70767291
 C           -0.47224193        1.21572238       -2.68888979
 C           -0.49263850        2.36031134       -1.87934643
 C           -1.54686457       -0.98005878       -2.90405209
 C           -1.63736292        0.47261727       -2.87920081
 C           -2.56221390       -2.46367862       -1.16865162
 C           -2.72830491       -1.51217421       -2.24950497
 C           -2.77162750       -2.20574238        1.27219490
 C           -2.86667480       -1.17495072        2.28854431
 C           -3.15929050        0.18978799        1.88471451
 C           -3.25670987       -1.93827463       -0.00218295
 C           -2.86309843        0.83420976       -2.18623408
 C           -3.50539906       -0.39115325       -1.74792866
 C           -3.49194110        0.45882712        0.55610454
 C           -3.72311291       -0.59680306       -0.32673726
 C           -2.60809933        2.73199529        0.85835859
 C           -1.65379391        3.41859808        0.00398522
 C           -1.68970898        2.78534415       -1.30312223
 C           -3.29895657        1.74390467        0.04812214
 C           -2.85357732        1.91992782       -1.32829417




