%chk=000493.chk
%mem=8GB
%Nproc=32
#p B3LYP/6-31G* opt pop=NPA

Template file

0 1
 C            4.24257304        1.77121527       -0.42893277
 C            4.32657172        0.52513460       -1.16931834
 C            4.61973318       -0.51579296       -0.20952721
 C            4.06081103        1.43064025        0.97254687
 C            4.34744085        0.02287087        1.11824612
 C            2.75558747        1.91600956        1.37564438
 C            3.04478327        2.46344264       -0.86841524
 C            2.22944630        2.72685643        0.29540395
 C            3.12804757        0.41376443       -1.98878461
 C            2.44341565        1.69488218       -1.93456239
 C            2.36227738       -0.75856701       -1.97353262
 C            3.90505241       -1.76852350       -0.32228816
 C            2.81251023       -1.88083330       -1.27690479
 C            3.34812458       -0.82868152        1.73454931
 C            3.35014352       -2.06449237        0.98748631
 C            1.86516146        1.07837936        2.04732791
 C            2.11400698       -0.30404584        2.12154237
 C            0.54968434        1.52987019        2.18073058
 C            0.85172087        2.73717418        0.13531587
 C            0.07706460        2.47117567        1.25688718
 C            1.06077868        1.68799080       -2.02620331
 C            0.30783471        2.44425670       -1.12130145
 C            1.01051665       -0.68251868       -2.32922096
 C            0.46459860        0.57815556       -2.59840292
 C            0.16225356       -1.77132249       -2.07035445
 C            1.83568934       -2.75682112       -0.66279218
 C            2.07797851       -2.71856449        0.77287072
 C            0.51618977       -2.70791709       -1.09602803
 C            1.04022525       -1.18616537        2.30627841
 C            1.00520612       -2.39813291        1.59735376
 C           -0.34942608        0.73237274        2.88076521
 C           -0.11873749       -0.69815515        2.90552996
 C           -1.77891082        0.96100045        2.75700871
 C           -1.27985744        2.74826595        1.16566329
 C           -2.22454226        2.04210749        2.00976319
 C           -1.08750490        2.44951202       -1.25645026
 C           -1.85851081        2.84594825       -0.16228855
 C           -0.86525452        0.69461234       -2.96377592
 C           -1.67242546        1.69025245       -2.27714800
 C           -1.16136276       -1.72609076       -2.50682861
 C           -1.65576130       -0.50665779       -3.11124675
 C           -2.21331566       -2.24973344       -1.64803944
 C           -0.45686838       -3.14288442       -0.19862186
 C           -0.22254440       -2.93094831        1.21926661
 C           -1.86036298       -2.88690782       -0.46703677
 C           -1.39409469       -1.35825724        2.67735566
 C           -2.42939643       -0.33774002        2.63200977
 C           -1.45110667       -2.43636036        1.80824415
 C           -2.48760649       -2.49542444        0.78703892
 C           -3.52273844       -0.49842906        1.78431213
 C           -3.51304627       -1.55677047        0.78611092
 C           -3.48059841        1.95225945        1.28485698
 C           -3.25035495        2.44232620       -0.06623958
 C           -4.14851461        0.66875294        1.18795236
 C           -3.01389887        1.13944713       -2.12110437
 C           -2.98298198       -0.23869198       -2.58380179
 C           -3.32125912       -1.30600117       -1.65834796
 C           -3.97750850       -0.99162144       -0.47222491
 C           -3.76468858        1.45778322       -0.99718558
 C           -4.37224834        0.38659323       -0.22115184




