%chk=000973.chk
%mem=8GB
%Nproc=32
#p B3LYP/6-31G* opt pop=NPA

Template file

0 1
 C           -3.67911812        2.31908089        0.18974768
 C           -3.45638091        1.85941574       -1.16880215
 C           -3.52788592        0.40724546       -1.16740747
 C           -3.85550920        1.14510960        1.02380087
 C           -4.00191789       -0.00078823        0.14668179
 C           -2.78659671        1.11788250        2.00941384
 C           -2.46996959        2.99112515        0.62548879
 C           -1.95844143        2.29243644        1.79116768
 C           -2.24363967        2.48895545       -1.65529292
 C           -1.59195838        3.13092857       -0.52288180
 C           -1.45972765        1.78100180       -2.54855415
 C           -2.51025938       -0.31698848       -1.79644646
 C           -1.68011927        0.34666173       -2.69572238
 C           -2.13718011       -1.57133332       -1.29596323
 C           -3.59966928       -1.23042906        0.63331079
 C           -2.89768512       -2.12386864       -0.26180274
 C           -2.17956224       -0.10769228        2.28863782
 C           -2.84624784       -1.26206455        1.87790797
 C           -0.79708157       -0.14670743        2.53469985
 C           -0.58516782        2.16410596        1.92043081
 C           -0.08665868        1.05641722        2.60161325
 C           -0.22476077        2.94384702       -0.32203828
 C            0.23249586        2.80458416        0.98694036
 C           -0.02522178        1.98448523       -2.52505151
 C            0.57818284        2.48460348       -1.37248137
 C           -0.41423167       -0.24725694       -3.07553629
 C            0.55638894        0.83563815       -3.18531366
 C           -0.89698937       -2.13810585       -1.64933660
 C           -0.03048070       -1.46166566       -2.51639549
 C           -0.41510886       -3.26654234       -0.97837983
 C           -2.33000913       -3.14291614        0.59603619
 C           -2.15935695       -2.53540713        1.90905657
 C           -1.07074719       -3.73645244        0.22246139
 C           -0.08263178       -1.34864894        2.41567087
 C           -0.74626968       -2.55016165        2.20813990
 C           -0.13928838       -3.51988177        1.31991151
 C            1.29435409       -1.30640677        2.20756635
 C            1.27462838        1.02694026        2.89382608
 C            1.99566290       -0.21963263        2.70683663
 C            1.59909516        2.82862677        1.21583197
 C            2.10289012        2.09249453        2.35952287
 C            1.93106119        2.21264239       -1.13395240
 C            2.48634001        2.56824415        0.09558600
 C            1.89776086        0.56337285       -2.97916055
 C            2.61776316        1.31200793       -1.95886733
 C            1.31455785       -1.83230238       -2.57517653
 C            2.31331782       -0.82303118       -2.88709692
 C            1.00457649       -3.36294626       -0.70631104
 C            1.15120540       -3.20286238        0.72993082
 C            1.86722809       -2.10625152        1.20792026
 C            1.87338209       -2.67614060       -1.53266450
 C            3.62626461        0.42471777       -1.38877716
 C            3.36072153       -0.91224482       -1.88318467
 C            2.91235326       -1.60246068        0.42339089
 C            2.96764570       -1.93343937       -0.93036731
 C            3.29521565        0.08946829        2.14576972
 C            3.39161230        1.53083139        2.00343164
 C            3.62392935        1.81821464        0.59974257
 C            3.64959247       -0.50894269        0.87531229
 C            3.96764690        0.57248661       -0.05282129




