%chk=001065.chk
%mem=8GB
%Nproc=32
#p B3LYP/6-31G* opt pop=NPA

Template file

0 1
 C            2.22592396       -3.64548203       -0.29089196
 C            3.01048814       -2.63151613       -0.96336369
 C            2.16960340       -1.98731354       -1.95975763
 C            0.91681834       -3.67124911       -0.91486622
 C            0.85918134       -2.61739097       -1.90115049
 C           -0.05777915       -3.63677384        0.14559131
 C            2.04549855       -3.20677825        1.08445071
 C            0.63050290       -3.21670027        1.35778150
 C            3.59348639       -1.79438054        0.06508168
 C            2.76140247       -1.96216122        1.24673761
 C            3.93395014       -0.50554683       -0.29692260
 C            2.26302178       -0.60052667       -2.08802223
 C            3.39386354        0.01114767       -1.54610790
 C            1.09052624        0.14933145       -2.27598279
 C           -0.26897313       -1.81068707       -1.93395507
 C           -0.13323182       -0.51608445       -2.42221684
 C           -1.28813487       -3.04770259       -0.09916895
 C           -1.40657824       -2.15426537       -1.18131430
 C           -2.03227484       -2.79029291        1.03893481
 C            0.06547335       -2.17439536        2.08824456
 C           -1.32729532       -2.18720143        2.15809174
 C            2.09737991       -0.84829936        1.76785258
 C            0.74275521       -0.93987896        2.15196957
 C            3.72456399        0.54982266        0.67044290
 C            2.69487396        0.40535930        1.60512681
 C            3.45261243        1.45435750       -1.45597859
 C            3.84386071        1.77919514       -0.09151917
 C            1.09240583        1.54325367       -2.10234496
 C            2.25960986        2.21201317       -1.75177875
 C           -0.11918486        2.19913871       -1.90056354
 C           -1.28212427        0.21491245       -2.69020023
 C           -1.25781752        1.65037583       -2.47437382
 C           -2.56024169       -1.36023378       -1.30244592
 C           -2.55335111       -0.28706752       -2.19806624
 C           -3.30441678       -2.13000156        0.90041135
 C           -3.58267446       -1.46383017       -0.35099244
 C           -2.03991853       -0.97096600        2.48094758
 C           -3.38055296       -1.12494229        1.94799252
 C            0.02291614        0.22998365        2.45158553
 C           -1.36838301        0.23482416        2.34228688
 C            2.07739926        1.53213979        2.13867619
 C            0.67828157        1.45499998        2.50772432
 C            3.08128018        2.93591242        0.32316176
 C            2.17002882        3.26868738       -0.76203966
 C            2.29889768        2.83983136        1.53822154
 C           -0.26446957        3.01605021       -0.77429871
 C            0.00411208        2.61640596        1.95105596
 C            0.87108644        3.55275263       -0.17887449
 C            0.99753747        3.41671558        1.25916403
 C           -2.00974176        1.35861260        1.79702042
 C           -1.39709079        2.85273031        0.02057763
 C           -1.22689363        2.41447154        1.33882061
 C           -2.55582317        2.04219124       -1.95432951
 C           -3.40846150        0.86743011       -1.96789945
 C           -2.60703586        2.61162026       -0.62157674
 C           -4.37251847       -0.29684817        0.00344717
 C           -4.04123538        0.02863328        1.38252069
 C           -3.33074842        1.28899776        1.35841368
 C           -4.22654750        0.91433441       -0.77480582
 C           -3.66584349        1.93228420        0.10347507




