%chk=000396.chk
%mem=8GB
%Nproc=32
#p B3LYP/6-31G* opt pop=NPA

Template file

0 1
 C            4.26215937        1.80237803        0.37061949
 C            4.62777997        0.48666041       -0.12064154
 C            4.17128745        0.38453889       -1.49261356
 C            3.42535640        2.43694310       -0.63634416
 C            3.41572769        1.59059044       -1.80372888
 C            2.15560895        2.75825222       -0.01694388
 C            3.45343459        1.61877395        1.56349273
 C            2.21965383        2.33544725        1.36801572
 C            4.15716327       -0.49486113        0.83927239
 C            3.36810560        0.20492385        1.84745100
 C            3.70190068       -1.72156249        0.37417489
 C            3.36024765       -0.76032881       -1.87460530
 C            3.24193230       -1.83977171       -1.00831305
 C            2.13318754        1.18290518       -2.34081383
 C            2.16908897       -0.25295550       -2.53028686
 C            0.95661810        2.53332586       -0.70002593
 C            0.94761032        1.74834163       -1.86355987
 C           -0.21801163        2.59934612        0.05501717
 C            1.05475074        1.82216555        1.90747948
 C           -0.12151512        2.37145261        1.43393171
 C            2.14210507       -0.33155599        2.25099583
 C            1.01116701        0.49439161        2.36244816
 C            2.76595138       -2.45310364        1.20429486
 C            1.96815921       -1.70768140        2.16225794
 C            2.00181539       -2.59767089       -0.99979884
 C            1.84900676       -3.15446290        0.32391278
 C            0.96499181       -0.93524073       -2.42111747
 C            0.86914061       -2.08715933       -1.62995265
 C           -0.24703849        1.12100366       -2.22785847
 C           -0.19431686       -0.21111989       -2.66270375
 C           -1.44246636        2.40217570       -0.58594056
 C           -1.45551212        1.64602852       -1.76322828
 C           -2.61237674        2.59887446        0.15051185
 C           -1.26278360        2.09675436        2.16038887
 C           -2.54690685        2.42734918        1.58517867
 C           -0.24647473       -0.07369048        2.64491481
 C           -1.35039309        0.78140047        2.76485855
 C            0.62807014       -2.25327451        2.11476175
 C            0.53697619       -3.09723628        0.92996477
 C           -0.45777040       -1.44260851        2.42582305
 C           -0.39974762       -2.51761303       -1.20978489
 C           -0.58009963       -2.95101502        0.11437979
 C           -1.36832700       -0.93449104       -2.78921029
 C           -1.50684819       -2.11814531       -1.96261906
 C           -2.64770426        1.12109026       -2.26491253
 C           -2.63048194       -0.22702525       -2.78955856
 C           -3.86130031        2.00486301       -0.28099593
 C           -3.88132151        1.25828252       -1.51684608
 C           -3.47422105        1.36976162        1.94388229
 C           -2.69464792        0.28366905        2.51420765
 C           -4.30841328        1.11626430        0.78297475
 C           -1.70715484       -1.88717194        1.99439165
 C           -1.77387478       -2.66572620        0.76904418
 C           -2.85655121       -1.00542902        2.03240132
 C           -2.82494950       -2.06547442       -1.35175122
 C           -3.57553020       -1.01197274       -2.01341275
 C           -4.35641339       -0.08446829       -1.21543292
 C           -4.36859202       -0.22438517        0.22982752
 C           -2.93775331       -2.23559848        0.01974641
 C           -3.64949900       -1.25515371        0.83237908




