%chk=000599.chk
%mem=8GB
%Nproc=32
#p B3LYP/6-31G* opt pop=NPA

Template file

0 1
 C            3.93622225        2.14094151        0.43209910
 C            3.57452869        2.09039267       -0.97585488
 C            3.91098073        0.77589076       -1.46259753
 C            4.22022582        0.78307818        0.86196775
 C            4.32165467       -0.03385819       -0.32193307
 C            3.23834931        0.41867096        1.86455933
 C            2.77322982        2.60223821        1.16860305
 C            2.40447835        1.58496989        2.12501804
 C            2.20086078        2.54045498       -1.09899533
 C            1.77517623        3.00074792        0.20963723
 C            1.28092470        1.82139006       -1.87407549
 C            2.89790627        0.03063231       -2.18057842
 C            1.66518943        0.60945767       -2.47602198
 C            3.56201365       -1.26639995       -0.37032826
 C            2.92141689       -1.32932251       -1.67199025
 C            2.63127201       -0.83808512        1.83336071
 C            2.84484035       -1.70331825        0.74318271
 C            1.50941414       -1.00530430        2.64342078
 C            1.05266675        1.38146970        2.39677275
 C            0.70065509        0.16256869        2.95656840
 C            0.44446768        2.81401182        0.52840826
 C            0.08315462        2.10124798        1.68126463
 C           -0.08315462        2.10124798       -1.68126463
 C           -0.44446768        2.81401182       -0.52840826
 C           -1.05266675        1.38146970       -2.39677275
 C            0.68838239       -0.24271172       -2.97241436
 C           -0.70065509        0.16256869       -2.95656840
 C            1.78439998       -2.12065300       -1.81268706
 C            0.74990699       -1.65808884       -2.63143647
 C            1.99434539       -2.78906468        0.54070292
 C            1.51059652       -3.04848171       -0.80839831
 C            0.61706904       -2.13236558        2.44961993
 C            0.90344468       -3.05524990        1.46075302
 C           -0.68838239       -0.24271172        2.97241436
 C           -0.74990699       -1.65808884        2.63143647
 C           -1.28092470        1.82139006        1.87407549
 C           -1.66518943        0.60945767        2.47602198
 C           -1.77517623        3.00074792       -0.20963723
 C           -2.20086078        2.54045498        1.09899533
 C           -2.40447835        1.58496989       -2.12501804
 C           -2.77322982        2.60223821       -1.16860305
 C           -3.23834931        0.41867096       -1.86455933
 C           -1.50941414       -1.00530430       -2.64342078
 C           -0.61706904       -2.13236558       -2.44961993
 C           -2.63127201       -0.83808512       -1.83336071
 C            0.18789879       -3.63525958       -0.70240066
 C           -0.18789879       -3.63525958        0.70240066
 C           -0.90344468       -3.05524990       -1.46075302
 C           -1.78439998       -2.12065300        1.81268706
 C           -2.84484035       -1.70331825       -0.74318271
 C           -1.51059652       -3.04848171        0.80839831
 C           -1.99434539       -2.78906468       -0.54070292
 C           -2.89790627        0.03063231        2.18057842
 C           -2.92141689       -1.32932251        1.67199025
 C           -3.56201365       -1.26639995        0.37032826
 C           -3.57452869        2.09039267        0.97585488
 C           -3.93622225        2.14094151       -0.43209910
 C           -4.22022582        0.78307818       -0.86196775
 C           -3.91098073        0.77589076        1.46259753
 C           -4.32165467       -0.03385819        0.32193307




