%chk=001600.chk
%mem=8GB
%Nproc=16
#p B3LYP/6-31G* opt pop=NPA

Template file

0 1
 C                  3.86020075   -1.63449313    0.34845202
 C                  3.82006246   -0.80106176    1.53487478
 C                  2.73316101   -1.27672253    2.37700445
 C                  2.82511805   -2.64674526    0.47981067
 C                  2.06776941   -2.36303175    1.68095967
 C                  2.10600553   -2.72350411   -0.77697303
 C                  3.71376621   -1.01162950   -0.95488154
 C                  2.65289234   -1.71078564   -1.67008719
 C                  3.82690628    0.36796972   -1.07097333
 C                  3.66708207    0.63553745    1.38365805
 C                  3.76113146    1.21084534    0.11866798
 C                  1.94119971   -0.12757727    2.78101869
 C                  2.61655892    1.06251089    2.29474561
 C                  0.55229684   -0.20853826    2.69771314
 C                  0.68175157   -2.34242923    1.59341547
 C                  0.01431188   -1.49604311    2.66497845
 C                  0.72897049   -2.91584294   -0.75424237
 C                  0.06067203   -2.90716943    0.47530610
 C                  0.02357166   -2.60613416   -1.91135072
 C                  1.78881318   -1.01483079   -2.52184035
 C                  0.52508159   -1.54609579   -2.77019007
 C                  3.09861203    1.03691976   -2.12967082
 C                  2.00005130    0.34108574   -2.77511075
 C                  2.95746471    2.37984642   -0.20448792
 C                  2.58344441    2.29046726   -1.60356584
 C                  1.85678943    2.18243321    1.99354507
 C                  2.02045079    2.84806469    0.70755910
 C                 -0.20549266    0.96174565    2.57836720
 C                  0.43470393    2.16941021    2.29609280
 C                 -1.59410937    0.87750781    2.42103169
 C                 -1.40485024   -1.56896847    2.47854169
 C                 -2.21978532   -0.36747243    2.49725207
 C                 -1.32075526   -3.08242897    0.50222328
 C                 -2.06203533   -2.54409200    1.62850966
 C                 -1.42648707   -2.50644281   -1.87516374
 C                 -2.09539100   -2.82474884   -0.70132872
 C                 -0.58301096   -0.64102773   -3.02345082
 C                 -1.80668326   -1.32025303   -2.62870450
 C                  0.85954397    1.24698184   -2.80343856
 C                  1.17831854    2.38512056   -1.96608645
 C                 -0.42267577    0.71588219   -2.75340705
 C                  0.69209218    3.21736254    0.23980027
 C                 -0.19590463    3.10432790    1.38417893
 C                  0.24975993    2.79231715   -1.01610581
 C                 -2.28747074    1.96560240    1.88832674
 C                 -1.55338593    2.98009620    1.15452084
 C                 -3.51958878    1.74212199    1.14997226
 C                 -3.42597012   -0.63381908    1.72125640
 C                 -3.28840344   -1.95164450    1.12496620
 C                 -3.28700312   -2.07977331   -0.32262357
 C                 -4.00232386    0.38625095    0.97571663
 C                 -2.89281036   -0.55954852   -2.22006582
 C                 -3.70807285   -1.00514155   -1.09954032
 C                 -4.23927361    0.18274235   -0.44602212
 C                 -1.43022259    1.40434498   -2.07033701
 C                 -1.09211947    2.44266007   -1.18385008
 C                 -2.00235412    2.87685435   -0.21871998
 C                 -3.34344657    2.32996073   -0.17143479
 C                 -2.72279428    0.87634316   -2.09145987
 C                 -3.72373077    1.34405639   -1.15412325

