%chk=000699.chk
%mem=8GB
%Nproc=32
#p B3LYP/6-31G* opt pop=NPA

Template file

0 1
 C            3.90360336        2.12874245        0.11031297
 C            3.94543365        1.18207510       -0.98974264
 C            4.21888761       -0.11236274       -0.41869027
 C            3.72856155        1.36364040        1.33407032
 C            4.06916043       -0.00146946        1.03009926
 C            2.40228336        1.64719892        1.84740340
 C            2.71771199        2.94249607       -0.06404047
 C            1.90937686        2.80872691        1.12987266
 C            2.73279305        1.35202342       -1.76775999
 C            2.09820441        2.58033019       -1.32401078
 C            1.92088979        0.25437921       -2.05550748
 C            3.40468127       -1.23703271       -0.83109410
 C            2.29894459       -1.04483270       -1.66494468
 C            3.15388395       -1.04959161        1.43157750
 C            3.22209356       -2.02678638        0.36636419
 C            1.50759071        0.60636979        2.12676010
 C            1.89565557       -0.73448740        1.96126479
 C            0.14988466        0.92544469        2.23849677
 C            0.53991330        2.92557888        0.97866207
 C           -0.26821008        2.20651050        1.84698201
 C            0.71320291        2.66141015       -1.39253016
 C            0.04041308        3.19926874       -0.29392425
 C            0.60752468        0.50295850       -2.45912545
 C            0.03238520        1.75444269       -2.20487555
 C           -0.19164901       -0.56186834       -2.85811060
 C            1.37350675       -2.09295528       -1.75718357
 C            0.18250196       -1.90387769       -2.45584162
 C            2.25273254       -3.00355891        0.34181181
 C            1.49559910       -3.17712785       -0.88411921
 C            0.92494887       -1.74435391        1.96487962
 C            1.25854941       -2.97865244        1.39213307
 C           -0.78593954       -0.09552615        2.43672825
 C           -0.41523910       -1.42569116        2.22436689
 C           -2.14492734        0.21282956        2.52883506
 C           -1.61113388        2.55652327        1.89269479
 C           -2.58683832        1.57387107        2.30141800
 C           -1.31999105        3.46201289       -0.41494603
 C           -2.16162439        3.28123843        0.75843083
 C           -1.33744826        1.93702940       -2.39041513
 C           -2.02827005        2.90612022       -1.55446548
 C           -1.63870076       -0.45737307       -2.75960753
 C           -2.20620887        0.77905489       -2.51341731
 C           -1.03476403       -2.59005843       -2.03556822
 C           -2.10430129       -1.60484840       -2.00190672
 C            0.31665188       -3.94152129       -0.51018652
 C            0.22119660       -3.88365054        0.94308002
 C           -0.97397451       -3.56723420       -1.05339309
 C           -1.42282228       -2.37749088        2.02866353
 C           -1.14507880       -3.58923189        1.28786933
 C           -1.91236575       -3.51457467        0.05237544
 C           -3.10427210       -0.64381894        1.85586373
 C           -2.84536723       -1.40995079       -0.83300841
 C           -2.71823905       -1.93386658        1.55806050
 C           -2.80460130       -2.37246173        0.17624139
 C           -3.62395558        1.52874603        1.27860439
 C           -3.37809550        2.60390868        0.34151356
 C           -3.24703024        2.28110373       -1.06416753
 C           -3.21615789        0.88696233       -1.47588100
 C           -3.67430085        0.16103914        0.79390736
 C           -3.33725957       -0.13578015       -0.53087980




