%chk=000911.chk
%mem=8GB
%Nproc=32
#p B3LYP/6-31G* opt pop=NPA

Template file

0 1
 C           -3.36652996       -1.96692050       -1.68391640
 C           -3.93519033       -1.24230623       -0.56344251
 C           -3.30566774       -1.72174734        0.65500027
 C           -2.35886397       -2.86978956       -1.15997510
 C           -2.35011977       -2.75792069        0.28377485
 C           -1.12144843       -2.60898457       -1.86158409
 C           -2.69111782       -1.00087373       -2.53295518
 C           -1.30632336       -1.41241291       -2.66355810
 C           -3.85435918        0.17210446       -0.86621547
 C           -2.96635249        0.32323310       -2.01001273
 C           -3.71819858        1.05325449        0.19384929
 C           -2.96225436       -0.79846972        1.64244654
 C           -3.39082922        0.52501105        1.51310163
 C           -1.91961385       -1.10755354        2.51773076
 C           -1.12540197       -2.81130291        0.94091520
 C           -1.02199687       -2.20432933        2.18976512
 C            0.06871170       -2.72932315       -1.16235326
 C            0.03853805       -3.05089197        0.20108158
 C            1.18021644       -2.06433320       -1.66717560
 C           -0.31125164       -0.43858440       -2.62686261
 C            0.99245877       -0.82554426       -2.29576972
 C           -1.92041233        1.24008746       -1.93910362
 C           -0.67801180        0.90229620       -2.49585998
 C           -2.92108843        2.25101578        0.00709306
 C           -2.02282055        2.32157508       -1.05517429
 C           -2.70328063        1.57824441        2.24193478
 C           -2.47696723        2.67904699        1.32132195
 C           -1.11288195       -0.04811360        3.11489088
 C           -1.44360494        1.27606404        2.89130080
 C            0.28898358       -1.87078467        2.72394790
 C            0.27681560       -0.44971073        3.01630587
 C            1.24950319       -3.15289871        0.88473619
 C            1.41385126       -2.40758256        2.12259543
 C            2.42758222       -2.43530689       -1.18770034
 C            2.49147405       -3.01873239        0.13674204
 C            3.54027092       -1.52174622       -1.31571352
 C            2.02456684        0.12412551       -2.33472867
 C            3.29353953       -0.20124605       -1.85503282
 C            0.30903695        1.87188357       -2.60071071
 C            1.70135200        1.47648675       -2.46585163
 C           -0.97675876        3.23592695       -0.96705905
 C            0.13517319        3.12077729       -1.88921219
 C           -1.10221049        3.11895825        1.47425741
 C           -0.43259538        2.17437572        2.35479850
 C           -0.42867470        3.55774948        0.34569711
 C            1.20049410        0.38319557        2.38434190
 C            0.82621876        1.67958630        2.00003674
 C            2.57421483       -1.55313923        1.94513259
 C            3.38735572       -2.19056489        0.92558086
 C            4.13495690       -1.35954708        0.00557091
 C            2.40620600       -0.16440141        1.93796110
 C            3.96276660        0.74282880       -0.97969733
 C            4.21271454        0.06132221        0.27493707
 C            3.31633438        0.64393246        1.26103110
 C            2.36221586        2.44968921       -1.60222723
 C            1.35171146        3.37547710       -1.13876696
 C            1.00406286        3.35081001        0.26822310
 C            1.60997151        2.39983041        1.09005671
 C            3.27731684        1.98041734       -0.67325094
 C            2.86621206        1.91575647        0.72775079




