%chk=001141.chk
%mem=8GB
%Nproc=32
#p B3LYP/6-31G* opt pop=NPA

Template file

0 1
 C           -4.41260227        0.11965582        0.28672088
 C           -4.10145517        1.01530835       -0.81109261
 C           -3.50727280        0.22060198       -1.87813476
 C           -4.13350182       -1.23352798       -0.16373846
 C           -3.36027849       -1.13726233       -1.38988484
 C           -3.56597164       -1.95662314        0.95354119
 C           -3.74640474        0.30303842        1.56606000
 C           -3.31980414       -1.00479993        2.02716890
 C           -2.90173017        1.39070005        1.75624383
 C           -3.22583922        2.14891788       -0.57442137
 C           -2.73528148        2.38791871        0.70654825
 C           -2.32621851        0.92371566       -2.34452180
 C           -2.32329066        2.22916697       -1.71019650
 C           -1.12428757        0.22945904       -2.46301640
 C           -2.10665453       -1.74512841       -1.45923750
 C           -1.10501014       -1.14750382       -2.23706192
 C           -2.33559054       -2.68992894        0.74133286
 C           -1.76912676       -2.73897807       -0.52756363
 C           -1.94619349       -1.18918682        2.47315733
 C           -1.45825649       -2.41037082        1.86252000
 C           -1.60403760        1.19291059        2.38748506
 C           -1.09125589       -0.09425808        2.55129337
 C           -1.41424095        2.97512997        0.86674737
 C           -0.72708878        2.25734045        1.92957004
 C           -1.11106992        2.88684502       -1.57185569
 C           -0.69503833        3.35759181       -0.25711626
 C            0.07790837        0.94647665       -2.49710888
 C            0.06315667        2.30871498       -2.20063077
 C            1.30130222        0.26767865       -2.55825130
 C            0.05891648       -1.85164099       -2.50674735
 C            1.31072874       -1.12334163       -2.61585556
 C           -0.52150132       -3.34475110       -0.61457052
 C            0.31449054       -3.06519725       -1.76237879
 C           -0.09065898       -2.55980236        1.66652694
 C            0.32868466       -3.30998194        0.56621598
 C            0.28498361       -0.30194349        2.43620053
 C            0.77045705       -1.59415513        2.18648469
 C            0.63503170        2.00378191        1.81268922
 C            1.13441626        0.80300216        2.31754253
 C            0.75649634        3.28969252       -0.21668505
 C            1.20788558        2.90141921       -1.54352683
 C            1.39269842        2.73900454        0.89423976
 C            2.48162841        0.92051748       -2.19353671
 C            2.43720156        2.27545019       -1.66156167
 C            3.49385575        0.18270874       -1.45115380
 C            2.32458462       -1.85449306       -1.86775651
 C            1.69761145       -3.04155810       -1.31651782
 C            1.71251528       -3.23316755        0.12099155
 C            3.23390515       -1.14005613       -1.09194124
 C            2.13957865       -1.80050468        2.05045921
 C            2.62070682       -2.50397194        0.87417276
 C            3.53825372       -1.60047064        0.19615110
 C            2.50854107        0.63155860        2.42301369
 C            3.05395482       -0.70329706        2.30202564
 C            4.02315444       -0.68453449        1.21664034
 C            2.76252356        2.50361874        0.80035734
 C            3.33806819        2.32770960       -0.52268434
 C            4.11331739        1.10088391       -0.51001145
 C            3.37457557        1.52080406        1.67550404
 C            4.26852933        0.69911323        0.87115593




