%chk=000641.chk
%mem=8GB
%Nproc=32
#p B3LYP/6-31G* opt pop=NPA

Template file

0 1
 C            4.50394375       -0.77510652        0.17538266
 C            3.73632270       -1.98302381        0.41837551
 C            3.20653351       -2.41889265       -0.85177452
 C            4.15195754       -0.29376340       -1.15087208
 C            3.42340366       -1.34769475       -1.81562348
 C            3.51149518        0.99791314       -0.99368362
 C            4.06636704        0.22534303        1.13138990
 C            3.70492224        1.41327700        0.38600608
 C            2.80187936       -1.71248821        1.49499193
 C            3.05783274       -0.37189545        1.99015550
 C            1.47830629       -2.12673226        1.38707563
 C            1.80450736       -2.77901705       -0.92067487
 C            1.02553149       -2.78788200        0.23247372
 C            2.13658576       -1.03598171       -2.40562659
 C            1.25111573       -2.13699806       -2.09198164
 C            2.28239766        1.25662593       -1.60634926
 C            1.61956872        0.25593582       -2.34014558
 C            1.57378316        2.39001801       -1.19994576
 C            2.76053896        2.25602467        0.94731868
 C            1.81241644        2.91749551        0.07025027
 C            1.97215597        0.41075483        2.38227522
 C            1.99574615        1.77888762        2.09166907
 C            0.54372187       -1.53465445        2.23478273
 C            0.74805174       -0.21252219        2.65080855
 C           -0.72103813       -2.11017008        2.31355021
 C           -0.35076884       -2.94405318        0.06163367
 C           -1.13986691       -2.94592515        1.20818492
 C           -0.11374418       -1.89602687       -2.09831041
 C           -0.90881767       -2.57281003       -1.17233637
 C            0.26873925        0.42189971       -2.65371984
 C           -0.57940606       -0.69310567       -2.63205629
 C            0.39655447        2.72597034       -1.85950364
 C           -0.26933881        1.70578068       -2.64514237
 C           -0.62578469        3.47168416       -1.14325270
 C            0.69101177        3.32661395        0.90204490
 C            0.76379965        2.55342081        2.13397950
 C           -0.53830586        3.56434620        0.30197221
 C           -0.33830077        0.57045297        3.03984123
 C           -0.38235456        1.96846260        2.65118406
 C           -1.86464947       -1.30818304        2.71758641
 C           -1.68679288        0.04873455        2.92494132
 C           -2.58208069       -2.85672022        1.10367677
 C           -3.00953478       -1.74420487        1.93642911
 C           -2.29051442       -2.54290913       -1.34927060
 C           -3.17099543       -2.67721127       -0.20502230
 C           -1.95357877       -0.51763120       -2.77643908
 C           -2.85202127       -1.50707497       -2.19762284
 C           -1.70616546        1.89599800       -2.50573836
 C           -1.91668699        2.89953146       -1.47826496
 C           -2.53263996        0.78468809       -2.50699988
 C           -1.74471156        2.96867253        0.85987959
 C           -1.67139331        2.21218262        2.01906150
 C           -2.44994915        0.99123759        2.11896977
 C           -2.56976599        2.50113715       -0.24142138
 C           -3.66978214       -0.78166911        1.07123103
 C           -3.99983672       -1.48277311       -0.15339089
 C           -3.84587372       -0.78962466       -1.41106407
 C           -3.44696525        0.60195656       -1.39252232
 C           -3.17962579        0.52522461        1.02380145
 C           -3.17789992        1.24647494       -0.18216740




