%chk=000431.chk
%mem=8GB
%Nproc=32
#p B3LYP/6-31G* opt pop=NPA

Template file

0 1
 C            4.36634109        0.67823274        1.26254244
 C            4.48423258        0.68104147       -0.18616573
 C            4.34632492       -0.68877883       -0.64060272
 C            3.91889387       -0.64316385        1.66774695
 C            4.04824822       -1.51306537        0.52252275
 C            2.60874334       -0.50962276        2.28635420
 C            3.32496344        1.62136083        1.62070717
 C            2.30239796        0.90772094        2.36207530
 C            3.57523065        1.68618184       -0.70781142
 C            2.91709005        2.32824002        0.42037117
 C            2.82826282        1.40518413       -1.84597808
 C            3.36397161       -0.99804726       -1.66940862
 C            2.69016626        0.02919179       -2.31297059
 C            2.92038447       -2.35048147        0.18447195
 C            2.61417841       -2.15510851       -1.22101315
 C            1.58361976       -1.39593620        1.94434520
 C            1.84726530       -2.45759154        1.06437007
 C            0.25791755       -0.99522123        2.16144998
 C            0.98598180        1.30374520        2.18074201
 C           -0.02933795        0.36506570        2.34451954
 C            1.57588426        2.68387289        0.30443583
 C            0.73332526        2.42152417        1.39004990
 C            1.53916741        2.05045370       -2.01005265
 C            1.01781393        2.81584428       -0.97222804
 C            1.30397674       -0.17370642       -2.70264502
 C            0.65512356        1.12241949       -2.69727546
 C            1.28853771       -2.33605646       -1.61063054
 C            0.60133005       -1.28143297       -2.23761802
 C            0.77667807       -3.21025246        0.59982897
 C            0.56304205       -3.23739761       -0.83947345
 C           -0.77905888       -1.91097291        1.96258627
 C           -0.52388710       -3.05471095        1.21490224
 C           -2.10191220       -1.50836289        2.14510991
 C           -1.35214447        0.81077904        2.33971634
 C           -2.38469609       -0.11429803        2.42477280
 C           -0.55712188        2.92884815        1.37281276
 C           -1.63057024        2.11437098        1.92199549
 C           -0.31372783        3.20248416       -1.07808731
 C           -1.03708425        3.51227745        0.13796946
 C           -0.70896252        1.20265604       -2.44143992
 C           -1.19547196        2.39750831       -1.91150372
 C           -0.79842354       -1.21147569       -2.17404158
 C           -1.44952286        0.02739654       -2.27792982
 C           -0.85378583       -3.38636086       -1.07400010
 C           -1.49724969       -3.48114175        0.22557087
 C           -1.52652220       -2.34230636       -1.80812098
 C           -3.13386881       -1.99715781        1.23649745
 C           -2.75245535       -2.76335878        0.14332580
 C           -2.83255261       -2.18657774       -1.19672838
 C           -3.67545129        0.20492407        1.83744243
 C           -4.09764842       -0.93227953        1.03769583
 C           -2.83377880        2.38942299        1.14673956
 C           -2.42008926        3.10975047       -0.04483924
 C           -2.52932624        2.45164646       -1.33634161
 C           -3.79728877        1.39827667        1.02037867
 C           -2.81890427        0.11873617       -2.01328466
 C           -3.51730383       -0.99607605       -1.39195768
 C           -4.33654708       -0.46456841       -0.31436164
 C           -3.35925939        1.34601577       -1.45082243
 C           -4.19513955        0.98033822       -0.31671674




