%chk=000632.chk
%mem=8GB
%Nproc=32
#p B3LYP/6-31G* opt pop=NPA

Template file

0 1
 C            4.58206974       -0.13079333        0.46423495
 C            3.96557384       -1.35502259        0.94367801
 C            3.59160108       -2.13198449       -0.21434929
 C            4.26098137       -0.00599774       -0.94803913
 C            3.77099060       -1.29065996       -1.39057296
 C            3.40203265        1.15538293       -1.10570757
 C            3.95007901        0.97886378        1.15268645
 C            3.45880563        1.89631117        0.14537324
 C            2.92953793       -0.99188018        1.89143455
 C            2.99358921        0.44192663        2.10586673
 C            1.67341732       -1.58246236        1.81139823
 C            2.24795807       -2.67580220       -0.27449528
 C            1.36927505       -2.49338256        0.78556398
 C            2.53078365       -1.33226598       -2.13568949
 C            1.74582298       -2.43383504       -1.60731834
 C            2.17739693        1.03378904       -1.77480284
 C            1.86776273       -0.15130067       -2.46229484
 C            1.18315363        1.99631514       -1.54360066
 C            2.37707713        2.68825361        0.48300702
 C            1.35845907        2.92432567       -0.51729233
 C            1.80059703        1.13587571        2.30599116
 C            1.66163783        2.39622404        1.71700409
 C            0.62733679       -0.96976846        2.49764782
 C            0.65229137        0.42081231        2.66712683
 C           -0.56561088       -1.67439591        2.62623136
 C            0.03220422       -2.82392851        0.57025088
 C           -0.82853175       -2.71949675        1.65934601
 C            0.36855016       -2.39834205       -1.79455432
 C           -0.47191443       -2.78377149       -0.74341417
 C            0.60889324       -0.29666651       -3.03107441
 C           -0.12329727       -1.52576528       -2.76436357
 C           -0.07020523        1.88533560       -2.15262630
 C           -0.33986458        0.79522287       -2.97141583
 C           -1.12459125        2.68971509       -1.71619399
 C            0.19743403        3.41871966        0.19833591
 C            0.34093848        2.99359514        1.58517814
 C           -1.03913755        3.34184247       -0.42163018
 C           -0.53628920        1.11805348        2.88318141
 C           -0.73165779        2.40533681        2.24029702
 C           -1.81231858       -0.96651617        2.86160800
 C           -1.80760579        0.41749961        2.85855435
 C           -2.26137237       -2.81079591        1.47648359
 C           -2.86122221       -1.66358159        2.13941268
 C           -1.84844434       -2.80499057       -0.97721458
 C           -2.78128736       -2.87064596        0.13031753
 C           -1.54382547       -1.22214476       -2.81565118
 C           -1.67756418        0.21554650       -2.99837917
 C           -2.40898525       -1.89808021       -1.96451995
 C           -2.49275951        2.22675481       -1.87259078
 C           -2.72974200        0.89448904       -2.39757144
 C           -2.20809132        2.94169743        0.34616598
 C           -2.04513161        2.39655318        1.61327277
 C           -2.69199634        1.13455164        1.94914794
 C           -3.14176760        2.31998574       -0.57322925
 C           -3.63548123       -0.93562472        1.14990673
 C           -3.73039527       -1.78006003       -0.02892079
 C           -3.51158026       -1.18445749       -1.33568114
 C           -3.59564689        0.19742073       -1.45864741
 C           -3.42603522        0.43260418        0.98802241
 C           -3.68389805        1.01141548       -0.25488458




