%chk=001090.chk
%mem=8GB
%Nproc=32
#p B3LYP/6-31G* opt pop=NPA

Template file

0 1
 C           -1.15358512        4.13888893       -0.18518139
 C           -0.00771507        4.01925648        0.69303604
 C            1.14474248        3.75033608       -0.14246378
 C           -0.77062172        3.57951238       -1.47157963
 C            0.62929888        3.22442524       -1.39771880
 C           -1.72313084        2.54429942       -1.79761479
 C           -2.20930193        3.30501196        0.35623069
 C           -2.70543617        2.48145396       -0.72320536
 C           -0.32678041        3.05495707        1.73382976
 C           -1.70123154        2.62769623        1.52978198
 C            0.64706340        2.11414865        2.07193749
 C            2.20391937        3.08230962        0.44489951
 C            1.96119223        2.40495596        1.71034392
 C            2.95207987        2.14091171       -0.36253935
 C            1.03867848        1.95645100       -1.81156196
 C            2.31921488        1.52911903       -1.44519850
 C           -1.27328447        1.34441450       -2.34329995
 C            0.09326507        1.01794919       -2.26955039
 C           -2.21330718        0.31666582       -2.42470241
 C           -3.22474534        1.23095151       -0.41406701
 C           -3.31244772        0.33864361       -1.47554899
 C           -2.01244499        1.28647648        1.68304624
 C           -3.00737442        0.72075075        0.87566053
 C            0.26479220        0.78100723        2.29404773
 C           -1.09447535        0.45753980        2.32408028
 C            1.22660250       -0.24377039        2.37595307
 C            2.98059207        1.38878789        1.84613278
 C            3.69304791        1.32192224        0.57772271
 C            2.57611227        0.04441812        2.18581282
 C            3.90381484       -0.07564607        0.26057306
 C            3.38142236       -0.85384710        1.37862056
 C            2.78378407        0.29614325       -1.89350134
 C            3.66223247       -0.49745365       -1.04130010
 C            0.49542429       -0.30155416       -2.50680557
 C            1.84997393       -0.60953797       -2.53158368
 C           -1.77019443       -1.05999632       -2.53356240
 C           -0.42493762       -1.33800299       -2.36195787
 C           -3.72768714       -1.02627329       -1.23121841
 C           -2.74971359       -1.89908605       -1.86144079
 C           -3.48445534       -0.54831844        1.20242961
 C           -3.88961514       -1.45518753        0.14129184
 C           -1.48069912       -0.82911021        2.67011974
 C           -2.75474227       -1.33341287        2.18244687
 C            0.82678854       -1.58470037        2.35650497
 C           -0.51257582       -1.90063710        2.55687110
 C            2.92019933       -2.14621812        1.16442355
 C            1.61876743       -2.52547638        1.69181103
 C            3.37394410       -1.89748058       -1.28455476
 C            2.26289003       -1.96709383       -2.21967178
 C            3.05643426       -2.74765334       -0.15301467
 C           -0.05693583       -2.49498430       -1.67288778
 C            0.98356982       -3.41222488        0.72796052
 C            1.27574987       -2.88245367       -1.67593431
 C            1.81729568       -3.44311530       -0.45718674
 C           -2.28483645       -2.84266136       -0.85994630
 C           -3.13927661       -2.68863531        0.30500394
 C           -2.52250581       -2.65233888        1.61266880
 C           -1.10325481       -2.92006084        1.70782594
 C           -0.91045178       -3.00663006       -0.69028017
 C           -0.39512862       -3.31584277        0.57801188




