%chk=001078.chk
%mem=8GB
%Nproc=32
#p B3LYP/6-31G* opt pop=NPA

Template file

0 1
 C            3.65219791        2.41793013       -0.54776510
 C            3.71322848        1.85768717        0.79061568
 C            4.13996208        0.47987734        0.66933134
 C            3.70286320        1.31231672       -1.48452176
 C            4.15569615        0.14521266       -0.75555902
 C            2.42362107        1.24402233       -2.17486964
 C            2.35832166        3.05260825       -0.69481417
 C            1.65270018        2.41136208       -1.78999075
 C            2.44810944        2.13463631        1.45129662
 C            1.70970628        3.05416594        0.60253314
 C            1.75955819        1.09304651        2.08022613
 C            3.63724428       -0.43864160        1.58286753
 C            2.41623834       -0.11515257        2.31617356
 C            3.57468253       -1.83798528        1.20704354
 C            3.68973975       -1.09541208       -1.16945596
 C            3.61430144       -2.17489721       -0.20239033
 C            1.77919497        0.01437527       -2.28375774
 C            2.49232354       -1.15495252       -2.00165804
 C            0.38102855       -0.02797087       -2.33419547
 C            0.27513519        2.29281147       -1.66542161
 C           -0.36136192        1.15004391       -2.15299922
 C            0.32770731        2.97568200        0.61480823
 C           -0.32770731        2.97568200       -0.61480823
 C            0.36136192        1.15004391        2.15299922
 C           -0.27513519        2.29281147        1.66542161
 C           -0.38102855       -0.02797087        2.33419547
 C            1.63651914       -1.33170542        2.44482887
 C            2.35659874       -2.39627606        1.76729647
 C            0.25869709       -1.26839872        2.28482648
 C            2.43423813       -2.96349460       -0.50632764
 C            1.76866755       -2.36480125       -1.65163074
 C            1.66935880       -3.12644213        0.71729386
 C           -0.25869709       -1.26839872       -2.28482648
 C            0.38144593       -2.33472082       -1.65607117
 C           -1.63651914       -1.33170542       -2.44482887
 C           -1.75955819        1.09304651       -2.08022613
 C           -2.41623834       -0.11515257       -2.31617356
 C           -1.70970628        3.05416594       -0.60253314
 C           -2.44810944        2.13463631       -1.45129662
 C           -1.65270018        2.41136208        1.78999075
 C           -2.35832166        3.05260825        0.69481417
 C           -1.77919497        0.01437527        2.28375774
 C           -2.42362107        1.24402233        2.17486964
 C           -2.49232354       -1.15495252        2.00165804
 C           -0.38144593       -2.33472082        1.65607117
 C            0.28875569       -3.00492695        0.63358925
 C           -0.28875569       -3.00492695       -0.63358925
 C           -1.76866755       -2.36480125        1.65163074
 C           -2.35659874       -2.39627606       -1.76729647
 C           -1.66935880       -3.12644213       -0.71729386
 C           -2.43423813       -2.96349460        0.50632764
 C           -3.63724428       -0.43864160       -1.58286753
 C           -3.68973975       -1.09541208        1.16945596
 C           -3.57468253       -1.83798528       -1.20704354
 C           -3.61430144       -2.17489721        0.20239033
 C           -3.71322848        1.85768717       -0.79061568
 C           -3.65219791        2.41793013        0.54776510
 C           -3.70286320        1.31231672        1.48452176
 C           -4.13996208        0.47987734       -0.66933134
 C           -4.15569615        0.14521266        0.75555902




