%chk=000102.chk
%mem=8GB
%Nproc=32
#p B3LYP/6-31G* opt pop=NPA

Template file

0 1
 C            4.62436191       -1.47715412        0.28504553
 C            4.98050393       -0.11883267       -0.07388844
 C            4.40501672        0.76232013        0.92417187
 C            3.81650863       -1.42260613        1.49367485
 C            3.57780383       -0.03840727        1.81675893
 C            2.66748741       -2.25847010        1.27378718
 C            3.77727248       -2.00546011       -0.77048727
 C            2.66005743       -2.64494507       -0.12959508
 C            4.33012809        0.19009793       -1.33475867
 C            3.48617265       -0.93911020       -1.69870106
 C            3.77938569        1.86400728        0.21718497
 C            3.71074406        1.49508352       -1.19434346
 C            2.67324656        2.45361008        0.81108960
 C            2.27288057        0.38785567        2.07570081
 C            2.00345116        1.73669533        1.88768947
 C            1.44509891       -1.89323392        1.82716043
 C            1.20308527       -0.53364024        2.10495233
 C            0.38194453       -2.67658440        1.41244237
 C            1.42703232       -2.63366882       -0.76279583
 C            0.39068303       -3.10431147        0.02255602
 C            2.15647354       -0.69729263       -2.05258785
 C            1.14103975       -1.59629047       -1.67013215
 C            2.53612169        1.72978991       -1.89773788
 C            1.81426256        0.59201219       -2.44963332
 C            1.63327101        3.02534196       -0.02608421
 C            1.54496530        2.64407417       -1.35376828
 C            0.64091675        2.19976896        1.93074449
 C            0.42529919        3.04931651        0.77129679
 C           -0.12997318       -0.05897427        2.19633338
 C           -0.37306803        1.32217465        2.28585554
 C           -0.96559988       -2.27451678        1.72201649
 C           -1.21352777       -0.94926643        2.04882838
 C           -0.95995553       -3.00776380       -0.46368152
 C           -1.79629520       -2.91355826        0.72052105
 C           -0.20592447       -1.28817905       -1.95614857
 C           -1.21924758       -2.16674272       -1.53893702
 C            0.42147318        0.96639167       -2.54147896
 C            0.25157060        2.24927690       -1.88591233
 C           -0.55956300        0.01025515       -2.35091840
 C           -0.81893631        2.97888794        0.16001547
 C           -0.90919516        2.44957788       -1.13936087
 C           -1.66697691        1.80324392        2.10607061
 C           -1.88073690        2.76231775        1.02953937
 C           -2.52078645       -0.46901984        1.89373689
 C           -2.77976215        0.88256199        2.08458696
 C           -3.08972380       -2.46170736        0.55918723
 C           -3.49896873       -1.29229951        1.31730103
 C           -2.55426393       -1.84192598       -1.78707630
 C           -3.54403804       -2.24739838       -0.80069038
 C           -1.85625220        0.45990118       -2.12315732
 C           -2.04115483        1.70270536       -1.49246865
 C           -2.87589712       -0.48037618       -2.16644139
 C           -3.19298789        2.52022158        0.47667396
 C           -3.83656875        1.53595933        1.32595090
 C           -3.25135127        2.01130361       -0.87148839
 C           -4.61502753       -0.70297076        0.59158647
 C           -4.58813875       -1.24075592       -0.75814001
 C           -4.18964463       -0.16013385       -1.64132160
 C           -4.68749044        0.73602745        0.46998701
 C           -4.35720232        1.07481670       -0.91071121




