%chk=000946.chk
%mem=8GB
%Nproc=32
#p B3LYP/6-31G* opt pop=NPA

Template file

0 1
 C            4.13169603       -0.76245848        1.26993296
 C            4.04432763       -1.16794420       -0.12165457
 C            3.01283050       -2.18538028       -0.22715263
 C            3.13915524       -1.52007598        2.00978432
 C            2.62255336       -2.54659958        1.12833104
 C            2.19403953       -0.58571166        2.59818025
 C            3.75954857        0.63794435        1.34047014
 C            2.59393275        0.75110532        2.19201127
 C            3.91204473        0.03121916       -0.92305224
 C            3.66251178        1.14566286       -0.01300991
 C            3.17468583       -0.04756165       -2.09468517
 C            2.03412525       -2.06216414       -1.21929093
 C            2.21962019       -1.14017147       -2.25328154
 C            0.76502531       -2.61690185       -1.00996061
 C            1.32752837       -2.97969738        1.34178151
 C            0.50931204       -3.28035729        0.18841282
 C            0.83616865       -0.91810868        2.59557311
 C            0.47617581       -2.21885830        2.24812632
 C           -0.11872849        0.10342934        2.50734112
 C            1.59948874        1.64396105        1.83351753
 C            0.31997379        1.42121667        2.32483377
 C            2.64729143        2.05512046       -0.30992346
 C            1.76430703        2.45186757        0.70157396
 C            2.54487779        1.16200672       -2.58671401
 C            2.27511061        2.22949520       -1.64257271
 C            1.05841633       -0.61809061       -2.95248619
 C            1.28157485        0.79385028       -3.20139150
 C           -0.31461169       -2.20073238       -1.79829729
 C           -0.20221903       -1.02856134       -2.54547660
 C           -1.58694817       -2.71545415       -1.54902391
 C           -0.85011814       -3.34817557        0.68146669
 C           -0.89593057       -2.50594472        1.87175455
 C           -1.88493679       -3.25998098       -0.23238414
 C           -1.47881548       -0.21772864        2.35915449
 C           -1.85727971       -1.50361169        1.95845996
 C           -2.43263262        0.79806048        2.32681063
 C           -0.58639062        2.46933019        2.28033058
 C           -2.00241283        2.18326585        2.31296081
 C            0.76384342        3.37191452        0.39030934
 C           -0.37400126        3.50452196        1.28803993
 C            0.95560454        2.75144325       -1.95790094
 C            0.27653790        1.74139274       -2.75179321
 C            0.24235406        3.40111538       -0.96610075
 C           -1.24453041       -0.09672729       -2.52667606
 C           -0.95469857        1.25055918       -2.32386985
 C           -2.73826677       -1.93889708       -1.97418498
 C           -2.53742625       -0.53801469       -2.29495865
 C           -3.12845891       -2.66348365        0.21412992
 C           -3.07260169       -1.69357666        1.29492249
 C           -3.74462355       -2.02212016       -0.93229573
 C           -3.52123648        0.70312906        1.37352092
 C           -3.39251803        0.25360596       -1.42629804
 C           -3.86616579       -0.54467138        0.88661826
 C           -4.08918498       -0.66755523       -0.54244864
 C           -2.60317781        2.81445638        1.14444576
 C           -1.57154802        3.56613703        0.46637119
 C           -1.18620332        3.16044945       -0.86944501
 C           -1.72029943        1.99079667       -1.41568707
 C           -3.29369088        1.77045203        0.41566989
 C           -2.89500579        1.43780804       -0.88281919




