%chk=001574.chk
%mem=8GB
%Nproc=32
#p B3LYP/6-31G* opt pop=NPA

Template file

0 1
 C            3.68970638       -0.66614463        1.65994048
 C            3.98118301       -1.36086971        0.42124975
 C            3.13734062       -2.54123844        0.36397499
 C            2.61521004       -1.37970285        2.33239447
 C            2.24505679       -2.51591784        1.51207600
 C            1.58729314       -0.41950607        2.68142680
 C            3.32447592        0.73795210        1.60280607
 C            2.06431968        0.90025223        2.30827214
 C            3.53273029        1.45131349        0.42953671
 C            3.83005466       -0.64430337       -0.83220766
 C            3.80880555        0.74383790       -0.81964486
 C            2.55212915       -2.61267480       -0.96461266
 C            2.84262064       -1.35425707       -1.63578141
 C            1.28308554       -3.15441970       -1.08679933
 C            0.89569233       -2.78268646        1.30328466
 C            0.53701978       -3.43772237        0.12672911
 C            0.25606170       -0.74090460        2.43673944
 C           -0.06725533       -2.02000719        1.97462076
 C           -0.67461627        0.29413168        2.31012528
 C            1.13621568        1.83241070        1.85705376
 C           -0.21509108        1.60811824        2.13177624
 C            2.65039525        2.56201679        0.12211528
 C            1.50196295        2.77320652        0.88229878
 C            3.08160851        1.42115049       -1.87582981
 C            2.53690790        2.64478721       -1.32233491
 C            1.81527228       -0.64041728       -2.26507152
 C            1.99723339        0.71393384       -2.53373760
 C            0.34380268       -2.52242381       -1.99007802
 C            0.52798940       -1.18277663       -2.32551316
 C           -0.86325101       -3.51658289       -0.24591425
 C           -0.97506212       -2.99020409       -1.60455868
 C           -1.40893542       -2.36037795        1.83542995
 C           -1.81766149       -3.17787843        0.70298438
 C           -2.03898126       -0.01301126        2.21153677
 C           -2.42297819       -1.33972646        2.03536299
 C           -2.95225454        0.97552035        1.85290031
 C           -1.11430197        2.65042679        1.94470452
 C           -2.51798270        2.35439034        1.76945520
 C            0.51376929        3.58098780        0.32181029
 C           -0.77988162        3.66613265        0.97145092
 C            1.21598874        2.83881450       -1.89146296
 C            0.84033629        1.59330011       -2.54504417
 C            0.26894003        3.48099936       -1.11141639
 C           -0.58269004       -0.33443311       -2.43069367
 C           -0.41851871        1.04440111       -2.31360738
 C           -2.07977620       -2.23010006       -1.96036449
 C           -1.87014567       -0.86088507       -2.40225019
 C           -3.11822059       -2.71327850        0.25741925
 C           -3.52923971       -1.63303575        1.13650649
 C           -3.25717777       -2.25232595       -1.11077155
 C           -3.81685604        0.74590727        0.70694077
 C           -2.94708362       -0.04445860       -1.87073680
 C           -4.06045244       -0.56022491        0.31222436
 C           -3.80879150       -0.90921108       -1.07640246
 C           -2.90237247        2.84634389        0.45219808
 C           -1.78764241        3.59865661       -0.07468866
 C           -1.12077943        3.09927871       -1.25865540
 C           -1.42781285        1.82074455       -1.72772158
 C           -3.37932554        1.69934243       -0.29428368
 C           -2.65806959        1.23334932       -1.39716172




