%chk=001605.chk
%mem=8GB
%Nproc=32
#p B3LYP/6-31G* opt pop=NPA

Template file

0 1
 C            3.99439463       -0.03795783        1.15619981
 C            3.66402312       -1.44690523        1.23323435
 C            2.64770187       -1.60134760        2.26305217
 C            3.15516930        0.66099683        2.11747840
 C            2.19072762       -0.28117118        2.63642481
 C            2.65546364        1.85532209        1.48177289
 C            3.87598194        0.64628230       -0.11976057
 C            3.13639212        1.88032885        0.10805538
 C            3.64782266       -0.08934882       -1.27578571
 C            3.19446347       -2.13130313        0.04005970
 C            3.21963711       -1.48157353       -1.18759627
 C            1.66429434       -2.54294851        1.77629997
 C            2.01792471       -2.89749021        0.41095673
 C            0.31984283       -2.32321868        2.05441762
 C            0.83452099        0.00779515        2.51252765
 C           -0.08437195       -1.04680470        2.47398486
 C            1.34855577        2.25335254        1.71554377
 C            0.41840100        1.31355314        2.19947989
 C            0.90040331        3.29087664        0.91650337
 C            2.30258451        2.41107678       -0.88356170
 C            1.28469483        3.27769207       -0.48529786
 C            2.91439675        0.52966624       -2.36103299
 C            2.16015857        1.74405956       -2.10231277
 C            2.10594436       -1.66390345       -2.10265752
 C            1.99528898       -0.45847017       -2.90283445
 C            0.97920273       -3.07684204       -0.50031205
 C            0.93982636       -2.27931639       -1.65310341
 C           -0.58410133       -3.12646675        1.36399586
 C           -0.21875183       -3.55519623        0.02298848
 C           -1.99853099       -2.80174379        1.36258731
 C           -1.43821550       -0.76006387        2.59740012
 C           -2.42089443       -1.62166668        1.96008419
 C           -0.95265410        1.62331641        2.21648673
 C           -1.88538941        0.61273311        2.45067193
 C           -0.48132055        3.69781274        0.99646774
 C           -1.40624457        2.83649642        1.69654014
 C            0.04714966        3.30039906       -1.24370588
 C           -0.96923189        3.84803467       -0.36614105
 C            0.82789179        1.56384370       -2.66615872
 C            0.69310408        0.16731229       -3.03475795
 C           -0.24689443        2.21917649       -2.07203350
 C           -0.29167916       -1.84166753       -2.15784482
 C           -0.42872747       -0.52447502       -2.60703409
 C           -1.41199612       -3.51556576       -0.79553635
 C           -2.53510265       -3.19368375        0.07025129
 C           -1.43352844       -2.59458944       -1.90952823
 C           -3.39243121       -2.27320934       -0.65027122
 C           -2.72412606       -1.93077954       -1.89832765
 C           -3.40296733       -0.77108510        1.29923554
 C           -3.13873133        0.59925891        1.70412097
 C           -3.78990901       -1.03035118       -0.01335977
 C           -2.64113401        2.85916106        0.93304375
 C           -2.30115876        3.29060593       -0.41407173
 C           -3.40769785        1.63246520        0.81544648
 C           -1.47610512        1.55165293       -1.94690297
 C           -1.57803812        0.19884603       -2.29239685
 C           -2.76318883       -0.48666590       -2.03521910
 C           -3.66382381        0.01656007       -1.01392396
 C           -2.54593134        2.16325978       -1.28767432
 C           -3.52308545        1.33387435       -0.60616843




