%chk=001690.chk
%mem=8GB
%Nproc=32
#p B3LYP/6-31G* opt pop=NPA

Template file

0 1
 C            2.71078113       -1.41774643        2.33991597
 C            3.66371936       -0.71504099        1.51333290
 C            3.76909036       -1.42991177        0.24883863
 C            2.30783683       -2.61399429        1.61803597
 C            2.75640591       -2.47243536        0.25245502
 C            0.89505169       -2.79857217        1.85002439
 C            1.49855766       -0.72864712        2.74484553
 C            0.43611167       -1.70948189        2.70017056
 C            1.24106636        0.55958072        2.28019888
 C            3.40925067        0.67351251        1.19932033
 C            2.27164182        1.31199095        1.69670851
 C            3.76489145       -0.44275869       -0.81915568
 C            3.77202512        0.86971322       -0.19361171
 C            2.96760511       -0.66473505       -1.93468137
 C            1.81075845       -2.50852409       -0.76895682
 C            2.05876030       -1.80219753       -1.94809769
 C            0.07465533       -3.19174777        0.79975024
 C            0.52646116       -3.01747355       -0.52382352
 C           -1.28937613       -3.18283141        1.07537846
 C           -0.87472873       -1.27593182        2.55147475
 C           -1.78862509       -2.17594657        1.99774346
 C           -0.08890915        0.99955536        2.20600236
 C           -1.13600751        0.09599694        2.47808225
 C           -0.35997611        2.33471217        1.86345370
 C            1.99673897        2.58473709        1.21310596
 C            0.64366980        3.09865289        1.27302540
 C            3.22952730        1.95720153       -0.86514403
 C            2.55470077        2.97074141       -0.07314477
 C            2.28030215        0.45236170       -2.56915813
 C            2.42561064        1.73489904       -2.06158453
 C            0.95459086       -1.45241608       -2.82443847
 C            0.95387267       -0.00494670       -2.94211587
 C           -0.37310337       -3.07616072       -1.59329736
 C           -0.25345807       -2.10325621       -2.66217395
 C           -2.25541254       -3.33902046        0.01022777
 C           -1.79376482       -3.24212305       -1.35291323
 C           -3.07034063       -1.70495142        1.49556519
 C           -3.28982575       -2.33737013        0.20317322
 C           -2.46233090        0.49770429        2.34682655
 C           -3.38067688       -0.36035578        1.62284259
 C           -1.67314077        2.75393645        1.66390833
 C           -2.76548359        1.85264810        1.94159220
 C           -1.99276798        3.43552202        0.42317739
 C            0.36373324        3.77597648        0.01018676
 C            1.47462818        3.50862590       -0.87597628
 C            1.25550682        2.59558932       -1.97992920
 C           -0.91358371        3.66311182       -0.51336030
 C           -0.16614830        0.71935732       -2.53053516
 C           -0.02318951        2.06188353       -2.16338368
 C           -1.11709273        2.75164393       -1.63761975
 C           -1.46502065       -1.30571644       -2.62691350
 C           -2.47424791       -2.11468897       -1.97851235
 C           -3.32204762       -1.49519010       -0.98169574
 C           -1.37439031        0.04685665       -2.30863246
 C           -3.73203011        0.37164957        0.42104938
 C           -3.58723246        1.77493782        0.73849214
 C           -2.99936641        2.64408597       -0.25496083
 C           -2.36593632        2.04264381       -1.41418136
 C           -3.28285870       -0.11488202       -0.80580872
 C           -2.39647902        0.65922607       -1.57509831




