%chk=000455.chk
%mem=8GB
%Nproc=32
#p B3LYP/6-31G* opt pop=NPA

Template file

0 1
 C            4.38253892        1.54874627       -0.59837928
 C            4.31922414        0.30265124       -1.34052503
 C            4.60082247       -0.75990771       -0.40166703
 C            4.27602144        1.21644584        0.81299189
 C            4.43070112       -0.21415774        0.94027477
 C            3.05799097        1.81925196        1.30968151
 C            3.21305728        2.33429102       -0.95341112
 C            2.51936933        2.67697995        0.26525377
 C            3.05901337        0.28269665       -2.06940593
 C            2.46813565        1.60582222       -1.94993024
 C            2.21958744       -0.83907767       -2.00743558
 C            3.80243261       -1.96241758       -0.47864393
 C            2.66134363       -2.00217992       -1.38230136
 C            3.37353529       -0.97376418        1.58685777
 C            3.28494688       -2.21436289        0.85554284
 C            2.15821729        1.06521049        2.06180522
 C            2.18784647       -0.33656020        1.97439490
 C            0.96078124        1.69268256        2.36536036
 C            1.13684075        2.83083423        0.22196108
 C            0.47726826        2.70001476        1.43277897
 C            1.08788524        1.68387302       -1.91516445
 C            0.44712539        2.47142180       -0.94609539
 C            0.84700046       -0.66649228       -2.23431434
 C            0.38534985        0.62881968       -2.46988906
 C           -0.06992222       -1.67610145       -1.88280764
 C            1.68768204       -2.84768986       -0.73277281
 C            1.97986482       -2.79758863        0.69144388
 C            0.35039773       -2.76032987       -1.09406255
 C            0.98775024       -1.08104004        2.04006646
 C            0.95128810       -2.39079771        1.52816234
 C           -0.17975159        0.89959271        2.76178528
 C           -0.20475621       -0.45171983        2.44079222
 C           -0.96491773        2.65246379        1.44805622
 C           -1.34756357        1.71681379        2.49381940
 C           -0.95766695        2.50288866       -0.96179389
 C           -1.66515799        2.64842937        0.24616411
 C           -0.94674254        0.84270365       -2.75399144
 C           -1.59114873        1.95224905       -2.08104212
 C           -1.44587189       -1.45231517       -2.08342895
 C           -1.85920910       -0.27693320       -2.70463619
 C           -2.39357820       -2.21145125       -1.39177063
 C           -0.53637588       -3.27399687       -0.15756782
 C           -0.27802610       -2.96210826        1.23815558
 C           -1.95240235       -3.14837263       -0.38681773
 C           -1.44328816       -1.08861797        2.27644851
 C           -1.48462135       -2.38190183        1.77550618
 C           -2.56134738       -2.75910174        0.87484883
 C           -2.58314011        1.10272767        2.40543246
 C           -2.63049657       -0.34722077        2.31911438
 C           -3.03525615        2.38457194        0.31111878
 C           -3.53989106        1.63278485        1.44841645
 C           -3.01161662        1.67269588       -2.06965877
 C           -3.17960199        0.26833549       -2.41839086
 C           -3.75497246        1.92661671       -0.86016553
 C           -3.58949686       -1.57194174       -0.86307749
 C           -3.59514368       -1.78657867        0.58124997
 C           -3.73719525       -0.70334399        1.43784851
 C           -4.32452682        0.52402519        0.93457604
 C           -3.99497863       -0.35128785       -1.39050291
 C           -4.45535426        0.70271906       -0.50025862




