%chk=000173.chk
%mem=8GB
%Nproc=32
#p B3LYP/6-31G* opt pop=NPA

Template file

0 1
 C            4.26197853       -1.61493064       -0.96180029
 C            4.71686642       -0.80302650        0.15021655
 C            4.44323933        0.58033525       -0.18171959
 C            3.60900693       -0.73849889       -1.92402049
 C            3.69251384        0.61399967       -1.42903796
 C            2.29944227       -1.28205537       -2.19323847
 C            3.25179290       -2.52398414       -0.45507202
 C            2.13289419       -2.46342632       -1.36500588
 C            3.90203316       -1.13194932        1.30849730
 C            2.99452830       -2.20323953        0.93321790
 C            3.83712005        1.19240428        0.98632075
 C            3.33148877        0.10572884        1.81493182
 C            3.01016954        2.27882678        0.76461497
 C            2.56834685        1.43529794       -1.48341542
 C            2.55789789        2.50710976       -0.59657462
 C            1.20815530       -0.42185724       -2.31295151
 C            1.34196058        0.93442381       -1.97471312
 C           -0.05937133       -1.00215029       -2.26058283
 C            0.86443947       -2.68180061       -0.85974016
 C           -0.18349095       -2.25671596       -1.65072936
 C            1.66656322       -2.11829947        1.34347037
 C            0.66673023       -2.66070324        0.52645568
 C            1.98961826        0.10331118        2.19732465
 C            1.31486684       -1.11753905        2.24668703
 C            1.82857406        2.42752111        1.58917468
 C            1.24873228        1.29037799        2.13959328
 C            1.38951830        3.34364753       -0.50978420
 C            0.98353451        3.37011652        0.89140671
 C            0.18658157        1.73718752       -1.92548451
 C            0.22420610        2.97441444       -1.27567296
 C           -1.18562885       -0.19673471       -2.42322771
 C           -1.07120971        1.18393530       -2.21175469
 C           -2.43976492       -0.81005603       -2.50046345
 C           -1.43404198       -2.72899009       -1.30833172
 C           -2.59490509       -2.12589532       -1.91881248
 C           -0.65128831       -2.68762017        1.00967639
 C           -1.69757798       -2.91694825        0.10549969
 C            0.03988471       -1.14609738        2.78822725
 C           -0.92189195       -2.08569548        2.23995605
 C           -0.13400296        1.24688305        2.35399169
 C           -0.65242700        0.11515362        2.97389275
 C           -0.45073344        3.17041279        0.91600270
 C           -0.90062928        3.35985195       -0.44966385
 C           -0.99024359        2.11515050        1.65092878
 C           -2.20655977        1.94530181       -1.90653347
 C           -2.14034288        2.86759426       -0.79285391
 C           -3.63888461       -0.07062668       -2.16556442
 C           -3.51148456        1.32059854       -1.81290976
 C           -3.63444312       -2.04641618       -0.90666671
 C           -3.03584998       -2.40172737        0.36914797
 C           -4.27898414       -0.75506222       -1.05100272
 C           -2.24261093       -1.54417920        2.51264868
 C           -2.07343083       -0.15319248        2.90815780
 C           -3.25478769       -1.59384622        1.47665854
 C           -2.31438936        1.74239348        1.37819732
 C           -2.94841948        2.26668475        0.25083972
 C           -3.95851352        1.47669593       -0.43387295
 C           -4.29454381        0.16043398        0.07731529
 C           -2.89080239        0.65868247        2.03456787
 C           -3.77142998       -0.24121073        1.30358106




