%chk=000509.chk
%mem=8GB
%Nproc=32
#p B3LYP/6-31G* opt pop=NPA

Template file

0 1
 C            4.31051323        1.49995222        0.69812151
 C            3.78608657        0.73495118        1.81888438
 C            3.95436582       -0.66053106        1.50327127
 C            4.49494973        0.58386217       -0.41287196
 C            4.43405436       -0.75820553        0.12815211
 C            3.56766619        0.96102646       -1.46862869
 C            3.29067983        2.45452259        0.31427294
 C            2.85984016        2.15468232       -1.03845214
 C            2.44998978        1.22556828        2.10596268
 C            2.27419881        2.44982880        1.34753084
 C            1.36676054        0.34080973        2.19891788
 C            2.80833313       -1.53593965        1.61896080
 C            1.55757893       -1.03528730        2.00094273
 C            3.61441064       -1.75000167       -0.54575171
 C            2.87857755       -2.44623377        0.49346420
 C            2.87243840       -0.02507902       -2.15524176
 C            2.96217712       -1.41695406       -1.73124290
 C            1.50051569        0.22737330       -2.56297753
 C            1.50108269        2.29694023       -1.31033625
 C            0.83608214        1.35970621       -2.11230412
 C            0.98382130        2.76802387        0.96697307
 C            0.74628182        3.01400761       -0.38569955
 C            0.07431189        0.87930159        2.11036036
 C           -0.05235807        2.21258420        1.70679588
 C           -1.03984715        0.02758465        2.06816150
 C            0.44702870       -1.85810933        1.81023163
 C           -0.83910036       -1.36088018        2.02511090
 C            1.72917967       -3.13718486        0.16024827
 C            0.59881136       -3.02463586        1.05788551
 C            1.69271880       -2.05372823       -2.04600629
 C            0.79090064       -1.03693043       -2.56878222
 C            1.18706399       -3.02023059       -1.18833900
 C           -0.55664048       -1.06353477       -2.20797913
 C           -0.56046575        1.36665141       -2.12904455
 C           -1.25811209        0.14440692       -2.06170828
 C           -0.54207353        3.37203597       -0.75044903
 C           -1.19031033        2.55087776       -1.75669002
 C           -1.31030344        2.76147930        1.52093148
 C           -1.50391720        3.55217795        0.31864657
 C           -2.33373672        0.57202375        1.96161521
 C           -2.48301988        1.93067993        1.69654473
 C           -3.41817993       -0.25362878        1.65907009
 C           -1.91705000       -2.22457671        1.81316295
 C           -3.25574821       -1.68751670        1.70869136
 C           -0.53046914       -3.52407274        0.31011518
 C           -0.25432911       -3.16686135       -1.07338963
 C           -1.09678640       -2.25211120       -1.70720978
 C           -1.79390421       -3.26397048        0.80133098
 C           -3.85375957       -2.23317120        0.49922172
 C           -2.44849236       -2.30371566       -1.38959070
 C           -2.83080149       -3.00430574       -0.17315096
 C           -2.63734918        0.11773258       -1.78696858
 C           -4.23523675        0.05541976        0.48836043
 C           -3.24610529       -1.09472853       -1.46940557
 C           -4.18382710       -1.11423594       -0.35827105
 C           -2.60969118        2.55265908       -1.48028171
 C           -2.81236701        3.25287261       -0.22205622
 C           -3.45262095        2.32511828        0.68751984
 C           -3.29255463        1.28325079       -1.38326896
 C           -4.03126198        1.27824985       -0.12336072




