%chk=001264.chk
%mem=8GB
%Nproc=32
#p B3LYP/6-31G* opt pop=NPA

Template file

0 1
 C           -4.24023522        0.72915377        0.19778036
 C           -4.23259708       -0.42267255       -0.67273998
 C           -3.96471812       -1.57894033        0.16634776
 C           -3.90492215        0.25651838        1.53471126
 C           -3.34905111       -1.07029596        1.37388229
 C           -3.09028787        1.27366127        2.15250867
 C           -3.33554042        1.82242188       -0.09205164
 C           -2.95541942        2.35791605        1.19130686
 C           -2.33670488        1.67019146       -1.05467256
 C           -3.26714971       -0.46576113       -1.75201210
 C           -2.25661949        0.49214284       -1.81600763
 C           -3.21677505       -2.51462578       -0.63602213
 C           -2.90406277       -1.85990971       -1.90143479
 C           -1.95935322       -3.00909272       -0.12020725
 C           -1.97979226       -1.28364214        1.58337941
 C           -1.35262392       -2.38122542        0.97432242
 C           -1.75006829        0.92459974        2.57492553
 C           -1.20199858       -0.31144599        2.23222883
 C           -1.61422257        2.87833028        1.32501141
 C           -0.94913298        2.11173164        2.36729597
 C           -1.23745620        2.53753650       -1.02742299
 C           -0.88236128        3.17162060        0.18031782
 C           -0.32162726        2.45158899       -2.07682338
 C           -1.05616980        0.16049133       -2.45161396
 C           -0.14942211        1.17177448       -2.73565765
 C           -1.52302063       -2.19270337       -2.21384399
 C           -1.15452525       -3.25424117       -1.29599502
 C           -0.60775034       -1.16462179       -2.43851170
 C            0.18714499       -3.49899413       -1.09574646
 C            0.01718892       -2.59430190        1.16291707
 C            0.66456955       -3.45386656        0.26817312
 C            0.18740496       -0.43657916        2.24086955
 C            0.76677520       -1.65826285        1.88577617
 C            0.42970156        1.97318894        2.28497778
 C            0.98459800        0.70350678        2.45073371
 C            0.44080405        3.53691121        0.40623138
 C            1.12648411        2.91785907        1.52848271
 C            0.98925682        3.06173985       -1.96381820
 C            1.37201640        3.63419295       -0.69633716
 C            1.26777240        0.85730680       -2.71416901
 C            1.97851353        2.05399353       -2.31805929
 C            0.75601414       -1.43142517       -2.26248163
 C            1.14230734       -2.70074121       -1.83904670
 C            1.66454200       -0.37104963       -2.20097391
 C            2.10779795       -3.43486896        0.15661803
 C            2.40950011       -2.86255822       -1.15176604
 C            2.13614900       -1.85589885        2.06983750
 C            2.86227003       -2.69869323        1.14105394
 C            2.37018655        0.59745718        2.42710140
 C            2.98507567       -0.70915818        2.31045905
 C            2.50122042        2.65939393        1.12704984
 C            2.61801425        3.01193749       -0.28041143
 C            2.93587717        1.96236596       -1.23546254
 C            3.11664033        1.49512898        1.56365933
 C            2.78541708       -0.44688726       -1.35718938
 C            3.23810400       -1.69557443       -0.92924273
 C            3.77261267       -1.83301378        0.41294645
 C            3.94000776       -0.63970783        1.21024844
 C            3.29204029        0.70993548       -0.74439035
 C            3.74760071        0.64616205        0.57295754




