%chk=000586.chk
%mem=8GB
%Nproc=32
#p B3LYP/6-31G* opt pop=NPA

Template file

0 1
 C            4.26769467       -0.76713897       -1.23473516
 C            3.55829289       -2.01929118       -1.04000865
 C            3.46214582       -2.25339826        0.38115619
 C            4.38155168       -0.12049176        0.06206094
 C            3.95727221       -1.06644981        1.06497976
 C            3.68975449        1.14899645       -0.01656350
 C            3.44444203        0.08011988       -2.08216366
 C            3.20918508        1.31709670       -1.38076920
 C            2.33080571       -1.95618514       -1.80709801
 C            2.29114882       -0.68009163       -2.49535606
 C            1.13925339       -2.42401305       -1.25942561
 C            2.16019908       -2.56609962        0.93833739
 C            1.06524174       -2.75939059        0.10409818
 C            2.93920776       -0.65497579        2.01119308
 C            1.97423724       -1.73872942        2.10939099
 C            2.86461608        1.57193764        1.02839783
 C            2.47254316        0.66091791        2.02844138
 C            2.07630202        2.69296589        0.76629376
 C            1.99656614        1.97315896       -1.55689503
 C            1.70761386        2.95107090       -0.61560433
 C            1.06028374       -0.04040809       -2.57804078
 C            0.93257277        1.30891127       -2.20060578
 C           -0.03905090       -2.07111012       -1.91713658
 C           -0.07565983       -0.84470475       -2.59102112
 C           -1.21889296       -2.66983017       -1.49106887
 C           -0.19278893       -2.81501873        0.70388281
 C           -1.27271405       -3.12493679       -0.11848854
 C            0.67410560       -1.43870190        2.50197807
 C           -0.39359648       -2.13013201        1.91688534
 C            1.33388876        0.91004498        2.79350302
 C            0.43739790       -0.19732721        3.09269631
 C            0.92247254        2.99869346        1.59192622
 C            0.51643030        2.08381279        2.54539743
 C            0.41535116        3.58949321       -0.62735266
 C           -0.07776819        3.62051115        0.74185984
 C           -0.34108692        1.90599961       -2.24925380
 C           -0.62373918        3.01956143       -1.45465462
 C           -1.28708771       -0.25697028       -2.92180857
 C           -1.41676637        1.17963783       -2.76353079
 C           -2.50326740       -2.07507255       -1.81701778
 C           -2.53716136       -0.87860179       -2.51736094
 C           -2.63077475       -2.96435723        0.35743997
 C           -3.37877531       -2.25291484       -0.66682864
 C           -1.68418648       -1.84090824        2.36446724
 C           -2.84220893       -2.29096932        1.61615509
 C           -0.91642919        0.33162770        3.15363382
 C           -0.88100835        1.67434842        2.60077456
 C           -1.97591177       -0.49847090        2.83060169
 C           -1.42904257        3.08564674        0.72801787
 C           -1.84317969        3.04106907       -0.66111718
 C           -1.75564591        2.02486139        1.56975460
 C           -2.75167795        1.44506253       -2.25025874
 C           -3.43121489        0.17424502       -2.06909819
 C           -2.88279272        2.20100785       -1.01911704
 C           -3.99316052       -1.08780176       -0.04780433
 C           -3.68284609       -1.12776072        1.36947894
 C           -3.03392248        0.01918738        1.98235178
 C           -2.80179232        1.16393489        1.22111415
 C           -3.94773022        0.13199495       -0.71110127
 C           -3.43869625        1.30633667       -0.01498283




