%chk=001737.chk
%mem=8GB
%Nproc=32
#p B3LYP/6-31G* opt pop=NPA

Template file

0 1
 C            3.84617557       -0.76687559        1.07851915
 C            3.38233861       -2.09353391        0.74594746
 C            3.28260669       -2.18617505       -0.70302381
 C            4.08164973       -0.05164184       -0.16764906
 C            3.60757045       -0.88554842       -1.25570999
 C            3.53474374        1.28502688       -0.00791938
 C            3.00371893        0.07604384        1.90637435
 C            3.15725933        1.42211131        1.39189940
 C            1.73342356       -0.36657488        2.28431580
 C            2.11984523       -2.54130208        1.29580364
 C            1.40226320       -1.72570984        2.16796383
 C            1.99809187       -2.79040412       -1.01865837
 C            1.39795880       -3.21953628        0.23461026
 C            1.18524077       -2.22509830       -1.99577511
 C            2.76944146       -0.33345911       -2.21312335
 C            1.60046342       -1.07488229       -2.66733550
 C            2.70719339        1.82240888       -0.99548529
 C            2.39924107        1.07337634       -2.13036557
 C            1.91602042        2.92265725       -0.67904922
 C            2.21320866        2.37351949        1.73602907
 C            1.78497709        3.31050357        0.71477648
 C            0.74294766        0.58150989        2.58161702
 C            1.02344789        1.94406192        2.45262428
 C           -0.56911828        0.17651590        2.83643873
 C            0.11778606       -2.14396272        2.49193133
 C           -0.85405689       -1.17671659        2.95709858
 C            0.01203635       -3.30811599        0.33388019
 C           -0.56552520       -3.04700335        1.57605587
 C           -0.16045977       -2.57303597       -2.01303267
 C           -0.75265421       -3.17913601       -0.82848291
 C           -1.13819219       -1.66126673       -2.58743633
 C            0.61408346       -0.10391108       -3.11572112
 C            1.09649143        1.22425479       -2.76238325
 C           -0.74139579       -0.38815167       -2.99755565
 C            0.61214711        3.07966108       -1.30850465
 C            0.19767094        2.17619056       -2.28560446
 C            0.39267236        3.63732143        0.96519071
 C           -0.04828832        2.86413686        2.10820366
 C           -0.33231031        3.50518573       -0.28464141
 C           -1.61967078        1.07787829        2.65877528
 C           -1.35279932        2.39979753        2.12293564
 C           -2.87410367        0.62154706        2.07897993
 C           -2.17172749       -1.66337071        2.57932044
 C           -1.98986568       -2.78877108        1.67703195
 C           -3.11132490       -0.74233328        1.96584577
 C           -2.14715824       -2.75750406       -0.76267661
 C           -2.39453345       -1.85103712       -1.87326299
 C           -2.74428408       -2.52207244        0.46926180
 C           -3.50986852       -1.30270593        0.68261270
 C           -3.26410596       -0.78017811       -1.71254331
 C           -3.77802101       -0.45741618       -0.38942563
 C           -1.63841236        0.67406305       -2.93570675
 C           -1.16761717        1.97269806       -2.47928351
 C           -2.96862446        0.46670244       -2.39024762
 C           -1.61029602        2.95520166       -0.27828404
 C           -2.18477344        2.56080232        0.93591476
 C           -3.19589987        1.50971757        0.97177465
 C           -3.69090749        0.98505402       -0.21507838
 C           -2.10629097        2.45175203       -1.47646015
 C           -3.25042943        1.55773100       -1.47130665




