%chk=000505.chk
%mem=8GB
%Nproc=32
#p B3LYP/6-31G* opt pop=NPA

Template file

0 1
 C            4.49606366        0.55663116       -1.19401734
 C            4.31175935       -0.86781733       -0.97525849
 C            4.32845574       -1.10091569        0.45048883
 C            4.36513226        1.21500598        0.09462657
 C            4.46609853        0.19170687        1.11082693
 C            3.17396688        2.04855839        0.04688526
 C            3.40743566        1.01729748       -2.04024229
 C            2.68412593        2.03325332       -1.32081046
 C            3.14097732       -1.27699086       -1.72161329
 C            2.66163768       -0.13477891       -2.48519630
 C            2.19135837       -2.10698774       -1.13236077
 C            3.19782900       -1.78311177        1.05502641
 C            2.11567796       -2.18791796        0.26768952
 C            3.52468785        0.22268464        2.20926090
 C            2.92257553       -1.09589664        2.29820459
 C            2.23689053        2.02348008        1.08882907
 C            2.43318761        1.18637481        2.19131373
 C            0.93934905        2.47671511        0.82064336
 C            1.31545482        2.12114668       -1.49769740
 C            0.61340917        2.77777094       -0.50553650
 C            1.28492633       -0.01508541       -2.66983909
 C            0.62905684        1.15424265       -2.25024557
 C            1.03141361       -2.30294578       -1.86923534
 C            0.56669448       -1.20263068       -2.70254053
 C           -0.13113584       -2.88500266       -1.23474855
 C            0.86717003       -2.36879101        0.88302301
 C           -0.18414822       -2.93727773        0.15513713
 C            1.53940363       -0.90842912        2.67514119
 C            1.28313677        0.51476662        2.77312392
 C            0.56782187       -1.67928828        2.06615298
 C           -0.08895988        2.15038083        1.71428400
 C            0.00963956        0.97180906        2.44548904
 C           -1.35079399        2.69457636        1.51264744
 C           -0.67346039        3.17511744       -0.81330834
 C           -1.58623829        3.41590996        0.27885687
 C           -0.77597723        1.20794451       -2.25487406
 C           -1.37752149        2.38639561       -1.80858243
 C           -0.87950024       -1.17127947       -2.62496002
 C           -1.28587069       -2.40655691       -1.98144531
 C           -1.52108228        0.01619994       -2.28972800
 C           -2.53209700       -2.46720442       -1.38642972
 C           -1.43285177       -3.06353207        0.76702383
 C           -2.62087237       -3.06635289       -0.06890765
 C           -0.74803011       -1.31463933        2.29473140
 C           -1.04943787        0.05357800        2.39059040
 C           -1.71889076       -2.22343815        1.91570822
 C           -2.51783394        1.86367139        1.76521859
 C           -2.34369198        0.52399327        2.11395051
 C           -2.91962338        3.10185086       -0.19363674
 C           -2.78017529        2.38584282       -1.45226403
 C           -3.51615215        2.18892379        0.76070047
 C           -2.82664300       -0.04260513       -1.77145207
 C           -3.36155619       -1.27257168       -1.37893434
 C           -3.45180055        1.11467304       -1.30785357
 C           -4.09154042        1.09786010        0.00474235
 C           -3.68373368       -2.39650791        0.65871242
 C           -3.09619573       -1.79661434        1.84362076
 C           -3.36889102       -0.37608731        1.80698182
 C           -4.17185112       -1.31448307       -0.17470693
 C           -4.21877915       -0.12262146        0.64679363




