%chk=001771.chk
%mem=8GB
%Nproc=32
#p B3LYP/6-31G* opt pop=NPA

Template file

0 1
 C            3.37093003       -1.79760477        1.13025116
 C            3.88244356       -0.65867945        0.38394493
 C            3.61011127        0.53390815        1.16964662
 C            2.66959197       -1.28369361        2.29660194
 C            2.68420714        0.15797958        2.22800244
 C            1.39283308       -1.94672029        2.37421913
 C            2.49941355       -2.75966501        0.47189268
 C            1.30896045       -2.91076537        1.28857477
 C            2.37401049       -2.73720941       -0.90637763
 C            3.73234034       -0.62130698       -0.99791962
 C            3.09885436       -1.73865057       -1.67897169
 C            3.27065008        0.59983969       -1.64134048
 C            3.42780824        1.75123285        0.52930371
 C            3.18537968        1.77448499       -0.90878117
 C            2.52451292        2.71092135        1.13953530
 C            1.49287117        0.86932717        2.38018583
 C            1.50039517        2.22056638        2.04751581
 C            0.25638868       -1.21126244        2.67773940
 C            0.26872113        0.18643488        2.49376060
 C           -0.93946058       -1.90428603        2.56647100
 C            0.06178668       -3.13191915        0.69980585
 C           -1.05804870       -2.88511301        1.49840856
 C            1.05804870       -2.88511301       -1.49840856
 C           -0.06178668       -3.13191915       -0.69980585
 C            2.18676176       -1.19048325       -2.67056431
 C            2.16343871        0.24442153       -2.51225596
 C            0.93946058       -1.90428603       -2.56647100
 C            0.94081657        0.89769138       -2.35881580
 C            2.06074173        2.66213517       -1.14814021
 C            1.85396249        3.42161954        0.06845879
 C            0.94244366        2.19776186       -1.84394192
 C            0.25944831        2.88253857        1.69884991
 C            0.49123436        3.66649629        0.48883281
 C           -0.94081657        0.89769138        2.35881580
 C           -0.94244366        2.19776186        1.84394192
 C           -2.18676176       -1.19048325        2.67056431
 C           -2.16343871        0.24442153        2.51225596
 C           -2.37401049       -2.73720941        0.90637763
 C           -3.09885436       -1.73865057        1.67897169
 C           -1.30896045       -2.91076537       -1.28857477
 C           -2.49941355       -2.75966501       -0.47189268
 C           -0.25638868       -1.21126244       -2.67773940
 C           -0.26872113        0.18643488       -2.49376060
 C           -1.39283308       -1.94672029       -2.37421913
 C           -1.49287117        0.86932717       -2.38018583
 C           -0.25944831        2.88253857       -1.69884991
 C           -0.49123436        3.66649629       -0.48883281
 C           -1.50039517        2.22056638       -2.04751581
 C           -2.06074173        2.66213517        1.14814021
 C           -1.85396249        3.42161954       -0.06845879
 C           -2.52451292        2.71092135       -1.13953530
 C           -3.27065008        0.59983969        1.64134048
 C           -3.73234034       -0.62130698        0.99791962
 C           -3.18537968        1.77448499        0.90878117
 C           -3.42780824        1.75123285       -0.52930371
 C           -3.37093003       -1.79760477       -1.13025116
 C           -2.66959197       -1.28369361       -2.29660194
 C           -2.68420714        0.15797958       -2.22800244
 C           -3.88244356       -0.65867945       -0.38394493
 C           -3.61011127        0.53390815       -1.16964662




