%chk=000448.chk
%mem=8GB
%Nproc=32
#p B3LYP/6-31G* opt pop=NPA

Template file

0 1
 C            4.64152410        0.94342588       -0.16762744
 C            4.35526501        0.02767522       -1.25679150
 C            4.37597425       -1.30583371       -0.69851741
 C            4.40487673        0.22555568        1.07451394
 C            4.27767574       -1.17592349        0.75121037
 C            3.30343781        0.87710603        1.75209583
 C            3.67637015        2.02545139       -0.23874258
 C            3.00515455        2.11068433        1.04006911
 C            3.14849121        0.49454974       -1.92621180
 C            2.84901204        1.81777067       -1.40625606
 C            2.08949104       -0.38735508       -2.17619831
 C            3.34921763       -2.23320656       -1.11684038
 C            2.25121378       -1.75262176       -1.94229499
 C            3.07890385       -1.88068808        1.17014675
 C            2.75265013       -2.78080467        0.08914611
 C            2.23614420        0.12694149        2.24615801
 C            2.03577231       -1.18903389        1.79533394
 C            1.14786795        0.85233299        2.71385686
 C            1.68911507        2.56184451        1.05696335
 C            0.90026974        2.16133388        2.13138754
 C            1.51834337        2.18969091       -1.32201522
 C            1.06255920        2.83190736       -0.16475578
 C            0.79374192        0.13075363       -2.30997350
 C            0.60154322        1.49757281       -2.10447130
 C           -0.31273653       -0.73452504       -2.29975254
 C            1.09774046       -2.52788016       -1.54346912
 C            1.35669491       -3.00169281       -0.19928428
 C           -0.17124836       -2.02569466       -1.78214527
 C            0.73438314       -1.72349958        1.74105721
 C            0.41079456       -2.67838055        0.76008437
 C           -0.13133481        0.20049048        2.89423918
 C           -0.29731174       -1.11135009        2.46956951
 C           -0.53670777        2.37320412        2.09065563
 C           -1.17545866        1.17498141        2.60476116
 C           -0.24871540        3.30055490       -0.15457637
 C           -1.09029723        3.01920226        1.00041348
 C           -0.65925724        2.04816770       -2.26616045
 C           -1.05789120        3.09509011       -1.34363877
 C           -1.60918371       -0.21360935       -2.44509682
 C           -1.79766582        1.17101266       -2.46262529
 C           -2.70669642       -1.03982609       -2.17754045
 C           -1.19909877       -2.52222909       -0.98972554
 C           -0.91502418       -2.78449786        0.35916782
 C           -2.49489082       -2.24572754       -1.39792946
 C           -1.60333262       -1.58550825        2.34297089
 C           -1.88207575       -2.57768436        1.32937149
 C           -2.37604890        0.72230036        2.06187706
 C           -2.68920075       -0.61885295        2.28024906
 C           -2.39212557        2.59590720        0.51709842
 C           -2.41504849        2.81879773       -0.91673262
 C           -2.93545405        1.76334286       -1.76185107
 C           -2.99112543        1.43841263        1.01724420
 C           -3.94360525       -0.43608679       -1.71406792
 C           -3.88942847        0.91999789       -1.21781767
 C           -3.98620645        0.84069228        0.23533602
 C           -3.59111872       -2.38537513       -0.45927216
 C           -3.27567371       -2.45080928        0.94877728
 C           -3.79150865       -1.24321663        1.57680378
 C           -4.49291522       -1.26592376       -0.65555584
 C           -4.48584140       -0.47891390        0.56737952




