%chk=000117.chk
%mem=8GB
%Nproc=32
#p B3LYP/6-31G* opt pop=NPA

Template file

0 1
 C            4.75796846       -0.59664220       -0.00905030
 C            4.71474981        0.81049817       -0.35267745
 C            4.07360864        1.50526408        0.74610139
 C            4.07106809       -0.76707355        1.26259294
 C            3.54031708        0.51217069        1.66549497
 C            3.14252053       -1.85341679        1.10276411
 C            3.98908931       -1.31627613       -1.00843207
 C            3.14900029       -2.24708497       -0.29880168
 C            3.84725774        0.96014863       -1.50912788
 C            3.33179967       -0.35150610       -1.85854002
 C            3.14258368        2.44739474        0.16476681
 C            2.89270595        2.01209087       -1.20361891
 C            2.04636218        2.79649220        0.92969806
 C            2.19804947        0.61484689        2.04448692
 C            1.62724439        1.88194082        1.98685338
 C            1.90374755       -1.78702300        1.73134782
 C            1.36257295       -0.52222349        2.03672459
 C            1.03639521       -2.81392564        1.39116961
 C            1.91940010       -2.58771385       -0.84277101
 C            1.10037073       -3.29476776        0.02040289
 C            1.96240519       -0.48489887       -2.06751870
 C            1.31172450       -1.68835348       -1.74140537
 C            1.57055551        1.85460411       -1.62130178
 C            1.20555622        0.66924257       -2.26441164
 C            0.83467592        3.17695374        0.24117104
 C            0.57856039        2.63358046       -1.01644422
 C            0.19593892        2.03676242        2.13792117
 C           -0.20150336        3.11268706        1.24494402
 C           -0.03922760       -0.37020671        2.16086244
 C           -0.61354259        0.91123339        2.22610011
 C           -0.35528857       -2.72389719        1.75249316
 C           -0.87329663       -1.50103062        2.15772564
 C           -0.23548234       -3.62171203       -0.40096492
 C           -1.08780291       -3.49577143        0.76511344
 C           -0.05738740       -1.81916438       -2.04568886
 C           -0.81864876       -2.82817601       -1.45610673
 C           -0.08613391        0.53690291       -2.74154600
 C           -0.72565492       -0.76471075       -2.66391759
 C           -0.75183311        2.50036287       -1.42674333
 C           -1.07146980        1.54260155       -2.38946214
 C           -1.51119071        3.14757377        0.81393582
 C           -1.75909149        3.02417380       -0.61314991
 C           -1.98834699        1.07819791        2.03077220
 C           -2.45861195        2.26252132        1.45512799
 C           -2.26148570       -1.34540963        2.12336388
 C           -2.83458841       -0.01613288        2.15256801
 C           -2.36176347       -2.98240770        0.31781808
 C           -2.19720896       -2.55795324       -1.07046528
 C           -3.04372216       -2.14300361        1.18037701
 C           -2.14293259       -0.55030723       -2.39697288
 C           -2.37241095        0.88860185       -2.37838940
 C           -2.81770941       -1.38552709       -1.50444835
 C           -3.12921561        2.55586717       -0.75876912
 C           -3.61338979        2.23465799        0.57561841
 C           -3.40111279        1.41452519       -1.61090472
 C           -4.07737901       -0.06290265        1.39465495
 C           -4.05281547       -1.27952934        0.60887189
 C           -3.90842927       -0.89501930       -0.78354773
 C           -4.39344360        1.02095719        0.48623061
 C           -4.26410826        0.51091326       -0.87289540




