%chk=001345.chk
%mem=8GB
%Nproc=32
#p B3LYP/6-31G* opt pop=NPA

Template file

0 1
 C            4.12873752       -0.72282178       -0.07683265
 C            3.69490309       -1.01095367       -1.42567220
 C            3.32482793        0.25015895       -2.05144022
 C            4.12873752        0.72282178        0.07683265
 C            3.36602894        1.27352087       -1.02893781
 C            3.69490309        1.01095367        1.42567220
 C            3.36602894       -1.27352087        1.02893781
 C            3.32482793       -0.25015895        2.05144022
 C            2.20752099       -2.00577205        0.76987742
 C            2.58715728       -1.92496950       -1.61290978
 C            1.98907798       -2.53105860       -0.51450355
 C            2.08012660        0.03846767       -2.76309461
 C            1.72698811       -1.36816824       -2.64065753
 C            1.06852060        0.98335287       -2.66279044
 C            2.20752099        2.00577205       -0.76987742
 C            1.17708575        2.01791777       -1.72403892
 C            2.58715728        1.92496950        1.61290978
 C            1.98907798        2.53105860        0.51450355
 C            2.08012660       -0.03846767        2.76309461
 C            1.72698811        1.36816824        2.64065753
 C            1.17708575       -2.01791777        1.72403892
 C            1.06852060       -0.98335287        2.66279044
 C            0.13377505       -2.93090836        1.59413939
 C            0.82679559       -3.24639277       -0.76710558
 C           -0.01693974       -3.63701561        0.34116630
 C            0.37872237       -1.73310771       -2.65532451
 C           -0.03240184       -2.80369714       -1.85783687
 C           -0.18747555        0.61103647       -3.12844189
 C           -0.56335848       -0.79376726       -3.07657253
 C           -1.35610530        1.40876286       -2.80131955
 C            0.13377505        2.93090836       -1.59413939
 C           -1.19660353        2.56881655       -2.05583655
 C            0.82679559        3.24639277        0.76710558
 C           -0.01693974        3.63701561       -0.34116630
 C            0.37872237        1.73310771        2.65532451
 C           -0.03240184        2.80369714        1.85783687
 C           -0.18747555       -0.61103647        3.12844189
 C           -0.56335848        0.79376726        3.07657253
 C           -1.19660353       -2.56881655        2.05583655
 C           -1.35610530       -1.40876286        2.80131955
 C           -1.40032440       -3.50835185       -0.08391455
 C           -1.40978885       -2.87866327       -1.39356327
 C           -2.14353324       -2.88619524        0.99555680
 C           -1.93343218       -0.86607125       -2.59049564
 C           -2.44857039        0.49515274       -2.50361405
 C           -2.27470952       -1.81463451       -1.62858882
 C           -3.37460692        0.82144088       -1.52191821
 C           -2.14353324        2.88619524       -0.99555680
 C           -1.40032440        3.50835185        0.08391455
 C           -1.40978885        2.87866327        1.39356327
 C           -3.14581502        1.97972575       -0.67257800
 C           -1.93343218        0.86607125        2.59049564
 C           -2.44857039       -0.49515274        2.50361405
 C           -2.27470952        1.81463451        1.62858882
 C           -3.28956342        1.54457475        0.70938898
 C           -3.14581502       -1.97972575        0.67257800
 C           -3.28956342       -1.54457475       -0.70938898
 C           -3.91703942       -0.23508110       -0.68866625
 C           -3.37460692       -0.82144088        1.52191821
 C           -3.91703942        0.23508110        0.68866625




