%chk=000908.chk
%mem=8GB
%Nproc=32
#p B3LYP/6-31G* opt pop=NPA

Template file

0 1
 C           -3.39851975       -2.08005497       -1.60330344
 C           -3.89607181       -1.65286123       -0.30868554
 C           -3.00499994       -2.17250164        0.71273369
 C           -2.19135751       -2.85501351       -1.37991167
 C           -2.00341799       -2.99896217        0.04780202
 C           -1.12056318       -2.24637348       -2.13959503
 C           -3.02475241       -0.88735649       -2.34332149
 C           -1.62663941       -0.99754697       -2.68144198
 C           -4.10711223       -0.22368831       -0.37123802
 C           -3.44937479        0.26318168       -1.57979599
 C           -3.95634552        0.50564272        0.79717387
 C           -2.61573410       -1.34436728        1.76954533
 C           -3.14949125       -0.05517239        1.87830828
 C           -1.42490818       -1.63143582        2.43561868
 C           -0.70493536       -2.99715020        0.54206926
 C           -0.52392506       -2.61668840        1.86575353
 C            0.15836282       -2.24462935       -1.58929899
 C            0.36552286       -2.86432025       -0.35232484
 C            1.06041050       -1.26476815       -2.01296453
 C           -0.81384069        0.12002538       -2.57782130
 C            0.55536591       -0.09658349       -2.60032093
 C           -2.60965611        1.37435619       -1.49134297
 C           -1.30375084        1.31688911       -2.02245253
 C           -3.60527058        1.90771042        0.67548279
 C           -2.92980673        2.33665566       -0.53429985
 C           -2.30794267        1.01374816        2.39782171
 C           -2.74505190        2.25247157        1.79427673
 C           -0.60181626       -0.53573640        2.92852055
 C           -0.95170933        0.76407402        2.59908211
 C            0.81101527       -2.31268141        2.34122010
 C            0.78291285       -0.94899161        2.85179095
 C            1.66539502       -2.92955571        0.14364535
 C            1.89108795       -2.69918842        1.56516768
 C            2.38807035       -1.32929330       -1.57477190
 C            2.72666630       -2.24825428       -0.58085382
 C            3.29046948       -0.32116263       -1.91919601
 C            1.36720657        1.00532025       -2.77914690
 C            2.78958110        0.89224351       -2.52895370
 C           -0.41191576        2.38771171       -1.81207364
 C            0.91533519        2.26498817       -2.22730235
 C           -1.93972658        3.30814317       -0.13240810
 C           -1.74382686        3.16928865        1.30482637
 C           -0.63634625        3.25580126       -0.74770363
 C            0.02508933        1.62946664        2.07522012
 C           -0.34403903        2.85101044        1.51488387
 C            0.34527834        3.29319507        0.32366113
 C            1.74608296       -0.04676550        2.41548622
 C            1.33047526        1.16744557        1.84873294
 C            3.11660502       -1.93278401        1.69292999
 C            3.75287321       -1.91213758        0.39179114
 C            3.01288504       -0.55446368        2.13876505
 C            4.30499129        0.09376816       -0.96360476
 C            4.43638717       -0.64031585        0.27699643
 C            3.94075678        0.22068911        1.34635947
 C            3.17011940        2.00201280       -1.66674743
 C            1.94665257        2.68061521       -1.29265738
 C            1.60082785        2.77663780        0.05158877
 C            2.16365138        1.86903918        0.95595410
 C            4.00614874        1.46913520       -0.61092683
 C            3.47662156        1.44953766        0.74125732




