%chk=001260.chk
%mem=8GB
%Nproc=32
#p B3LYP/6-31G* opt pop=NPA

Template file

0 1
 C            4.00684306        1.53105289       -0.47568947
 C            4.05001316        1.15732528        0.91987380
 C            4.18237522       -0.29028567        0.97298280
 C            4.09746080        0.30516891       -1.25447011
 C            3.83427740       -0.79119125       -0.34140850
 C            3.23935194        0.46405557       -2.40929432
 C            2.85235744        2.25742346       -0.96446378
 C            2.57139633        1.75052360       -2.29078420
 C            1.77162044        2.50782726       -0.12264032
 C            2.92848155        1.50861620        1.76829078
 C            1.78731169        2.08295652        1.21407148
 C            3.42071711       -0.74811299        2.11056652
 C            2.75731540        0.41011070        2.69570918
 C            2.39652645       -1.74806949        1.90077854
 C            2.67559046       -1.55796682       -0.51037932
 C            2.03174697       -2.12470422        0.60627806
 C            2.20967061       -0.52539593       -2.64406933
 C            2.06623227       -1.60402053       -1.77405440
 C            1.18036280        1.56339381       -2.67062436
 C            1.01153747        0.17997942       -3.06952974
 C            0.54098579        2.79590536       -0.70854246
 C            0.18823508        2.13711948       -1.89338061
 C           -0.47149674        3.24883138        0.12711678
 C            0.57345912        1.94553937        1.89316542
 C           -0.50004028        2.72541870        1.48097992
 C            1.40540083        0.00023156        3.04376948
 C            1.34864115       -1.43773017        2.84959527
 C            0.32556472        0.77685910        2.62097990
 C            0.11150225       -2.02318425        2.66124294
 C            0.82642586       -2.81167463        0.43941372
 C           -0.08046419       -2.87850735        1.50206145
 C            0.94578439       -2.40125647       -1.96150526
 C            0.40870830       -3.14403668       -0.84199494
 C           -0.21804132       -0.44642257       -2.86540999
 C           -0.18479052       -1.82553946       -2.67354102
 C           -1.10821141        1.65349962       -2.03856274
 C           -1.30157252        0.29915356       -2.36141588
 C           -1.83375237        3.26054181       -0.37241647
 C           -2.14184306        2.41111625       -1.50355116
 C           -1.84938780        2.25614667        1.73450183
 C           -2.69979428        2.85611559        0.71909192
 C           -0.94675231        0.19320258        2.58120849
 C           -1.06992321       -1.18621514        2.75298361
 C           -2.03929207        0.92801774        2.11257617
 C           -1.51421169       -2.91859900        1.24309736
 C           -2.13815568       -1.89829931        2.07604034
 C           -1.00477173       -3.35973590       -1.10885049
 C           -1.37361315       -2.51684365       -2.23675728
 C           -1.97144514       -3.13050044       -0.05041270
 C           -2.50517318       -0.34989437       -2.02159784
 C           -2.51988334       -1.73169304       -1.84536320
 C           -3.01675272       -2.27737870       -0.59222215
 C           -3.42039781        1.79243466       -1.24160175
 C           -3.77354967        2.07252396        0.14516491
 C           -3.55514365        0.36911007       -1.45460665
 C           -3.22888415        0.26723045        1.78639925
 C           -3.21794843       -1.17325110        1.59390767
 C           -3.73109761       -1.44088203        0.25598838
 C           -4.11449242        0.81357178        0.77253822
 C           -4.21501364       -0.17961215       -0.28123374




