%chk=000288.chk
%mem=8GB
%Nproc=32
#p B3LYP/6-31G* opt pop=NPA

Template file

0 1
 C            3.55889426        2.76231041       -0.54738186
 C            2.89826320        3.44908069        0.54738186
 C            1.58508602        3.83636760        0.08107104
 C            2.59868795        2.60296303       -1.62998228
 C            1.38786650        3.28870673       -1.24934031
 C            2.51345052        1.19266141       -1.95054902
 C            3.89495839        1.43510042       -0.08107104
 C            3.46740370        0.49814673       -1.10224186
 C            2.70179425        2.49577711        1.62998228
 C            3.34006046        1.25927024        1.24934031
 C            0.63225467        3.44547423        1.10224186
 C            1.28924785        2.46530216        1.95054902
 C           -0.65178411        3.14616254        0.68668059
 C            0.16326147        2.68481316       -1.49502161
 C           -0.88954569        3.08737263       -0.68668059
 C            1.25886624        0.60830045       -2.15223978
 C            0.10144788        1.39516920       -2.04938270
 C            1.15752803       -0.78544104       -2.04938270
 C            3.11851597       -0.77331715       -0.68668059
 C            2.24348566       -1.48379516       -1.49502161
 C            2.68912513        0.05900855        1.49502161
 C            3.05054874       -1.00861967        0.68668059
 C            0.65666770        1.23432620        2.15223978
 C            1.39805409        0.04726011        2.04938270
 C           -1.39566547        2.29934641        1.49502161
 C           -0.73995551        1.18712030        2.04938270
 C           -2.76059025        2.26294209        1.24934031
 C           -2.16510958        2.75378633       -1.10224186
 C           -3.19031261        2.65558270       -0.08107104
 C           -1.15623676        0.78605991       -2.15223978
 C           -2.28960034        1.58038129       -1.95054902
 C           -0.10262947       -1.39436037       -2.15223978
 C           -1.25897591       -0.60972816       -2.04938270
 C           -0.22385018       -2.77304271       -1.95054902
 C            2.15417032       -2.84628101       -1.24934031
 C            0.95488814       -3.55201129       -1.62998228
 C            2.66774088       -2.27028572        1.10224186
 C            2.52984879       -3.29090856        0.08107104
 C            0.74062400       -1.18585401        2.15223978
 C            1.49039038       -2.34917247        1.95054902
 C           -1.39729170       -0.04847219        2.15223978
 C           -0.65809859       -1.23438042        2.04938270
 C           -3.51230351        1.09193390        1.62998228
 C           -2.77963823       -0.11612969        1.95054902
 C           -4.17167812        1.70093763       -0.54738186
 C           -3.55357608        0.94904826       -1.62998228
 C           -4.43612310        0.78542922        0.54738186
 C           -2.40674713       -1.20101799       -1.49502161
 C           -3.29999554       -1.17518851        1.10224186
 C           -3.54203683       -0.44242572       -1.24934031
 C           -4.11493481       -0.54545904        0.08107104
 C           -1.30229413       -3.25193306       -1.10224186
 C           -1.29345967       -2.35835495        1.49502161
 C           -2.22897028       -2.31405547       -0.68668059
 C           -2.39876463       -2.13754287        0.68668059
 C            0.61278386       -4.46324804       -0.54738186
 C            1.53785989       -4.23450990        0.54738186
 C            0.81050925       -3.58771101        1.62998228
 C           -0.70464578       -4.09068312       -0.08107104
 C           -0.57947021       -3.52221232        1.24934031




