%chk=001432.chk
%mem=8GB
%Nproc=32
#p B3LYP/6-31G* opt pop=NPA

Template file

0 1
 C            4.30456224       -0.55448938       -0.47714967
 C            4.17586836        0.62319914        0.35361806
 C            3.69727150        1.69854344       -0.49400118
 C            3.64690620       -0.27522584       -1.74812746
 C            3.19181265        1.09973333       -1.71774666
 C            2.67149045       -1.32141594       -1.98075590
 C            3.77630536       -1.80572572        0.01997050
 C            2.95658189       -2.37491174       -1.03520938
 C            2.97550476       -1.80932589        1.23513702
 C            3.31228390        0.57685765        1.52192434
 C            2.70264475       -0.61903745        1.90989825
 C            2.79102348        2.51571543        0.29433468
 C            2.53681954        1.81027850        1.54206206
 C            1.72372588        3.10998652       -0.35771141
 C            1.88817784        1.39618896       -2.10466640
 C            1.34610090        2.60376617       -1.66852457
 C            1.34236417       -0.96787151       -2.19697066
 C            1.02787468        0.36161352       -2.49378497
 C            0.31894152       -1.87343972       -1.87010503
 C            1.83449814       -3.02686700       -0.40448251
 C            1.90479258       -2.77123965        1.02680311
 C            0.58812121       -2.94902127       -1.00323240
 C            0.70683535       -2.64481427        1.73418862
 C            1.57970086       -0.55692415        2.72733634
 C            0.57178112       -1.60753391        2.65828640
 C            1.24987803        1.79064998        2.07969481
 C            0.88852342        0.71271834        2.88571837
 C            0.49335786        3.33060061        0.37444205
 C            0.25939205        2.63283543        1.55960457
 C           -0.06931736        2.87335676       -1.85409929
 C           -0.56868567        3.44824665       -0.61352314
 C           -0.26218850        0.67069758       -2.90772774
 C           -0.84229566        1.95605117       -2.55033420
 C           -1.00521888       -1.57600525       -2.23363791
 C           -1.30216630       -0.33508377       -2.79539034
 C           -2.05633252       -2.36943556       -1.77233881
 C           -0.44852652       -3.47569178       -0.25373758
 C           -0.44374608       -3.20693152        1.17500927
 C           -1.80113366       -3.34083364       -0.73410959
 C           -1.74712231       -2.65022898        1.49827846
 C           -2.63532342       -2.99547896        0.40542996
 C           -0.73028821       -0.98449607        2.86452337
 C           -0.51270212        0.42539932        3.13632571
 C           -1.81359361       -1.39132726        2.08983458
 C           -1.04746204        2.53928724        2.03676558
 C           -1.46911517        1.34322006        2.74517523
 C           -1.88144269        3.22035490       -0.22245029
 C           -2.14787158        2.94920375        1.17850276
 C           -2.22529702        1.73407729       -2.16089015
 C           -2.54285674        0.34373544       -2.44068969
 C           -2.73234822        2.34529756       -1.01681061
 C           -3.32746594       -1.74531955       -1.44805467
 C           -3.59756391       -2.01745186       -0.04344742
 C           -3.48015346       -0.31644912       -1.65763489
 C           -2.78177905       -0.45599159        1.68729136
 C           -2.69034920        0.86624015        2.12102712
 C           -3.17683986        1.92589351        1.25203632
 C           -3.57855563        1.58967620       -0.10307571
 C           -3.65626579       -0.74071709        0.63499666
 C           -3.88913356        0.26586081       -0.38779537




