%chk=000422.chk
%mem=8GB
%Nproc=32
#p B3LYP/6-31G* opt pop=NPA

Template file

0 1
 C            4.33580387        0.70727906       -1.38119927
 C            4.40976141        1.07593853        0.02253726
 C            4.38914416       -0.14713486        0.80127000
 C            4.05274774       -0.71561498       -1.45175793
 C            4.20714067       -1.25732702       -0.12175305
 C            2.77320816       -0.89009836       -2.12062519
 C            3.20553860        1.40702153       -1.96080445
 C            2.30071261        0.42088875       -2.52621309
 C            3.39357667        2.08222240        0.27678267
 C            2.67296031        2.31891175       -0.96357106
 C            2.67632834        2.03635257        1.46410464
 C            3.40841873       -0.28622494        1.86711351
 C            2.67332902        0.81729345        2.27041690
 C            3.14087908       -2.08525496        0.39452633
 C            2.72590118       -1.55432184        1.68096359
 C            1.84186493       -1.79504335       -1.61391950
 C            2.14441305       -2.54008157       -0.45933617
 C            0.50583811       -1.64693375       -2.00780509
 C            0.93756740        0.68348650       -2.45213737
 C            0.03635950       -0.38377555       -2.38341019
 C            1.29191772        2.49406327       -0.92757675
 C            0.54052304        1.91992990       -1.95037272
 C            1.32395376        2.56413241        1.48343473
 C            0.65640169        2.79926272        0.28195579
 C            1.31684774        0.61589598        2.74531390
 C            0.62481113        1.87589568        2.55017967
 C            1.38253177       -1.69994764        2.04056544
 C            0.65181747       -0.58198765        2.46857119
 C            1.11704950       -3.23714104        0.15919630
 C            0.70280712       -2.77713712        1.47888590
 C           -0.39873361       -2.65262651       -1.70017156
 C           -0.07645654       -3.53151076       -0.59962532
 C           -1.81210543       -2.34023385       -1.60568184
 C           -1.33754065       -0.09802772       -2.37054493
 C           -2.26651087       -1.07503474       -1.97305876
 C           -0.79385108        2.26323556       -2.05340463
 C           -1.72278222        1.24011653       -2.48723139
 C           -0.73798262        2.91415731        0.29720359
 C           -1.40970116        2.93085444       -0.92369937
 C           -0.75528327        1.87073182        2.52882966
 C           -1.43666696        2.58762648        1.46442752
 C           -0.75215410       -0.58518329        2.42464767
 C           -1.44185745        0.60183202        2.68097866
 C           -0.74339487       -2.82263406        1.52860247
 C           -1.19064250       -3.50214097        0.32613911
 C           -2.32422763       -2.94980317       -0.38081184
 C           -1.45184591       -1.70848706        1.96456944
 C           -3.25193712       -2.23838651        0.36144450
 C           -2.79617296       -1.59381840        1.58915041
 C           -3.55467074       -0.70969615       -1.56731594
 C           -4.08124613       -1.28575330       -0.34520765
 C           -3.03432479        1.67165918       -2.05029370
 C           -2.83304303        2.63866064       -0.98035898
 C           -3.96800871        0.67829461       -1.58084409
 C           -2.78050161        2.03111717        1.38769083
 C           -2.78175244        0.78836708        2.15571152
 C           -3.48355716       -0.31780795        1.70176771
 C           -4.37294132       -0.18929957        0.56089233
 C           -3.49906489        2.13013696        0.20197286
 C           -4.35119672        1.03310434       -0.22111425




