%chk=001335.chk
%mem=8GB
%Nproc=32
#p B3LYP/6-31G* opt pop=NPA

Template file

0 1
 C           -3.69857667        1.27264854        1.49885147
 C           -3.83539203       -0.16037250        1.56851773
 C           -4.14810337       -0.63423689        0.22781293
 C           -3.94585040        1.66479936        0.11816674
 C           -3.85706984        0.46055108       -0.67964678
 C           -3.05188005        2.75809695       -0.17951214
 C           -2.43383384        1.86494991        1.88056098
 C           -2.28639703        3.02020697        1.02799110
 C           -1.31331912        1.05484713        2.10021699
 C           -2.70691613       -0.93891493        2.02820023
 C           -1.45492444       -0.33688902        2.20686989
 C           -3.45195177       -1.89597466        0.04524689
 C           -2.78266421       -2.19163450        1.30436070
 C           -2.77357426       -2.11353415       -1.14832396
 C           -2.82424996        0.30934446       -1.60819550
 C           -2.49238455       -0.98202714       -2.02206001
 C           -2.09494672        2.60308925       -1.25737477
 C           -1.98459742        1.38937310       -1.93150364
 C           -0.95228181        3.37316713        0.61728696
 C           -0.88186585        3.28067779       -0.83189588
 C           -0.03448066        1.60989280        1.95528792
 C            0.11630721        2.86146765        1.32745250
 C            1.09161492        0.80677159        2.18246762
 C           -0.32005105       -1.15713823        2.21801795
 C            0.96280248       -0.58976509        2.15470021
 C           -1.65998058       -2.99886841        1.30107289
 C           -0.48984251       -2.53013904        2.01770568
 C           -1.60576017       -2.97966452       -1.15268782
 C           -1.17946519       -3.54768097        0.04137435
 C           -1.22547445       -1.23698943       -2.68358564
 C           -0.62360925       -2.40538617       -2.06484154
 C           -0.83598952        1.17827387       -2.69068174
 C           -0.42137383       -0.17027189       -3.03598661
 C            0.34421267        2.92626418       -1.40246309
 C            0.36329089        1.96014312       -2.41025061
 C            1.35321522        3.19298720        0.80855097
 C            1.49676072        3.13167204       -0.63858577
 C            2.35650615        1.39511383        2.15959515
 C            2.52914415        2.61471159        1.40559455
 C            3.51640376        0.58004334        1.87976163
 C            2.08600390       -1.40932504        1.91651774
 C            3.32445798       -0.83236069        1.66020201
 C            0.61374645       -3.31998531        1.52908841
 C            0.23366165       -3.82401860        0.21668807
 C            1.89577266       -2.67912493        1.38565943
 C            0.72945805       -2.39526784       -1.71825772
 C            1.18200884       -3.27514547       -0.73649454
 C            2.36036710       -2.93322687        0.03152225
 C            1.01282900       -0.26381057       -2.83158247
 C            1.51173390        1.07353953       -2.55148569
 C            1.55835281       -1.35118612       -2.15126510
 C            2.69879287        2.36009510       -0.91150563
 C            3.46018312        2.33139430        0.32894053
 C            4.17016575        1.12724887        0.69527858
 C            2.61410694        1.22397803       -1.71723436
 C            3.98190825       -1.17421518        0.40996422
 C            3.27237351       -2.04492333       -0.51160265
 C            2.85165708       -1.22616760       -1.64061297
 C            4.26613910        0.06588155       -0.28284669
 C            3.41282955        0.10701482       -1.45904190




