%chk=001352.chk
%mem=8GB
%Nproc=32
#p B3LYP/6-31G* opt pop=NPA

Template file

0 1
 C            0.66496800       -4.07480785        0.29473656
 C            0.54250527       -3.59895749        1.65434733
 C           -0.84201851       -3.21168967        1.86955341
 C           -0.66496800       -4.07480785       -0.29473656
 C           -1.54923925       -3.36349626        0.61071555
 C           -0.54250527       -3.59895749       -1.65434733
 C            1.54923925       -3.36349626       -0.61071555
 C            0.84201851       -3.21168967       -1.86955341
 C            2.30378104       -2.28693713       -0.14395044
 C            1.37546363       -2.49042380        2.07162851
 C            2.38009440       -2.02209643        1.23373503
 C           -0.84601981       -1.90761947        2.51090115
 C            0.53178251       -1.51036144        2.73498427
 C           -1.74044712       -0.95022313        2.06593700
 C           -2.30378104       -2.28693713        0.14395044
 C           -2.64368996       -1.28162789        1.05397134
 C           -1.37546363       -2.49042380       -2.07162851
 C           -2.38009440       -2.02209643       -1.23373503
 C            0.84601981       -1.90761947       -2.51090115
 C           -0.53178251       -1.51036144       -2.73498427
 C            2.64368996       -1.28162789       -1.05397134
 C            1.74044712       -0.95022313       -2.06593700
 C            3.62051586       -0.35918386       -0.69929718
 C            3.01861411       -0.85974081        1.64930916
 C            3.86787874       -0.15504013        0.71112480
 C            0.88681441       -0.16161402        2.64145586
 C            2.22256945        0.13148729        2.36361710
 C           -1.44501515        0.38749975        2.30068504
 C           -0.10387994        0.79467316        2.36491052
 C           -2.46003545        1.32113808        2.13600440
 C           -3.62051586       -0.35918386        0.69929718
 C           -3.61396982        0.94782483        1.33619339
 C           -3.01861411       -0.85974081       -1.64930916
 C           -3.86787874       -0.15504013       -0.71112480
 C           -0.88681441       -0.16161402       -2.64145586
 C           -2.22256945        0.13148729       -2.36361710
 C            1.44501515        0.38749975       -2.30068504
 C            0.10387994        0.79467316       -2.36491052
 C            3.61396982        0.94782483       -1.33619339
 C            2.46003545        1.32113808       -2.13600440
 C            3.73633394        1.26457917        0.98154002
 C            2.57892403        1.43857987        1.84721760
 C            3.77391452        1.95068361       -0.29371747
 C            0.26489628        2.08400548        1.94154047
 C            1.56398073        2.31795396        1.48661841
 C           -2.11632832        2.67943308        1.78607756
 C           -0.71785270        3.01176296        1.59909215
 C           -3.77391452        1.95068361        0.29371747
 C           -3.73633394        1.26457917       -0.98154002
 C           -2.57892403        1.43857987       -1.84721760
 C           -2.80042160        2.99232916        0.53973129
 C           -0.26489628        2.08400548       -1.94154047
 C           -0.61538240        3.68020079        0.31364869
 C           -1.56398073        2.31795396       -1.48661841
 C           -1.76384544        3.23166819       -0.44691507
 C            2.11632832        2.67943308       -1.78607756
 C            2.80042160        2.99232916       -0.53973129
 C            1.76384544        3.23166819        0.44691507
 C            0.71785270        3.01176296       -1.59909215
 C            0.61538240        3.68020079       -0.31364869




