%chk=000205.chk
%mem=8GB
%Nproc=32
#p B3LYP/6-31G* opt pop=NPA

Template file

0 1
 C            4.38167463       -0.95090384       -1.21574350
 C            4.73812389       -0.01414807       -0.16686882
 C            4.20431287       -0.52603336        1.08112431
 C            3.59478388       -2.01533087       -0.61554973
 C            3.42680065       -1.72089927        0.79001440
 C            2.40455628       -2.17709174       -1.41655094
 C            3.51785359       -0.25783506       -2.15557439
 C            2.36773510       -1.10300678       -2.39097642
 C            4.05723290        1.23950244       -0.43935068
 C            3.27676291        1.07724470       -1.65315379
 C            3.53849175        0.57389568        1.75281212
 C            3.36043858        1.63748302        0.77266239
 C            2.47236960        0.26482790        2.58221022
 C            2.15770789       -1.83924138        1.35648259
 C            1.86524908       -1.05343316        2.46490060
 C            1.20763416       -2.49018821       -0.78901493
 C            1.09784840       -2.36986066        0.60617540
 C            0.05244417       -2.35486963       -1.55121824
 C            1.13265694       -0.50603700       -2.61400636
 C            0.00958192       -1.31880590       -2.49072895
 C            1.97079634        1.55307691       -1.65597877
 C            0.98352168        0.86765573       -2.37440357
 C            2.10566354        2.23148762        0.64845519
 C            1.57851712        2.41283680       -0.63554829
 C            1.38366293        1.21722547        2.70320387
 C            1.24222931        2.21697304        1.74896990
 C            0.49267191       -0.93871002        2.90967251
 C            0.20802235        0.47414740        3.12251246
 C           -0.17507201       -2.48508474        1.18846388
 C           -0.48857753       -1.73263609        2.33427576
 C           -1.12003728       -2.88016024       -1.02931824
 C           -1.19804202       -3.03517083        0.40945299
 C           -2.40859444       -2.40856280       -1.50462592
 C           -1.20744793       -0.79654723       -2.90435801
 C           -2.45235952       -1.36452148       -2.41650579
 C           -0.29582350        1.43316760       -2.46789274
 C           -1.34764502        0.64719716       -2.94144137
 C            0.38488353        3.10047361       -0.78825074
 C           -0.58025179        2.60423673       -1.75609974
 C            0.01484539        2.86199588        1.65602925
 C           -0.34008172        3.49451047        0.40194105
 C           -1.06100070        0.96208271        2.81059437
 C           -1.17643068        2.20102711        2.17657469
 C           -1.80553269       -1.36179228        2.59432928
 C           -2.11469558        0.05285666        2.72162339
 C           -2.58823974       -2.87425464        0.79288891
 C           -3.32259580       -2.40668693       -0.37277907
 C           -2.90059742       -1.99713331        1.89435073
 C           -3.22941255        0.32988741        1.82975151
 C           -4.00981877       -1.17615719       -0.00903982
 C           -3.77898932       -0.94558510        1.40285230
 C           -3.38252730       -0.27000433       -2.19703579
 C           -2.71064104        0.96755694       -2.55626909
 C           -3.97524449       -0.09574663       -0.88144026
 C           -1.91345583        2.82626158       -1.20442812
 C           -1.75432851        3.26991996        0.16460177
 C           -2.26170659        2.42772107        1.23140351
 C           -3.12443952        1.37995975        0.92380504
 C           -2.92377846        1.92144842       -1.48794617
 C           -3.58170551        1.21977901       -0.39003616




