%chk=000013.chk
%mem=8GB
%Nproc=32
#p B3LYP/6-31G* opt pop=NPA

Template file

0 1
 C            5.19873913        0.85670690        0.15949197
 C            5.32771307       -0.54499034       -0.18704655
 C            4.85901389       -1.31568883        0.95045264
 C            4.46341654        0.94572204        1.41354480
 C            4.25028914       -0.39611817        1.89975581
 C            3.30215490        1.78253161        1.17761526
 C            4.37722038        1.48069607       -0.85943458
 C            3.41990829        2.31717937       -0.17119349
 C            4.43333245       -0.81101386       -1.30604532
 C            3.85118606        0.44297175       -1.73306336
 C            3.80711981       -2.19165467        0.47524262
 C            3.53805402       -1.87391156       -0.91543730
 C            2.88553648       -0.83757861        2.12624046
 C            2.69500125       -2.07986045        1.40200478
 C            2.03783982        1.38293307        1.62909428
 C            1.83411049        0.08112461        2.11519585
 C            0.93256858        2.09610214        1.15908161
 C            2.24494424        2.59920611       -0.83949405
 C            1.05092539        2.78015887       -0.04827741
 C            2.49218084        0.48849261       -2.05582540
 C            1.85219334        1.71581471       -1.93117906
 C            2.20182764       -1.79690261       -1.28190109
 C            1.71788695       -0.67886449       -1.98185009
 C            1.42303613       -2.31651520        0.89931898
 C            1.30597877       -2.48551528       -0.47830276
 C            0.53789091       -0.44005365        2.08248463
 C            0.34898508       -1.71925186        1.55688069
 C           -0.34898508        1.71925186        1.55688069
 C           -0.53789091        0.44005365        2.08248463
 C           -1.42303613        2.31651520        0.89931898
 C           -0.04196412        2.68931530       -0.98828563
 C            0.40464074        1.78078337       -2.02796340
 C           -1.30597877        2.48551528       -0.47830276
 C            0.33385614       -0.61859146       -2.24110487
 C           -0.33385614        0.61859146       -2.24110487
 C            0.04196412       -2.68931530       -0.98828563
 C           -0.40464074       -1.78078337       -2.02796340
 C           -0.93256858       -2.09610214        1.15908161
 C           -1.05092539       -2.78015887       -0.04827741
 C           -1.83411049       -0.08112461        2.11519585
 C           -2.03783982       -1.38293307        1.62909428
 C           -2.69500125        2.07986045        1.40200478
 C           -2.88553648        0.83757861        2.12624046
 C           -3.80711981        2.19165467        0.47524262
 C           -2.20182764        1.79690261       -1.28190109
 C           -1.71788695        0.67886449       -1.98185009
 C           -3.53805402        1.87391156       -0.91543730
 C           -1.85219334       -1.71581471       -1.93117906
 C           -2.24494424       -2.59920611       -0.83949405
 C           -2.49218084       -0.48849261       -2.05582540
 C           -3.30215490       -1.78253161        1.17761526
 C           -3.41990829       -2.31717937       -0.17119349
 C           -4.25028914        0.39611817        1.89975581
 C           -4.85901389        1.31568883        0.95045264
 C           -4.46341654       -0.94572204        1.41354480
 C           -4.43333245        0.81101386       -1.30604532
 C           -3.85118606       -0.44297175       -1.73306336
 C           -4.37722038       -1.48069607       -0.85943458
 C           -5.32771307        0.54499034       -0.18704655
 C           -5.19873913       -0.85670690        0.15949197




