%chk=000751.chk
%mem=8GB
%Nproc=32
#p B3LYP/6-31G* opt pop=NPA

Template file

0 1
 C            4.12813380       -1.45827325       -0.63603352
 C            4.31496570       -0.14039235       -0.06471741
 C            3.76805584       -0.15661331        1.28195363
 C            3.35815439       -2.24162479        0.31467362
 C            3.01127952       -1.39128545        1.43001850
 C            2.27911452       -2.85294479       -0.41579713
 C            3.31771874       -1.30640566       -1.83403021
 C            2.21870021       -2.23340237       -1.73140045
 C            3.79524682        0.82994016       -1.01286257
 C            3.00750284        0.09565248       -1.99193543
 C            3.29167997        2.02342716       -0.51578011
 C            3.23286383        1.02010825        1.78364547
 C            3.20637094        2.19647747        0.92682323
 C            1.96639522        0.97264580        2.49214405
 C            1.67895089       -1.33529924        1.84322648
 C            1.24822894       -0.21988361        2.56976347
 C            1.06840819       -3.06173392        0.22394228
 C            0.74246857       -2.26298661        1.33913321
 C            0.04404235       -3.45120931       -0.62228083
 C            0.96255236       -1.85788257       -2.20018412
 C           -0.07430595       -2.72945802       -1.87845698
 C            1.68795806        0.48046882       -2.22585913
 C            0.67116424       -0.48986783       -2.34426090
 C            2.07119402        2.56494502       -1.08897469
 C            1.35054778        1.82132568       -2.02389328
 C            1.99187584        2.94002959        1.22028640
 C            1.24330980        2.20489038        2.21045537
 C            1.33855839        3.24405698       -0.03017346
 C           -0.14073231        2.14303540        2.09982014
 C           -0.07391699       -0.13875876        2.98144533
 C           -0.78003998        1.11904697        2.79325531
 C           -0.58597586       -2.22870431        1.80272250
 C           -0.98996365       -1.21185448        2.66349178
 C           -1.27625468       -3.63074270       -0.08029993
 C           -1.56567971       -3.01468444        1.19269837
 C           -1.44901279       -2.28675398       -1.98482772
 C           -2.21441870       -3.09337382       -1.05034030
 C           -0.66177608       -0.07340109       -2.47076000
 C           -1.70687244       -0.92499028       -2.09144497
 C            0.06312192        2.24788482       -2.32161220
 C           -0.92211572        1.26656977       -2.72262492
 C           -0.04911815        3.22364205       -0.09231051
 C           -0.78792946        2.74931833        1.00979276
 C           -0.59144365        3.12716558       -1.37014145
 C           -2.18094670        2.66075518        0.92140888
 C           -2.17649905        0.82043358        2.53901053
 C           -2.32012316       -0.62783118        2.53114685
 C           -2.87881346        1.59578739        1.62618571
 C           -2.92857534       -2.51655068        1.10517760
 C           -3.28265082       -2.46620522       -0.30686576
 C           -3.24584656       -1.22300986        1.68601885
 C           -2.91623068       -0.40310927       -1.60033466
 C           -3.79733730        0.96037579        0.68970009
 C           -3.61840319       -1.09328717       -0.61280323
 C           -3.88444452       -0.42647206        0.64923030
 C           -2.22509468        1.81052515       -2.39173916
 C           -2.01771252        2.97677661       -1.54419930
 C           -2.83713262        2.82672744       -0.36338423
 C           -3.18715779        0.95421887       -1.73351057
 C           -3.69203920        1.67276165       -0.57333158




