%chk=000462.chk
%mem=8GB
%Nproc=32
#p B3LYP/6-31G* opt pop=NPA

Template file

0 1
 C            4.65188206        1.08956506       -0.45003845
 C            4.42480072       -0.14944720       -1.16303554
 C            4.55419302       -1.20177736       -0.18046176
 C            4.37025670        0.83256557        0.95621566
 C            4.33854668       -0.59588367        1.13073999
 C            3.18910751        1.59721798        1.30159653
 C            3.66263199        2.03932187       -0.91180461
 C            3.05754075        2.61172012        0.27087737
 C            3.16840452       -0.02360055       -1.89709175
 C            2.77692593        1.36956818       -1.85337627
 C            2.19158814       -1.00865257       -1.76644879
 C            3.64740817       -2.31892892       -0.27703845
 C            2.54422534       -2.23911974       -1.21937380
 C            3.14522229       -1.20074109        1.69082660
 C            3.04211457       -2.47780152        1.03353433
 C            2.02974505        0.95635615        1.76964391
 C            1.97605949       -0.44374589        1.86051257
 C            0.84352138        1.69321771        1.78387961
 C            1.81193066        3.17275158        0.10991725
 C            0.83876657        2.93441125        1.14823525
 C            1.42638098        1.69791267       -1.79841637
 C            1.09856251        2.86563071       -1.11826150
 C            0.83400406       -0.66182404       -1.84113027
 C            0.45542213        0.68952009       -1.90376731
 C           -0.14494134       -1.65668590       -1.67187914
 C            1.50796493       -3.04169600       -0.62858548
 C            1.71990972       -2.98769267        0.80817513
 C            0.20029371       -2.86659235       -1.03943385
 C            0.72746411       -1.10170469        1.88357743
 C            0.67306279       -2.47049092        1.55527274
 C           -0.37879018        1.05378561        2.01720817
 C           -0.45832522       -0.34006790        1.91687558
 C           -1.54989258        1.81912938        1.98965916
 C           -0.39645568        3.41461262        0.58289952
 C           -0.28944292        3.14356213       -0.84580036
 C           -1.57103200        3.04967638        1.20703165
 C           -0.90243476        1.03531268       -1.80952140
 C           -1.26020434        2.34215080       -1.42437077
 C           -1.50527869       -1.31812741       -1.78888851
 C           -1.87949323        0.03194212       -1.89101992
 C           -2.46639497       -2.28432142       -1.45474426
 C           -0.72109268       -3.40330940       -0.15833123
 C           -0.55358572       -3.02717456        1.23511740
 C           -2.11196622       -3.28329707       -0.47929789
 C           -1.71324669       -0.96776161        1.79549975
 C           -1.76322765       -2.34470077        1.61196762
 C           -2.78498070       -2.91061682        0.75209138
 C           -2.83504322        1.16680803        1.80702317
 C           -2.87865732       -0.20778879        1.60804537
 C           -2.75165877        2.99624227        0.37069533
 C           -2.56112380        2.60596160       -1.01533818
 C           -3.64746542        2.03239263        0.96198558
 C           -3.23399136        0.38835130       -1.88102992
 C           -3.61157055        1.67959484       -1.35202293
 C           -4.38601826        1.44429788       -0.13705981
 C           -3.80387027       -1.88450529       -1.07738192
 C           -3.89468293       -2.07665649        0.36685997
 C           -3.98476212       -0.75476981        0.94053809
 C           -4.21643548       -0.53175255       -1.35011050
 C           -4.65187140        0.02765579       -0.08144117




