%chk=000009.chk
%mem=8GB
%Nproc=32
#p B3LYP/6-31G* opt pop=NPA

Template file

0 1
 C            5.00872651        0.36519809       -0.96247001
 C            5.05142451       -1.02991680       -0.56925246
 C            4.85850745       -1.08518092        0.86936669
 C            4.65151788        1.14925934        0.21032518
 C            4.51557487        0.25141318        1.33102679
 C            3.50672572        1.95583358       -0.14434118
 C            3.93477504        0.51916485       -1.93033677
 C            3.15470423        1.66416726       -1.52631793
 C            3.92070207       -1.69812206       -1.19377233
 C            3.23952677       -0.74186499       -2.04975051
 C            3.71053684       -1.93370061        1.12324577
 C            3.14838342       -2.34494801       -0.14836353
 C            3.22539660        0.17621451        2.00087093
 C            2.83499558       -1.22257378        2.03169154
 C            2.45898742        2.11860319        0.76139916
 C            2.23209622        1.13212503        1.73983068
 C            1.36768724        2.81329529        0.26371052
 C            1.80116915        1.69472154       -1.84202134
 C            1.06050444        2.63567450       -1.14760786
 C            1.84828583       -0.72144330       -2.02471153
 C            1.16606230        0.49320744       -2.19297369
 C            1.76225138       -2.33578450       -0.25668766
 C            1.18488032       -1.77202163       -1.39139864
 C            1.47940935       -1.49149523        1.95949004
 C            1.01537910       -2.29953998        0.91764650
 C            0.91143184        0.81701858        2.11891345
 C            0.61902973       -0.51491209        2.43423393
 C            0.11035917        2.76895861        0.97085877
 C           -0.13315881        1.71155022        1.83793218
 C           -0.37646586        2.63939962       -1.28017078
 C           -0.89707189        3.11202879       -0.01328285
 C           -0.23448188        0.44241434       -2.25425071
 C           -1.00154573        1.56169029       -1.89541109
 C           -0.19882220       -1.82231897       -1.49499537
 C           -0.83322170       -0.81539370       -2.21996191
 C           -0.36326548       -2.47934534        0.80335745
 C           -0.90982626       -2.46878931       -0.48126358
 C           -0.69397113       -0.90437287        2.62931093
 C           -1.15567189       -2.04699897        1.86461373
 C           -1.46452279        1.35152108        2.09022107
 C           -1.74480433        0.08760734        2.59978626
 C           -2.21334323        2.82924754        0.28186660
 C           -2.49151061        2.09637582        1.50282471
 C           -2.38301241        1.41879299       -1.71956026
 C           -3.01982897        2.20057117       -0.74649981
 C           -2.20257484       -0.91233020       -2.42695114
 C           -3.00723421        0.27696695       -2.22258783
 C           -2.28433675       -2.62633350       -0.63763471
 C           -2.89997880       -2.01952445       -1.80162504
 C           -2.58891867       -1.90826100        1.68061737
 C           -2.96931331       -0.60581235        2.21813446
 C           -3.15556863       -2.36735277        0.49858921
 C           -3.81508799        1.51064432        1.33527473
 C           -4.19857000        1.70695736       -0.05612431
 C           -4.01609579        0.11030735        1.64916373
 C           -4.30278883       -0.14580779       -1.70716298
 C           -4.22937728       -1.56976324       -1.43198172
 C           -4.37163496       -1.74668374        0.00340083
 C           -4.83411472        0.49426766       -0.52217639
 C           -4.78891107       -0.47460576        0.56394274




