%chk=000535.chk
%mem=8GB
%Nproc=32
#p B3LYP/6-31G* opt pop=NPA

Template file

0 1
 C            4.53974220       -0.79760437        0.56855685
 C            3.68469313       -1.65003289        1.37813401
 C            3.15050459       -0.83586765        2.44167908
 C            4.26996403        0.57927914        0.94733572
 C            3.50481035        0.55258955        2.16822002
 C            3.70128297        1.25386069       -0.20004834
 C            4.13624877       -0.96369871       -0.81607021
 C            3.69955527        0.32474678       -1.32043921
 C            2.75519083       -2.32087005        0.48804761
 C            3.20289535       -2.06619275       -0.87224882
 C            1.38193367       -2.31459224        0.76380515
 C            1.72391218       -0.86971315        2.68329615
 C            0.88928842       -1.68913932        1.91915969
 C            2.28103342        1.33028852        2.23527511
 C            1.30735305        0.49847894        2.90720500
 C            2.60832765        2.10446054       -0.04926007
 C            1.85425551        2.08660637        1.14233753
 C            2.00489040        2.52064754       -1.22920231
 C            2.63534121        0.37487925       -2.22314865
 C            1.92471377        1.57162673       -2.32789404
 C            2.25173867       -2.05114813       -1.87470480
 C            2.02461326       -0.81813467       -2.62643334
 C            0.49563739       -2.64794926       -0.26530726
 C            0.94542702       -2.60465106       -1.58660389
 C           -0.88131181       -2.65506577       -0.02836458
 C           -0.48400624       -1.46231003        2.02811657
 C           -1.36233195       -2.13854211        1.18017959
 C           -0.03176152        0.78240470        2.72254747
 C           -0.90757906       -0.29380921        2.67078636
 C            0.51688455        2.51295914        1.13780067
 C           -0.38622306        1.95233117        2.05180906
 C            0.75941014        3.25036838       -1.17708870
 C            0.02648497        3.25680352        0.06651333
 C            0.54284705        1.55700492       -2.78372063
 C           -0.12150557        2.70068314       -2.19824888
 C            0.62021671       -0.81529056       -3.02097179
 C            0.06100741       -2.09306634       -2.61270113
 C           -0.13086911        0.34631579       -2.86122589
 C           -1.73147851       -2.75638060       -1.13432926
 C           -1.29814640       -2.18120173       -2.38980056
 C           -3.13128659       -2.40885619       -1.01454696
 C           -2.73641273       -2.03560344        1.40999579
 C           -3.66166979       -2.12807058        0.29810906
 C           -2.26164367       -0.02756970        2.80615606
 C           -3.22265154       -0.96473389        2.26014437
 C           -1.74480992        2.25913485        1.94918698
 C           -2.71612244        1.31345552        2.48830287
 C           -1.37634542        3.14998080       -0.28870890
 C           -1.42339362        2.51207517       -1.59271048
 C           -2.27025095        2.72738667        0.67692323
 C           -1.47441466        0.25488677       -2.47026843
 C           -2.10142858       -0.98641401       -2.56231907
 C           -3.33756688       -1.22392798       -1.84081034
 C           -2.06837784        1.28246275       -1.71624119
 C           -4.35207997       -0.85348349        0.21274934
 C           -4.20285530       -0.20177008        1.49809058
 C           -3.78971228        1.18748356        1.51819150
 C           -3.31240252        1.79443757        0.28911504
 C           -3.85056474       -0.18418648       -0.97728667
 C           -3.13100127        1.00223794       -0.84706538




