%chk=000342.chk
%mem=8GB
%Nproc=32
#p B3LYP/6-31G* opt pop=NPA

Template file

0 1
 C            4.56612916        0.34080932        1.02859434
 C            4.41459215        1.16820859       -0.15553852
 C            4.23729772        0.28752806       -1.29366631
 C            4.31356672       -1.03710414        0.64142976
 C            4.18502948       -1.07899419       -0.79457614
 C            3.20492347       -1.52441170        1.43672051
 C            3.53549447        0.73125258        1.97659935
 C            2.75995566       -0.44113899        2.30229027
 C            3.38942746        2.15615632        0.12134781
 C            2.83424260        1.87104789        1.43654246
 C            2.51461317        2.52341683       -0.89472838
 C            3.09037872        0.49105207       -2.16689067
 C            2.33504453        1.64801237       -2.05024657
 C            3.00440092       -1.70496860       -1.35038928
 C            2.40483724       -0.77995826       -2.29926806
 C            2.23106344       -2.34218718        0.86081600
 C            2.15531960       -2.46066486       -0.54104429
 C            1.08738181       -2.55294887        1.62999344
 C            1.39284998       -0.30840131        2.52612167
 C            0.65289056       -1.48251952        2.51368846
 C            1.45501654        1.95465453        1.60290582
 C            0.74809347        0.89717227        2.20664839
 C            1.19900612        3.01034035       -0.52408833
 C            0.76452156        2.85063774        0.78906554
 C            0.91125904        1.58841286       -2.34165331
 C            0.28439962        2.66036775       -1.59776367
 C            1.02125516       -0.82470669       -2.47264643
 C            0.26493878        0.35681083       -2.41862516
 C            0.96155228       -2.86769936       -1.13359042
 C            0.40350776       -2.03474095       -2.18872841
 C           -0.09606697       -3.15421802        1.04727553
 C           -0.14141313       -3.34604901       -0.32234423
 C           -0.79311083       -1.42174572        2.46320770
 C           -1.25038773       -2.59149800        1.73270014
 C           -0.65013969        0.97581795        2.27804130
 C           -1.41969673       -0.19776220        2.25571042
 C           -0.57918007        3.07234582        1.04476430
 C           -1.24587276        2.19875999        1.98769082
 C           -1.06258548        2.56315049       -1.28430231
 C           -1.46697030        3.16721108       -0.09627646
 C           -1.11721540        0.30461483       -2.17399498
 C           -1.79237477        1.47226499       -1.76935747
 C           -1.03572086       -2.09829542       -2.09313583
 C           -1.36815302       -3.05129735       -1.04434639
 C           -1.78115699       -0.93185244       -2.20610021
 C           -2.47318229       -2.52989531        1.08076339
 C           -2.54762430       -2.86527194       -0.33653430
 C           -2.74241957       -0.18582285        1.78788645
 C           -3.31031608       -1.36193843        1.28983421
 C           -2.66348887        2.25795739        1.68326402
 C           -2.80594636        2.94105780        0.40251705
 C           -3.40875584        1.02255094        1.59415397
 C           -3.17113519        1.44952546       -1.55427746
 C           -3.71413696        2.16321226       -0.41212344
 C           -4.30707236        1.16746181        0.45897653
 C           -3.13600676       -1.01299126       -1.89766702
 C           -3.56186889       -2.00859133       -0.92873910
 C           -4.21083991       -1.29451794        0.15291169
 C           -3.88481860        0.19362064       -1.62839024
 C           -4.58533251        0.00676007       -0.36142795




