%chk=001140.chk
%mem=8GB
%Nproc=32
#p B3LYP/6-31G* opt pop=NPA

Template file

0 1
 C            4.40571806        0.08741960        0.41795761
 C            3.97635047        1.43114664        0.75052248
 C            3.12222200        1.33496712        1.92709551
 C            3.89595721       -0.79135227        1.45810654
 C            2.85154422       -0.06756480        2.15386353
 C            3.55699749       -2.04545175        0.83294281
 C            4.01949237       -0.48712906       -0.85960556
 C            3.67174993       -1.87142220       -0.61105771
 C            3.24681057        0.25387825       -1.74783470
 C            3.25741192        2.21340695       -0.23938744
 C            2.95787658        1.65604887       -1.48043933
 C            2.00102284        2.22259732        1.72063387
 C            2.22820367        2.94121031        0.48069841
 C            0.71486152        1.77069126        1.98558923
 C            1.53172925       -0.52062664        2.08140116
 C            0.48029120        0.39809463        2.16578201
 C            2.24302335       -2.60513887        1.07452310
 C            1.26338514       -1.85097785        1.73147854
 C            2.45679596       -2.41623599       -1.19544193
 C            1.88133603       -3.25688374       -0.16472897
 C            2.05831798       -0.34055266       -2.35061633
 C            1.60667481       -1.58612095       -1.93046142
 C            1.68801106        1.96694218       -2.11760179
 C            1.09599461        0.71882708       -2.57571196
 C            1.11679922        3.40848444       -0.20653068
 C            0.86119761        2.93304762       -1.56192742
 C           -0.33992233        2.59010583        1.59509402
 C           -0.16454313        3.41630941        0.48357074
 C           -1.62688831        2.23600828        1.97215914
 C           -0.83284693       -0.06831874        2.24379264
 C           -1.87346726        0.85766497        2.35454295
 C           -0.06443197       -2.28135631        1.61731960
 C           -1.11306490       -1.40300900        1.93267278
 C            0.56663994       -3.63732044       -0.30874744
 C           -0.31168024       -3.40153218        0.81458326
 C            0.23654577       -1.87197581       -1.95390507
 C           -0.16299778       -3.10490366       -1.44060284
 C           -0.25605099        0.47979946       -2.34401261
 C           -0.69843893       -0.82374676       -2.06847131
 C           -0.57783419        2.78216403       -1.70010479
 C           -1.18131884        3.43549474       -0.55120949
 C           -1.10655772        1.57020705       -2.14324388
 C           -2.74448706        2.68230932        1.15655487
 C           -2.48435473        3.10711893       -0.20888453
 C           -3.21419705        0.50693063        1.91249985
 C           -3.72647261        1.61390356        1.12013524
 C           -2.44110307       -1.79855912        1.73850754
 C           -3.45644278       -0.79211347        1.49135942
 C           -1.63642404       -3.63811778        0.28530602
 C           -1.55786053       -3.34226056       -1.14204800
 C           -2.73772302       -2.88403914        0.82917821
 C           -2.07442366       -1.07054852       -1.90798549
 C           -3.97337216       -1.02706785        0.14345892
 C           -2.51302411       -2.29681372       -1.41209725
 C           -3.44190199       -2.29990880       -0.29701578
 C           -2.46936313        1.35618476       -1.99458828
 C           -3.21833632        2.21582091       -1.09042582
 C           -4.06757338        1.37277703       -0.26823666
 C           -2.96021549        0.00374276       -1.82829256
 C           -3.96564212        0.01774468       -0.77011297




