%chk=000636.chk
%mem=8GB
%Nproc=32
#p B3LYP/6-31G* opt pop=NPA

Template file

0 1
 C            4.60129849       -0.42844664        0.53177833
 C            3.86360388       -1.48669016        1.19625579
 C            3.43508845       -2.41570494        0.17685419
 C            4.29011698       -0.50698035       -0.88641468
 C            3.67820704       -1.79468893       -1.11903811
 C            3.54437286        0.68919925       -1.23849665
 C            4.08568204        0.83767393        1.01611829
 C            3.72655440        1.62910254       -0.14315316
 C            2.85103578       -0.86937830        2.03226032
 C            3.04625684        0.56940803        1.99815365
 C            1.55008434       -1.35120180        2.01293231
 C            2.05381035       -2.85823092        0.18819200
 C            1.19389924       -2.43379670        1.19225258
 C            2.43036635       -1.84120564       -1.85194860
 C            1.57079289       -2.79305292       -1.17138288
 C            2.28356050        0.57386946       -1.83951600
 C            1.85669414       -0.66757758       -2.33815116
 C            1.38069865        1.64413454       -1.73160790
 C            2.76326167        2.60160921        0.03902645
 C            1.75155205        2.75898130       -0.98305862
 C            1.92917396        1.41016611        2.01050422
 C            2.03110552        2.60251135        1.29528494
 C            0.54803445       -0.51499614        2.49211184
 C            0.65847911        0.86366027        2.27355946
 C           -0.69192157       -1.08064597        2.74777816
 C           -0.16202273       -2.70813902        1.02578732
 C           -1.01027778       -2.31198814        2.05572209
 C            0.19985255       -2.68812030       -1.37226557
 C           -0.66081883       -2.86111049       -0.28172489
 C            0.57727401       -0.78335810       -2.86667212
 C           -0.23142404       -1.92032611       -2.45276199
 C            0.05071129        1.49443333       -2.14981273
 C           -0.29337587        0.37331516       -2.89553967
 C           -0.95733369        2.35164910       -1.67559450
 C            0.72406220        3.57233173       -0.37436011
 C            0.85031578        3.40166480        1.06908449
 C           -0.65522365        3.31006071       -0.71170115
 C           -0.50499115        1.63931295        2.10528698
 C           -0.42189112        2.91324248        1.54923538
 C           -1.39000547        3.29319166        0.54213764
 C           -1.87282016       -0.24602379        2.70762601
 C           -1.76518239        1.03747754        2.18969826
 C           -2.44620129       -2.37289351        1.88756627
 C           -2.98842249       -1.08998642        2.30735314
 C           -2.03580455       -2.83407933       -0.52220629
 C           -2.96979999       -2.67651071        0.57663711
 C           -1.62775778       -1.53260571       -2.55254859
 C           -1.66256666       -0.11502705       -2.88149755
 C           -2.53771727       -2.05693869       -1.64325596
 C           -2.29846772        1.99057954       -1.81183594
 C           -2.65759438        0.69179575       -2.35419751
 C           -2.63120074        2.68156281        0.56201588
 C           -2.84981402        1.59128450        1.50027970
 C           -3.20290716        2.27224030       -0.70888664
 C           -3.88899128       -0.62265017        1.27034716
 C           -3.90977821       -1.62722029        0.21613164
 C           -3.63257720       -1.23158061       -1.15763564
 C           -3.68880378        0.11478430       -1.50162929
 C           -3.86722984        0.72161263        0.92365595
 C           -4.01302299        1.09030011       -0.47473365




