%chk=000647.chk
%mem=8GB
%Nproc=32
#p B3LYP/6-31G* opt pop=NPA

Template file

0 1
 C            4.39251738       -1.38825576        0.05775262
 C            3.51013433       -2.29496235        0.76720921
 C            2.77278544       -3.03000435       -0.23146340
 C            3.89242679       -1.27160334       -1.30372895
 C            2.95613065       -2.34773040       -1.50811126
 C            3.43137290        0.09222621       -1.48277141
 C            4.26476517       -0.08216964        0.67213370
 C            4.00632374        0.86427420       -0.39310676
 C            2.76097034       -1.52419735        1.74366083
 C            3.28569503       -0.16819926        1.74447453
 C            1.38674739       -1.70182164        1.85674202
 C            1.34620522       -3.19404634       -0.04228287
 C            0.72771125       -2.68228147        1.09510917
 C            1.63530665       -2.03176101       -2.01141059
 C            0.72318055       -2.91181221       -1.31322773
 C            2.10894565        0.34976211       -1.87444343
 C            1.24399916       -0.70468081       -2.21254543
 C            1.59194539        1.63426422       -1.66616633
 C            3.37020197        2.03671548       -0.04131575
 C            2.35835443        2.54918362       -0.93619901
 C            2.40986407        0.90796571        1.90736775
 C            2.75940341        2.10264444        1.27763638
 C            0.64444688       -0.66666932        2.41879552
 C            1.06094111        0.65467990        2.21364903
 C           -0.67447823       -0.92475240        2.77153423
 C           -0.66922354       -2.69783575        1.10925380
 C           -1.30236737       -2.09282995        2.19120725
 C           -0.60972807       -2.55604050       -1.28997297
 C           -1.33504195       -2.78974695       -0.12417415
 C           -0.12594311       -0.45687128       -2.34790546
 C           -1.01673222       -1.51472660       -2.11264537
 C            0.23639920        1.89122452       -1.91353364
 C           -0.59264289        0.86151298       -2.36563181
 C           -0.35627943        3.06941569       -1.44423275
 C            1.70387735        3.58845246       -0.17144126
 C            1.80556172        3.18910965        1.22586888
 C            0.31714062        3.86576342       -0.44273415
 C            0.09401242        1.66641145        2.08077160
 C            0.46095533        2.94916407        1.69463717
 C           -0.41802609        3.66840606        0.79800294
 C           -1.64027828        0.15386401        2.69936723
 C           -1.25923749        1.32748977        2.06703885
 C           -2.73113353       -1.85038508        2.15812988
 C           -2.93432002       -0.42952544        2.40025669
 C           -2.72145651       -2.65964562       -0.19593192
 C           -3.46488071       -2.20441029        0.96306853
 C           -2.38197039       -1.33855188       -2.29426094
 C           -3.28811112       -1.99613969       -1.36227645
 C           -1.96362216        1.10817472       -2.47750231
 C           -2.89028519       -0.00802058       -2.53621129
 C           -1.73636764        3.02704113       -1.01120925
 C           -1.68590016        3.05689411        0.44042278
 C           -2.12043239        1.93008795        1.13629209
 C           -2.56867759        2.10138884       -1.60688891
 C           -3.69138114        0.10280998        1.28608907
 C           -4.22878610       -1.03640205        0.55831294
 C           -4.24268724       -1.00495675       -0.89141498
 C           -3.93787881        0.24491893       -1.55665093
 C           -3.17542146        1.19331917        0.58768369
 C           -3.49503069        1.37387119       -0.76107693




