%chk=001327.chk
%mem=8GB
%Nproc=32
#p B3LYP/6-31G* opt pop=NPA

Template file

0 1
 C            3.93998122       -0.86751612        1.19080359
 C            3.67179828       -1.92898024        0.24520335
 C            3.69773602       -1.35157449       -1.08992343
 C            4.22651766        0.33376259        0.42241504
 C            3.78047571        0.09040328       -0.93470578
 C            3.66295381        1.44812956        1.14530433
 C            2.90985361       -0.52212803        2.15504167
 C            2.97798229        0.91182588        2.31324480
 C            1.65922420       -1.14062264        2.07424123
 C            2.42993540       -2.65933626        0.37154785
 C            1.55947527       -2.37686392        1.42164845
 C            2.58496984       -1.91179956       -1.84130617
 C            1.86421535       -2.81228913       -0.95719262
 C            1.86382203       -1.07712614       -2.67575144
 C            2.78025793        0.88415913       -1.49968320
 C            2.06210730        0.36191600       -2.57680855
 C            2.72453000        2.31619138        0.46361638
 C            2.32531355        2.04042392       -0.84229501
 C            1.74126532        1.64083597        2.45867096
 C            1.71316194        2.67713658        1.43943238
 C            0.49254064       -0.41932601        2.40253885
 C            0.56595758        0.94850423        2.71231597
 C           -0.75563459       -1.05888059        2.35050704
 C            0.33039244       -3.01683889        1.38150748
 C           -0.79619618       -2.42091636        2.06333632
 C            0.47907001       -2.94453824       -1.05064879
 C           -0.15378738       -3.45053435        0.08002150
 C            0.44103599       -1.30614889       -2.83622077
 C           -0.24295118       -2.11019392       -1.92214013
 C            0.83921428        1.00077525       -3.02449572
 C           -0.14311616       -0.04723459       -3.26450296
 C            1.21057532        2.72384338       -1.32326709
 C            0.44926712        2.19621227       -2.44247284
 C            0.47013129        3.12511773        0.99894373
 C            0.27053973        3.30760026       -0.37370133
 C           -0.59377301        1.70866582        2.68916306
 C           -0.62477569        2.88143356        1.82680055
 C           -1.94216863       -0.30871017        2.36602167
 C           -1.88177646        1.05743640        2.60429042
 C           -3.10491561       -0.80977892        1.77633074
 C           -1.98074650       -3.00027534        1.45700520
 C           -1.59546599       -3.47758996        0.13758889
 C           -3.15123895       -2.17136780        1.29196761
 C           -1.62799259       -1.93683434       -1.76217451
 C           -2.33054624       -2.70434468       -0.83578896
 C           -3.45281442       -2.10873806       -0.13092882
 C           -1.48405912        0.19054638       -3.00829856
 C           -2.26222318       -0.82817782       -2.32679804
 C           -0.96004953        2.45667730       -2.19438281
 C           -1.06512198        3.20749515       -0.95320592
 C           -1.90890128        1.48766467       -2.50298711
 C           -1.97138216        3.01797966        1.30672767
 C           -2.77026428        1.93854969        1.86119340
 C           -2.16897298        3.03261059       -0.12768936
 C           -3.81430986        0.00725728        0.80606228
 C           -3.83205865       -0.73984432       -0.44229699
 C           -3.32615321       -0.15456973       -1.59579277
 C           -3.04330842        1.27256002       -1.61707043
 C           -3.57276491        1.37517119        0.78995419
 C           -3.16683194        2.02219441       -0.45091649




