%chk=001217.chk
%mem=8GB
%Nproc=32
#p B3LYP/6-31G* opt pop=NPA

Template file

0 1
 C            4.32779264       -0.96341940       -0.27881995
 C            4.37350960       -0.24017443        0.97712669
 C            3.44772755       -0.89504033        1.89398367
 C            3.67506778       -2.22901597       -0.01255172
 C            2.92840139       -2.07270653        1.22574021
 C            2.94488225       -2.58978769       -1.21207681
 C            3.64016134       -0.36135063       -1.41269828
 C            2.91587715       -1.42341266       -2.08370691
 C            3.02749427        0.88024302       -1.25882547
 C            4.03923859        1.16741825        0.96261402
 C            3.46854934        1.73310923       -0.24600751
 C            2.50902633        0.10702223        2.36480152
 C            3.06515613        1.39330928        2.01722981
 C            1.14653111       -0.10451212        2.17205374
 C            1.55273390       -2.29136808        1.20572797
 C            0.69668426       -1.38432279        1.85215170
 C            1.57680011       -3.03642167       -1.06253599
 C            1.03204226       -3.12561750        0.21353087
 C            1.53167088       -1.19371385       -2.46526755
 C            0.78254399       -2.36922812       -2.07940910
 C            1.78640435        1.12066122       -1.86288228
 C            0.96779209        0.05019406       -2.23563306
 C            1.22847343        2.39097092       -1.77321130
 C            2.59339858        2.79368900        0.20212471
 C            2.15775885        2.41274239        1.54000653
 C            1.63065138        3.26283938       -0.67552256
 C            0.27612377        0.98587981        2.03540476
 C            0.79196208        2.26595017        1.76542659
 C           -1.10308791        0.74407478        1.93334713
 C           -0.66999977       -1.64796883        1.87947313
 C           -1.57290459       -0.57966779        1.99207539
 C           -0.31547326       -3.43390790        0.27347213
 C           -1.09416299       -2.86437081        1.34819853
 C           -0.58248684       -2.26098801       -1.83352000
 C           -1.09386361       -3.17998902       -0.92448470
 C           -0.42101886        0.15451956       -2.11159722
 C           -1.20371146       -1.00330576       -1.93129745
 C           -0.20449499        2.54918918       -1.96896940
 C           -1.01244973        1.42239405       -2.12963837
 C            0.41363127        3.78714395       -0.09199676
 C           -0.02819782        3.21170117        1.16526201
 C           -0.64647109        3.58280912       -1.05418706
 C           -1.97558827        1.79493848        1.59634035
 C           -1.44386332        2.95471877        1.04465343
 C           -1.85561058        3.33645932       -0.30345450
 C           -3.30373143        1.51982951        1.28221975
 C           -2.94657307       -0.83382894        1.98084622
 C           -3.85080203        0.21309179        1.56137320
 C           -2.47405045       -3.03846623        0.94741861
 C           -2.47175045       -3.07206840       -0.51057046
 C           -3.43718872       -2.04254695        1.35174847
 C           -2.56840447       -0.88430399       -1.61412000
 C           -4.52098567       -0.24824597        0.34835793
 C           -3.22920199       -1.92746375       -0.95544718
 C           -4.12611796       -1.62228406        0.14491075
 C           -2.37743032        1.55210087       -1.87126831
 C           -2.82553294        2.55871844       -0.90970129
 C           -3.77543444        1.90846702       -0.03401466
 C           -3.18535268        0.36327504       -1.67504678
 C           -4.21214493        0.70203817       -0.69915718




