%chk=001234.chk
%mem=8GB
%Nproc=32
#p B3LYP/6-31G* opt pop=NPA

Template file

0 1
 C            4.39749358        0.37872964       -0.31760518
 C            4.33537077       -1.04594099       -0.08089419
 C            3.72016960       -1.23913421        1.22887467
 C            4.08591374        1.02899759        0.94208695
 C            3.34227669        0.06555779        1.73024780
 C            3.44608498        2.28314431        0.61256033
 C            3.50417127        0.95740947       -1.30686176
 C            3.20892662        2.28551083       -0.82571836
 C            2.47441853        0.17747921       -1.84413066
 C            3.59430472       -1.85435367       -1.02540222
 C            2.66128352       -1.19839825       -1.93111858
 C            2.69415789       -2.24947817        1.08325810
 C            2.82602841       -2.80180321       -0.24464909
 C            1.40593105       -1.99273384        1.53634874
 C            2.00200474        0.31962587        2.02441963
 C            1.08784684       -0.74463021        2.09422567
 C            2.17856879        2.59622364        1.23998354
 C            1.53989995        1.64263193        2.02603398
 C            1.88099187        2.80694705       -1.03876126
 C            1.39489249        3.29334457        0.24009864
 C            1.18606598        0.71915702       -2.01065376
 C            0.99229233        2.10130414       -1.83792147
 C            0.07710247       -0.13378299       -2.20900329
 C            1.50922928       -2.06491171       -2.03778895
 C            1.60325778       -3.05486966       -0.97190331
 C            0.25655902       -1.52115990       -2.30583707
 C            0.37419918       -2.80456242        1.06348963
 C            0.44493592       -3.30305402       -0.24999953
 C           -0.84982898       -2.73566039        1.72070639
 C           -0.21868188       -0.50848352        2.54058398
 C           -1.17534094       -1.51769762        2.44054174
 C            0.22297669        1.90077780        2.37477295
 C           -0.65734188        0.79971729        2.71117691
 C            0.01673562        3.37977838        0.40895713
 C           -0.53816200        2.86154331        1.58440206
 C           -0.29140923        2.62210691       -1.89511285
 C           -0.75214182        3.39960427       -0.75266569
 C           -1.22204651        0.39787450       -2.24928284
 C           -1.38732944        1.77684052       -2.30355644
 C           -2.33811547       -0.42735082       -2.04491215
 C           -0.83356649       -2.35695103       -2.07517297
 C           -0.71316094       -3.34075619       -1.01247114
 C           -2.16843460       -1.80317318       -2.00914925
 C           -2.05574365       -3.20199256        1.05970283
 C           -1.99487606       -3.47092011       -0.35779058
 C           -2.92004213       -2.57404269       -1.02678892
 C           -2.55203688       -1.16316934        2.11972496
 C           -3.10083499       -2.21700317        1.28268805
 C           -3.67070136       -1.86238100       -0.00533103
 C           -2.00549760        1.16113841        2.29661522
 C           -1.93743853        2.45510222        1.62817109
 C           -2.86480369        0.16429880        1.83614640
 C           -2.19059098        3.25001702       -0.66963993
 C           -2.59295240        2.38079320       -1.76293226
 C           -2.76970242        2.72363356        0.55057039
 C           -3.49132249        0.08849864       -1.45214442
 C           -3.98961284       -0.53367738       -0.23999217
 C           -3.77786875        0.44314713        0.81678055
 C           -3.63628066        1.51560655       -1.26591155
 C           -3.76822468        1.74553069        0.16793450




