%chk=000543.chk
%mem=8GB
%Nproc=32
#p B3LYP/6-31G* opt pop=NPA

Template file

0 1
 C            4.55783584        0.61905485       -0.02426040
 C            4.28633583       -0.63173998        0.66116380
 C            3.64024786       -0.32220407        1.91339809
 C            3.92055177        1.68384437        0.73229119
 C            3.40888798        1.11622029        1.95503417
 C            2.98635197        2.34831679       -0.14866796
 C            3.91882102        0.55722425       -1.33019826
 C            3.02703257        1.68058372       -1.43993768
 C            3.58776802       -1.49559677       -0.26403961
 C            3.35659268       -0.75914236       -1.49643059
 C            2.55682137       -2.30891956        0.18863795
 C            2.38131364       -0.97838368        2.21695510
 C            1.87529104       -1.96716598        1.37446422
 C            2.00965171        1.32510492        2.27694292
 C            1.47303467        0.04226307        2.69185254
 C            1.73878197        2.75309933        0.32492184
 C            1.20828708        2.15779615        1.48489170
 C            0.85912044        3.20852236       -0.64993379
 C            1.82062440        1.52767913       -2.11134687
 C            0.94279503        2.59235685       -1.96605138
 C            2.11287303       -0.90199320       -2.11411848
 C            1.29123410        0.23118160       -2.29388365
 C            1.84335462       -2.94653950       -0.81612710
 C            1.52086017       -2.15990291       -1.99906431
 C            0.67366052       -3.71302436       -0.45951485
 C            0.52526382       -2.31575274        1.51950338
 C            0.03956442       -3.40319027        0.79957412
 C            0.11314496       -0.15867009        2.54005984
 C           -0.36654664       -1.39787195        2.10507199
 C           -0.18312981        2.04524488        1.63512244
 C           -0.68551090        0.95942218        2.36780705
 C           -0.54153759        3.37104121       -0.33469671
 C           -1.04055455        2.81444357        0.83438513
 C           -0.39361048        2.48037430       -2.49288126
 C           -1.27835837        3.16284179       -1.56799541
 C           -0.09814473        0.06021700       -2.47258924
 C           -0.92074126        1.15524245       -2.70719623
 C            0.09939268       -2.30852436       -2.22819648
 C           -0.31411714       -3.49096967       -1.50000475
 C           -0.69439017       -1.16998963       -2.20491077
 C           -1.38213411       -3.54068467        0.58159265
 C           -1.60636866       -3.48648310       -0.85883254
 C           -1.75809731       -1.58505518        2.01816255
 C           -2.27477703       -2.57534349        1.18340050
 C           -2.04721260        0.80072544        2.54843080
 C           -2.60800380       -0.52753475        2.35882551
 C           -2.42166738        2.63657694        0.92825295
 C           -2.94578911        1.76590912        1.95746335
 C           -2.50991015        2.40576608       -1.50125109
 C           -2.27606443        1.13514742       -2.18463555
 C           -3.18664210        2.39201875       -0.29205601
 C           -2.02525337       -1.22768287       -1.75311184
 C           -2.49355554       -2.36679036       -1.09576037
 C           -3.21668451       -2.19216941        0.14317228
 C           -2.76874539       -0.04755989       -1.63103679
 C           -3.84208762       -0.37132680        1.60637066
 C           -4.07589726        1.04595659        1.40030025
 C           -4.07773078        1.28248658       -0.03206000
 C           -3.93609011       -1.02457213        0.31549239
 C           -3.80614233        0.01812174       -0.69275142




