%chk=001607.chk
%mem=8GB
%Nproc=32
#p B3LYP/6-31G* opt pop=NPA

Template file

0 1
 C            3.75400564       -1.06823394        1.42929665
 C            3.31535676       -2.31983473        0.84348128
 C            2.15297527       -2.76916240        1.59266921
 C            2.80442138       -0.71366092        2.47404199
 C            1.73379468       -1.68379293        2.45194140
 C            2.46447250        0.68033859        2.31197324
 C            3.92336239        0.08968240        0.56962297
 C            3.23937765        1.20938748        1.20052043
 C            3.85713177       -0.06545759       -0.80894223
 C            2.97600606       -2.35985129       -0.56933199
 C            3.26673085       -1.27038682       -1.38154485
 C            1.18625723       -3.28858492        0.64685089
 C            1.68133531       -3.00907255       -0.69239665
 C           -0.16861283       -3.07997230        0.88671448
 C            0.42001091       -1.24322095        2.34325848
 C           -0.53857343       -2.12816417        1.84640619
 C            1.14100663        1.08341804        2.44297376
 C            0.11697202        0.12520439        2.43121813
 C            0.85112721        2.38197878        2.05355734
 C            2.68073343        2.23009031        0.42912097
 C            1.65743360        2.98496860        1.00030446
 C            3.42679916        1.05879652       -1.61515450
 C            2.80585572        2.20074136       -0.96447368
 C            2.28924184       -0.85424479       -2.37218202
 C            2.49169435        0.56162191       -2.61489677
 C            0.76571105       -2.57344324       -1.64927020
 C            0.99029386       -1.35203503       -2.29931961
 C           -1.02653706       -3.32330803       -0.18128581
 C           -0.53803595       -3.04237705       -1.52213649
 C           -2.41368629       -2.90454604       -0.10621529
 C           -1.87943410       -1.80810060        2.01810200
 C           -2.85680301       -2.25010957        1.03440589
 C           -1.22313379        0.53104696        2.35928113
 C           -2.21824865       -0.44892353        2.40103515
 C           -0.52643541        2.78469046        1.85916497
 C           -1.54454666        1.84662029        1.98762607
 C            0.76610817        3.73683114        0.13805023
 C           -0.56306536        3.68758604        0.71976006
 C            1.68130613        2.59429426       -1.80393136
 C            1.33731893        1.43948009       -2.61100870
 C            0.65685602        3.34635629       -1.25315636
 C           -0.08536557       -0.50030326       -2.59301177
 C            0.06875772        0.88249656       -2.48842291
 C           -1.59797059       -2.37729020       -2.24810955
 C           -2.78579927       -2.38324028       -1.41181028
 C           -1.36771109       -1.02060857       -2.69261177
 C           -3.39698307       -1.06922090       -1.49945702
 C           -2.48751337       -0.20832571       -2.24889290
 C           -3.85895388       -1.20433600        0.90521644
 C           -3.54089115       -0.16876557        1.87370562
 C           -4.05658059       -0.56297885       -0.38677611
 C           -2.73229879        2.10854815        1.30198653
 C           -3.77680346        1.10798184        1.24251012
 C           -4.05772071        0.86948099       -0.16740257
 C           -1.50301884        3.40314502       -0.34864826
 C           -0.72006653        2.93093644       -1.47819587
 C           -0.98695346        1.66752472       -2.01168802
 C           -2.25097266        1.09788205       -1.82123414
 C           -2.65511417        2.71041161       -0.01795079
 C           -3.14462451        1.70001143       -0.93533762




