%chk=000752.chk
%mem=8GB
%Nproc=32
#p B3LYP/6-31G* opt pop=NPA

Template file

0 1
 C            4.11047644       -1.38373513       -0.78736823
 C            4.31003897       -0.07460004       -0.20025492
 C            3.82731020       -0.12253022        1.16975203
 C            3.37807019       -2.18876008        0.17560274
 C            3.09288242       -1.36928450        1.33068720
 C            2.26185909       -2.77462888       -0.51952326
 C            3.26022959       -1.21651153       -1.95513183
 C            2.16957742       -2.14959767       -1.83120666
 C            3.73856334        0.90846551       -1.10462194
 C            2.93701368        0.18557247       -2.08163856
 C            3.22989085        2.07998083       -0.56219600
 C            3.30301117        1.03756671        1.72073021
 C            3.19771804        2.22520236        0.88575169
 C            2.08818895        0.95540692        2.51155509
 C            1.79045638       -1.33600951        1.83108740
 C            1.41749138       -0.25941254        2.64203933
 C            1.07112574       -2.97490411        0.16257138
 C            0.81024075       -2.21389792        1.32056836
 C            0.00469551       -3.33723196       -0.64533992
 C            0.90301697       -1.77978247       -2.27220176
 C           -0.12095068       -2.64871195       -1.91910751
 C            1.60970976        0.56322979       -2.28377249
 C            0.60219499       -0.41519102       -2.42577926
 C            1.97967291        2.60920357       -1.07818796
 C            1.26154215        1.89351189       -2.03490021
 C            1.97024045        2.91983537        1.24234373
 C            1.30141369        2.15433181        2.26201799
 C            1.24587841        3.20081415        0.03028093
 C           -0.08237379        2.02637843        2.22664906
 C            0.13362278       -0.21384501        3.16511951
 C           -0.60578883        1.03266674        3.04386778
 C           -0.48683832       -2.19299005        1.86594779
 C           -0.78793545       -1.29114628        2.88042906
 C           -1.30758427       -3.45968312       -0.06614808
 C           -1.54294406       -2.83078558        1.21062891
 C           -1.49802416       -2.23320858       -2.05765815
 C           -2.25807055       -2.90807493       -1.01641480
 C           -0.73255482       -0.00962373       -2.59032312
 C           -1.78567666       -0.90581605       -2.34217498
 C           -0.03805684        2.30908706       -2.28539925
 C           -0.99719075        1.34570006       -2.77683191
 C           -0.13866134        3.08724765        0.01751256
 C           -0.80099294        2.43310688        1.07997992
 C           -0.71111249        3.07174708       -1.24657887
 C           -2.16868447        2.10119817        0.95399034
 C           -2.00838680        0.71459243        2.97421986
 C           -2.13028417       -0.73515027        2.96595611
 C           -2.77033595        1.23094441        1.86366973
 C           -2.84552635       -2.18224920        1.13397481
 C           -3.24321268       -2.14808351       -0.26721083
 C           -3.10705302       -1.09194569        1.95330501
 C           -3.60617795        0.14576275        1.37089938
 C           -3.05629098       -0.43528801       -2.00211130
 C           -3.71623150       -0.96412796       -0.81899441
 C           -4.02093256        0.16667208        0.04530347
 C           -2.30703674        1.88570980       -2.46005226
 C           -2.12638725        2.84765786       -1.38311504
 C           -2.85180335        2.36086338       -0.23436504
 C           -3.35410707        0.97800181       -2.05766676
 C           -3.79892545        1.37634952       -0.73016610




