%chk=001485.chk
%mem=8GB
%Nproc=32
#p B3LYP/6-31G* opt pop=NPA

Template file

0 1
 C            3.93491892       -1.56383098       -0.60974266
 C            3.29064362       -2.38566245        0.39355139
 C            2.27411915       -3.16525893       -0.28642361
 C            3.10467327       -1.60651745       -1.80716340
 C            2.00696803       -2.51748986       -1.55041905
 C            2.79792913       -0.24079195       -2.17983201
 C            4.17697279       -0.17157288       -0.29809999
 C            3.67147507        0.61751567       -1.40884134
 C            3.59202729        0.38853235        0.90752065
 C            2.64788887       -1.74057968        1.52918716
 C            2.65630182       -0.35303397        1.63361973
 C            1.16385018       -3.31694105        0.62895038
 C            1.41509102       -2.45908009        1.78034810
 C           -0.12681281       -3.33046870        0.11617492
 C            0.70293159       -2.10219623       -1.79410919
 C           -0.33926292       -2.77798679       -1.15902108
 C            1.46889607        0.13773064       -2.32565378
 C            0.46147949       -0.83491657       -2.33993209
 C            1.12736384        1.48207923       -2.17110369
 C            3.11126263        1.83341141       -0.84877720
 C            3.30474582        1.77350586        0.59503388
 C            1.89611665        2.30761124       -1.33898891
 C            2.41849269        2.46218433        1.40727056
 C            1.57476852        0.29991176        2.23388447
 C            1.58564150        1.69576256        2.32121538
 C            0.33169162       -1.79384285        2.35076348
 C            0.41529770       -0.41323495        2.57862740
 C           -1.14072825       -3.25587266        1.06248561
 C           -0.92353920       -2.39386867        2.21090271
 C           -2.51541313       -3.11251137        0.63692535
 C           -1.63256111       -2.55572606       -1.62189232
 C           -2.76765265       -2.81294733       -0.75410556
 C           -0.85163961       -0.45648312       -2.64285023
 C           -1.90446428       -1.33272314       -2.35884601
 C           -0.13481993        1.89633604       -2.57985367
 C           -1.13431413        0.88743321       -2.89055469
 C           -0.79722877        2.98220075       -1.87257066
 C            1.27297729        3.33005623       -0.62724912
 C            1.56869648        3.46306470        0.78797153
 C           -0.14822061        3.56605890       -0.79773577
 C            0.33760392        2.42276247        2.49110663
 C            0.30583472        3.48407434        1.50462930
 C           -0.76383567        3.49450578        0.52179285
 C           -0.72702670        0.28342113        2.97541904
 C           -0.82251012        1.70888977        2.73115669
 C           -2.13921791       -1.62384913        2.41938475
 C           -3.11883039       -2.06093025        1.44074183
 C           -2.03699060       -0.27385481        2.70199484
 C           -3.63370330       -1.64886719       -0.80223347
 C           -3.18125277       -0.80393494       -1.88792396
 C           -3.69139480       -1.08194890        0.53345786
 C           -2.42573139        1.42001435       -2.49704451
 C           -2.19072977        2.61721281       -1.71275577
 C           -3.31989465        0.56656507       -1.74408002
 C           -1.88227545        2.68290877        0.71718247
 C           -1.99060235        1.92631701        1.88407233
 C           -2.75716991        0.68851830        1.87606315
 C           -3.39356934        0.26956104        0.70670398
 C           -2.69460153        2.37723056       -0.37194734
 C           -3.43066561        1.12154666       -0.39838731




