%chk=000575.chk
%mem=8GB
%Nproc=32
#p B3LYP/6-31G* opt pop=NPA

Template file

0 1
 C            4.42580481       -0.38398773        0.98942685
 C            3.71923525       -1.61263185        1.29831652
 C            3.55317102       -2.33842837        0.06084797
 C            4.38242038       -0.20716171       -0.45357946
 C            3.88155830       -1.43210519       -1.03267193
 C            3.66556361        1.02233737       -0.72024068
 C            3.68626241        0.71399894        1.58879926
 C            3.43841044        1.68941749        0.55248999
 C            2.53119413       -1.26480121        2.05334279
 C            2.53587734        0.17090215        2.27638248
 C            1.31729751       -1.86947895        1.75137488
 C            2.24942866       -2.89847565       -0.23399476
 C            1.21485597       -2.78930795        0.69449633
 C            2.71502133       -1.36769462       -1.89563083
 C            1.95779172       -2.57163787       -1.61412886
 C            2.63696106        1.04703977       -1.66600389
 C            2.02885309       -0.15878196       -2.05250233
 C            1.89727879        2.22446495       -1.73146146
 C            2.30200721        2.47952890        0.64699050
 C            1.88600274        3.06038068       -0.54468680
 C            1.33066586        0.86338246        2.17481799
 C            1.32768455        2.14092217        1.60250846
 C            0.16163503       -1.24687682        2.20935252
 C            0.12864679        0.15070400        2.27302279
 C           -1.02010768       -1.96710728        2.16030323
 C           -0.06161645       -3.17592925        0.27808899
 C           -1.11554200       -3.02845155        1.17590275
 C            0.63601705       -2.62420495       -2.01389395
 C           -0.33654823       -3.18734678       -1.09342919
 C            0.65719381       -0.19527504       -2.34936587
 C            0.03089512       -1.41807759       -2.55300413
 C            0.53055586        2.18135571       -2.21194838
 C           -0.11943129        0.95727938       -2.24530310
 C            0.67250503        3.84250670       -0.56561561
 C           -0.14902811        3.32906964       -1.65315325
 C            0.15669737        2.89178514        1.67732184
 C           -0.13598407        3.85976216        0.63288396
 C           -1.09249679        0.83427230        2.19659363
 C           -1.09015111        2.21877678        2.01216454
 C           -2.28465177       -1.26245375        2.18279470
 C           -2.28905248        0.12359644        2.04164555
 C           -2.48385583       -3.05775164        0.68682498
 C           -3.24010331       -2.07658447        1.44565363
 C           -1.63369828       -2.74419488       -1.57394735
 C           -1.40021993       -1.52180353       -2.33468325
 C           -2.72628318       -2.81322348       -0.72341682
 C           -1.48989793        0.86497321       -1.93466808
 C           -2.13992669       -0.37882895       -2.03780541
 C           -1.48828270        3.15387153       -1.14359109
 C           -1.50857312        3.65597949        0.22044028
 C           -2.15269895        2.83577678        1.22908132
 C           -2.17746062        1.97455164       -1.40302545
 C           -3.39230178        0.75668044        1.46468377
 C           -3.19895608        2.03194451        0.80944787
 C           -3.30065133        1.75348236       -0.61525256
 C           -4.15571240       -1.43121385        0.52913552
 C           -3.74508072       -1.78431750       -0.82217543
 C           -3.42414295       -0.54901006       -1.51845773
 C           -4.27262862        0.01023051        0.58216156
 C           -4.03240780        0.51817083       -0.75965978




