%chk=001652.chk
%mem=8GB
%Nproc=32
#p B3LYP/6-31G* opt pop=NPA

Template file

0 1
 C            3.51303549       -2.08882102        0.59208761
 C            2.49103306       -2.90670596        1.20383422
 C            1.84490251       -3.62821160        0.12706796
 C            3.29378168       -2.11523583       -0.85123281
 C            2.09289646       -2.87844071       -1.08804527
 C            3.34436153       -0.74719431       -1.31298809
 C            3.59025316       -0.69427932        0.96717980
 C            3.96302546        0.01250042       -0.24175965
 C            2.60005246       -0.14038381        1.77792082
 C            1.44018612       -2.24886619        1.95747337
 C            1.42160322       -0.85975366        2.02788032
 C            0.46779342       -3.82384842        0.50984334
 C            0.21195572       -2.95636855        1.65954650
 C           -0.46779342       -3.82384842       -0.50984334
 C            1.00491891       -2.28031928       -1.72531278
 C           -0.21195572       -2.95636855       -1.65954650
 C            2.24167791       -0.20132323       -1.96555805
 C            1.01808576       -0.89422975       -1.96904828
 C            2.25810822        1.16982450       -2.18728199
 C            3.83547093        1.39224180       -0.25668337
 C            3.15215296        1.99735144       -1.38718040
 C            2.59404225        1.24082975        1.91313870
 C            3.33685842        2.03956031        0.94632994
 C            1.34640511        1.92270647        2.18181849
 C            0.19377635       -0.19166577        2.14350062
 C            0.18505686        1.18657156        2.39604119
 C           -1.00491891       -2.28031928        1.72531278
 C           -1.01808576       -0.89422975        1.96904828
 C           -1.84490251       -3.62821160       -0.12706796
 C           -2.09289646       -2.87844071        1.08804527
 C           -1.44018612       -2.24886619       -1.95747337
 C           -2.49103306       -2.90670596       -1.20383422
 C           -0.19377635       -0.19166577       -2.14350062
 C           -1.42160322       -0.85975366       -2.02788032
 C            1.01202431        1.88677276       -2.32895986
 C           -0.18505686        1.18657156       -2.39604119
 C            2.39480498        3.13622040       -0.89558809
 C            2.49855804        3.15511678        0.54204174
 C            1.27305598        3.08527470        1.30863693
 C            1.07160988        3.06382038       -1.47438448
 C            0.04969761        3.36685615        0.70454975
 C           -0.04969761        3.36685615       -0.70454975
 C           -1.01202431        1.88677276        2.32895986
 C           -1.07160988        3.06382038        1.47438448
 C           -2.24167791       -0.20132323        1.96555805
 C           -2.25810822        1.16982450        2.18728199
 C           -3.29378168       -2.11523583        0.85123281
 C           -3.51303549       -2.08882102       -0.59208761
 C           -3.34436153       -0.74719431        1.31298809
 C           -2.60005246       -0.14038381       -1.77792082
 C           -3.59025316       -0.69427932       -0.96717980
 C           -3.96302546        0.01250042        0.24175965
 C           -1.34640511        1.92270647       -2.18181849
 C           -1.27305598        3.08527470       -1.30863693
 C           -2.59404225        1.24082975       -1.91313870
 C           -2.39480498        3.13622040        0.89558809
 C           -3.15215296        1.99735144        1.38718040
 C           -3.83547093        1.39224180        0.25668337
 C           -2.49855804        3.15511678       -0.54204174
 C           -3.33685842        2.03956031       -0.94632994




