%chk=000100.chk
%mem=8GB
%Nproc=32
#p B3LYP/6-31G* opt pop=NPA

Template file

0 1
 C            4.71374454        1.04952229        0.35959997
 C            4.62882029        0.75922101       -1.06142236
 C            4.25727892       -0.63475181       -1.20749681
 C            4.36770684       -0.15855406        1.08628692
 C            4.05042264       -1.19474813        0.11828237
 C            3.36542908        0.19067056        2.07686219
 C            3.70030389        2.03940224        0.67019558
 C            2.90702500        1.54072718        1.78601175
 C            3.54550590        1.55187454       -1.61896775
 C            3.00285878        2.37721045       -0.55994149
 C            3.16179411       -0.69716119       -2.15499826
 C            2.64023176        0.65334332       -2.31353710
 C            2.25577903       -1.73237860       -2.01962784
 C            2.93134675       -1.99809400        0.33618911
 C            2.22944218       -2.48072337       -0.76826745
 C            2.42498358       -0.76691584        2.41408124
 C            2.30140082       -1.95565049        1.58081080
 C            1.07879615       -0.34017778        2.75289964
 C            1.53876633        1.81630544        1.77966363
 C            0.63781369        0.91625571        2.36710785
 C            1.62606084        2.52740392       -0.48510348
 C            1.06880631        2.66146235        0.77916957
 C            1.26475832        0.87153700       -2.19711592
 C            0.81847758        1.99465997       -1.49514311
 C            0.87586691       -1.49445244       -2.39056705
 C            0.38341092       -0.19346865       -2.40152724
 C            0.87924760       -3.00049288       -0.60799495
 C            0.09676373       -2.52624763       -1.74315499
 C            0.93781546       -2.44033497        1.72773435
 C            0.20933893       -1.47393156        2.54119529
 C            0.28545553       -3.04179771        0.65366204
 C           -1.13695415       -1.26860723        2.26926065
 C           -0.73528538        1.13487132        2.20953812
 C           -1.60882783        0.03852645        2.04370275
 C           -0.24530930        3.07820243        0.84192872
 C           -1.11772833        2.39874936        1.77430453
 C           -0.55256758        2.24855950       -1.41880343
 C           -0.97456992        3.11017191       -0.40506575
 C           -0.98209777        0.00285558       -2.19378813
 C           -1.44612365        1.29180535       -1.91427208
 C           -1.26054841       -2.32100312       -1.56416212
 C           -1.81522097       -1.10884230       -1.98969004
 C           -1.10229058       -3.14615829        0.71741028
 C           -1.80677424       -2.34436877        1.70324883
 C           -1.85781532       -3.00333405       -0.51138410
 C           -3.16250238       -2.17623666        1.23533143
 C           -3.21776545       -2.68055758       -0.13132745
 C           -2.93887017        0.24054370        1.61028359
 C           -3.72637521       -0.84746154        1.22503462
 C           -2.46809372        2.62969884        1.31279617
 C           -2.37320719        3.17050535       -0.03953016
 C           -3.38361914        1.51705472        1.26297308
 C           -2.81943872        1.53380428       -1.85254949
 C           -3.32718198        2.46239310       -0.86103333
 C           -4.15769569        1.69223646        0.04355733
 C           -3.19532514       -0.93327474       -1.90314628
 C           -3.93858143       -1.70747341       -0.92536328
 C           -4.51459089       -0.75753681        0.00587102
 C           -3.73796052        0.41088687       -1.86865072
 C           -4.58213138        0.51427444       -0.68136126




