%chk=001375.chk
%mem=8GB
%Nproc=32
#p B3LYP/6-31G* opt pop=NPA

Template file

0 1
 C            4.58447351        0.26783973        0.56536049
 C            4.39424073       -0.47505579       -0.66790970
 C            3.86969080       -1.77250558       -0.29993727
 C            3.85183352       -0.42654665        1.61588864
 C            3.39975874       -1.68610232        1.07382517
 C            2.86062422        0.48419196        2.14221716
 C            4.18945653        1.65906569        0.60561819
 C            3.22521275        1.80894218        1.68620131
 C            3.60888109        2.25349446       -0.58515413
 C            3.52657344        0.06236954       -1.70822502
 C            3.14908086        1.39621007       -1.67097635
 C            2.90666649       -2.16225814       -1.31552051
 C            2.52767107       -0.94754356       -2.02273702
 C            1.89543199       -3.01740325       -0.92024659
 C            2.10379952       -2.11791594        1.32936765
 C            1.64982080       -3.13988192        0.50745551
 C            1.51800747        0.11425188        2.11234506
 C            1.16233801       -1.21864789        1.87144998
 C            0.53975079        1.11006376        2.04785755
 C            2.17161249        2.68112280        1.21492102
 C            2.47883644        3.05008763       -0.15257540
 C            0.85062716        2.35708017        1.48823858
 C            1.77093613        1.75167579       -1.96696835
 C            1.42169109        2.88928291       -1.13400843
 C            1.17445764       -0.59363183       -2.11190940
 C            0.80773551        0.75682277       -2.17176705
 C            0.58735596       -2.85173359       -1.51473526
 C            0.19317450       -1.58006990       -1.93510202
 C            0.29877145       -3.61078948        0.66379214
 C           -0.29877145       -3.61078948       -0.66379214
 C           -0.19317450       -1.58006990        1.93510202
 C           -0.58735596       -2.85173359        1.51473526
 C           -0.80773551        0.75682277        2.17176705
 C           -1.17445764       -0.59363183        2.11190940
 C           -1.77093613        1.75167579        1.96696835
 C           -0.11143354        2.95758448        0.68955303
 C            0.11143354        2.95758448       -0.68955303
 C           -1.42169109        2.88928291        1.13400843
 C           -0.53975079        1.11006376       -2.04785755
 C           -0.85062716        2.35708017       -1.48823858
 C           -1.16233801       -1.21864789       -1.87144998
 C           -1.51800747        0.11425188       -2.11234506
 C           -1.64982080       -3.13988192       -0.50745551
 C           -1.89543199       -3.01740325        0.92024659
 C           -2.10379952       -2.11791594       -1.32936765
 C           -2.52767107       -0.94754356        2.02273702
 C           -2.90666649       -2.16225814        1.31552051
 C           -3.14908086        1.39621007        1.67097635
 C           -3.52657344        0.06236954        1.70822502
 C           -2.47883644        3.05008763        0.15257540
 C           -2.17161249        2.68112280       -1.21492102
 C           -3.60888109        2.25349446        0.58515413
 C           -2.86062422        0.48419196       -2.14221716
 C           -3.22521275        1.80894218       -1.68620131
 C           -4.18945653        1.65906569       -0.60561819
 C           -3.39975874       -1.68610232       -1.07382517
 C           -3.86969080       -1.77250558        0.29993727
 C           -4.39424073       -0.47505579        0.66790970
 C           -3.85183352       -0.42654665       -1.61588864
 C           -4.58447351        0.26783973       -0.56536049




