%chk=001318.chk
%mem=8GB
%Nproc=32
#p B3LYP/6-31G* opt pop=NPA

Template file

0 1
 C            3.83862880       -0.80970655        1.55063088
 C            3.89884449        0.62824279        1.39978163
 C            4.10425986        0.91133067       -0.01159334
 C            4.04963232       -1.38892195        0.23287600
 C            3.85819779       -0.32367858       -0.73061528
 C            3.21247763       -2.56008836        0.14225623
 C            2.62363074       -1.40111072        2.07955713
 C            2.46190378       -2.65972655        1.38702751
 C            1.50197970       -0.59757082        2.28305804
 C            2.76193872        1.41414726        1.82816196
 C            1.65527594        0.79111422        2.39729449
 C            3.30697402        2.07365031       -0.35364206
 C            2.53649634        2.44485461        0.82889903
 C            2.68075206        2.08998192       -1.58846450
 C            2.79246157       -0.37238195       -1.63550079
 C            2.38958031        0.81784206       -2.24286453
 C            2.23916424       -2.63130081       -0.92579660
 C            1.93774303       -1.48659193       -1.66933167
 C            1.12342405       -3.08731726        1.03506355
 C            1.14597835       -3.40833769       -0.37982808
 C            0.21785880       -1.15681146        2.17770419
 C            0.02658011       -2.38691899        1.52698769
 C           -0.89430628       -0.41363279        2.58382910
 C            0.53135713        1.57938613        2.58909608
 C           -0.75315518        0.95120019        2.81423952
 C            1.24703507        2.96779353        0.69221907
 C            0.32254156        2.71925991        1.70533121
 C            1.52532503        2.94472018       -1.75162653
 C            0.78562330        3.34756076       -0.56757029
 C            1.06049072        0.91084232       -2.81911751
 C            0.60052577        2.27132445       -2.64541309
 C            0.66334416       -1.37993877       -2.24335369
 C            0.16452833       -0.12710262       -2.60921457
 C           -0.05809770       -3.39702489       -1.05850795
 C           -0.20273539       -2.46924867       -2.16584602
 C           -1.22205026       -2.68332963        0.97943123
 C           -1.27896215       -3.27885760       -0.28226838
 C           -2.17177527       -0.93566740        2.39793892
 C           -2.35107778       -2.05235591        1.49031894
 C           -3.29249199       -0.02748281        2.20918201
 C           -1.76858748        1.87471034        2.33247897
 C           -1.10492926        2.81158318        1.43309606
 C           -3.02600159        1.38665603        2.01121173
 C           -0.62863693        3.22608908       -0.88694902
 C           -0.73510252        2.47907098       -2.13165458
 C           -1.55489377        2.96729151        0.12081326
 C           -1.20899222        0.14845962       -2.51066243
 C           -1.65356356        1.43938380       -2.19342378
 C           -1.62654405       -2.25964679       -2.35392177
 C           -2.30703878       -2.86379395       -1.21716712
 C           -2.11890078       -0.90446533       -2.48803424
 C           -3.46576032       -1.73443353        0.60605259
 C           -4.07084936       -0.50299509        1.07692738
 C           -3.32591831       -1.93987789       -0.76143782
 C           -3.31156643       -0.79559978       -1.66581872
 C           -3.61780800        1.77664645        0.74653318
 C           -2.77687910        2.41018294       -0.25333275
 C           -2.82557956        1.59689407       -1.45804358
 C           -4.22125366        0.59780354        0.14518557
 C           -3.69109604        0.45789419       -1.20218246




