%chk=000883.chk
%mem=8GB
%Nproc=32
#p B3LYP/6-31G* opt pop=NPA

Template file

0 1
 C            4.01483022        0.63540244        1.62880494
 C            4.20047895       -0.29593622        0.53016139
 C            3.43248716       -1.48969387        0.82840292
 C            2.98247123        0.09478832        2.49631529
 C            2.67376846       -1.24201929        2.04647251
 C            1.90245264        1.04998858        2.55790112
 C            3.51529676        1.87952867        1.07328799
 C            2.24277207        2.17739367        1.70940275
 C            3.93489316        0.40763001       -0.70824463
 C            3.55687754        1.77463299       -0.37263463
 C            3.26483037       -0.26749802       -1.72135743
 C            2.80483116       -2.18108978       -0.20463137
 C            2.78432261       -1.62615427       -1.49198427
 C            1.81641759       -3.09174828        0.15727628
 C            1.35657194       -1.68927975        2.09938161
 C            1.06430167       -2.83711800        1.37747697
 C            0.59552965        0.58961404        2.52087379
 C            0.32245484       -0.78009281        2.36967181
 C           -0.39874810        1.51035419        2.21760262
 C            1.22741029        2.75614164        0.94963876
 C           -0.09975427        2.56737060        1.35010150
 C            2.56063219        2.41258161       -1.09893959
 C            1.48945956        3.08961543       -0.38140323
 C            2.26562206        0.42621601       -2.52157470
 C            1.95727928        1.74981751       -2.24631613
 C            1.62746958       -1.81883272       -2.36072762
 C            1.18473432       -0.50636178       -2.79279489
 C            0.88603130       -3.57061726       -0.84538254
 C            0.67807113       -2.77162557       -2.03516670
 C           -0.31605630       -3.20726986        1.14349196
 C           -0.40141607       -3.75339005       -0.20171114
 C           -1.01561885       -1.19176089        2.26891954
 C           -1.33925565       -2.37319274        1.58035972
 C           -1.71435685        1.14884307        2.46741808
 C           -2.01615747       -0.26618949        2.58354582
 C           -2.79680960        1.78575881        1.73698239
 C           -1.11590898        3.16342442        0.60287754
 C           -2.49165528        2.71860858        0.75636636
 C            0.38450667        3.21779209       -1.31329838
 C            0.57115767        2.18334468       -2.32078960
 C           -0.88903366        3.42418511       -0.80943681
 C           -0.13645637       -0.11285314       -2.57706001
 C           -0.44552653        1.25019813       -2.53687815
 C           -0.72999796       -2.40861542       -2.07859638
 C           -1.41827507       -3.22420268       -1.09071667
 C           -1.10318656       -1.07133462       -2.23998010
 C           -2.56607894       -2.48769187        0.92298138
 C           -2.56866441       -2.71679610       -0.51224201
 C           -3.37301129       -0.46168548        2.10838000
 C           -3.79827469        0.76726119        1.45831839
 C           -3.63559869       -1.55245778        1.20100301
 C           -2.38921326       -0.67418365       -1.85744315
 C           -3.17582802       -1.53823256       -1.09655992
 C           -4.12778051        0.45285470        0.07546750
 C           -4.05099750       -0.98685650       -0.07575637
 C           -3.04704104        2.54309521       -0.57555793
 C           -2.00275239        2.84517138       -1.53539823
 C           -1.76057199        1.65093472       -2.32737038
 C           -3.61723953        1.25758925       -0.93473345
 C           -2.75669623        0.66464342       -1.95419753




