%chk=000840.chk
%mem=8GB
%Nproc=32
#p B3LYP/6-31G* opt pop=NPA

Template file

0 1
 C            4.15980979        1.00700137       -0.60667346
 C            3.97766882       -0.39448019       -0.93459891
 C            3.59210328       -1.09211114        0.27712244
 C            3.76003370        1.19399990        0.77811884
 C            3.40629369       -0.09298800        1.32130991
 C            2.76410616        2.23339041        0.81299512
 C            3.24516214        1.77341388       -1.43469800
 C            2.47915768        2.63132145       -0.55890881
 C            3.09488139       -0.47197671       -2.07868218
 C            2.51740945        0.84923598       -2.27660048
 C            2.26587217       -1.57478932       -2.18315850
 C            2.67916450       -2.14337108        0.19471096
 C            2.14114766       -2.48759778       -1.04967523
 C            1.99201287       -2.49377840        1.35432825
 C            2.29504667       -0.20601565        2.15016251
 C            1.87381380       -1.50342582        2.41312413
 C            1.68971200        2.12282540        1.69013982
 C            1.37878553        0.86566545        2.25751609
 C            0.67772938        3.05713946        1.50044881
 C            1.15610652        2.91220145       -0.88144544
 C            0.38632107        3.46604202        0.13650709
 C            1.13256702        0.98520577       -2.36301442
 C            0.52076500        2.14513167       -1.86953014
 C            0.93466183       -1.39149170       -2.72579027
 C            0.35196892       -0.12620202       -2.70257237
 C            0.81655882       -3.09273347       -1.13051010
 C            0.15488717       -2.53651426       -2.30558235
 C            0.72180217       -3.19631204        1.26729659
 C            0.08962048       -3.32907344        0.03548630
 C            0.62546153       -1.72534014        3.09721429
 C           -0.06347969       -2.81768213        2.42955604
 C            0.12990752        0.66516987        2.89052235
 C           -0.29303624       -0.62093801        3.20895167
 C           -0.57265410        2.90682176        2.19916944
 C           -0.87304369        1.62241578        2.77775571
 C           -1.05336929        3.56358811       -0.00937729
 C           -1.64718535        3.25191813        1.28181478
 C           -0.83256499        2.34764856       -2.12514906
 C           -1.64781127        3.07554965       -1.16312597
 C           -1.03940173       -0.01288690       -2.76320360
 C           -1.62589453        1.24304285       -2.63667909
 C           -1.22637653       -2.44159116       -2.33056360
 C           -1.83829255       -1.15442538       -2.62627738
 C           -1.30451098       -3.37336219       -0.01467893
 C           -1.98412258       -3.05482699       -1.25756676
 C           -1.44819216       -2.42663184        2.24130228
 C           -1.59293576       -1.06412116        2.72584956
 C           -2.08658605       -2.79410326        1.07007377
 C           -2.18170525        1.20373638        2.29530455
 C           -2.66230176        2.21381931        1.36863308
 C           -2.39801619       -0.15079402        2.04311209
 C           -2.92808038        2.39658834       -1.05851917
 C           -2.95248462        1.34173026       -2.05413850
 C           -3.32330641        1.81842128        0.21667359
 C           -3.08889009       -1.07792125       -1.88055632
 C           -3.10288986       -2.18213148       -0.94167890
 C           -3.04715355       -1.88241922        0.47808270
 C           -3.08613245       -0.54933874        0.88760308
 C           -3.52310682        0.16124331       -1.43721532
 C           -3.58701384        0.40710706       -0.00071530




