%chk=001326.chk
%mem=8GB
%Nproc=32
#p B3LYP/6-31G* opt pop=NPA

Template file

0 1
 C            4.02031343       -1.23605895        0.22467010
 C            3.74013803       -0.81066794        1.57794079
 C            3.70590118        0.64331045        1.58822988
 C            4.22222306       -0.03670393       -0.57456608
 C            3.74018672        1.08534461        0.20527169
 C            3.63615584       -0.28042804       -1.87009205
 C            3.03511422       -2.05035389       -0.46503548
 C            3.05245899       -1.61332131       -1.84143438
 C            1.80516024       -2.31278642        0.14538792
 C            2.52026798       -1.27205568        2.20237529
 C            1.68696526       -2.16692518        1.53514033
 C            2.59135742        1.05884970        2.42512278
 C            1.90737660       -0.14122732        2.87804726
 C            1.83480221        2.14428335        2.02273260
 C            2.69325968        1.87832026       -0.26978034
 C            1.97995447        2.63680075        0.66015385
 C            2.61245340        0.62478869       -2.35201400
 C            2.18465007        1.69355090       -1.56752954
 C            1.79588443       -1.54832336       -2.54660258
 C            1.61667872       -0.18754922       -3.02829879
 C            0.65413103       -2.49480653       -0.64775975
 C            0.68933710       -2.19680466       -2.02416584
 C           -0.55404405       -2.87593132       -0.03910983
 C            0.46665720       -2.42767808        2.13940795
 C           -0.62697808       -2.94405613        1.34678688
 C            0.52044593       -0.15499589        3.03160990
 C           -0.08126852       -1.40953877        3.02250468
 C            0.41991859        2.16280490        2.33458354
 C           -0.23345056        0.97532548        2.66953958
 C            0.72653376        3.26799436        0.29090593
 C           -0.20089181        3.08223852        1.39860297
 C            1.00990678        2.33406928       -1.95527998
 C            0.27439144        3.16005318       -1.01428307
 C            0.31583178        0.30024989       -3.16684180
 C            0.04418488        1.61220934       -2.77491670
 C           -0.49851938       -1.96163515       -2.69769460
 C           -0.72814371       -0.62501751       -3.22383575
 C           -1.74801307       -2.86080875       -0.76195002
 C           -1.73636897       -2.45152992       -2.14572884
 C           -2.94986918       -2.30352486       -0.15671601
 C           -1.85765587       -2.54623316        2.01289409
 C           -1.52010940       -1.51309643        2.97971638
 C           -2.96514993       -2.05899859        1.21011983
 C           -1.62196706        0.88298340        2.47381788
 C           -2.28197779       -0.33232966        2.64896403
 C           -3.31197819       -0.73287841        1.70114833
 C           -1.55808544        2.96010957        1.14849074
 C           -2.30276847        1.92084938        1.83616582
 C           -1.14533069        2.98495602       -1.27508077
 C           -1.28955479        1.97495975       -2.31515674
 C           -2.04853813        3.01936967       -0.22064164
 C           -2.07334300       -0.23140562       -2.83550778
 C           -2.74045366       -1.41344023       -2.31519248
 C           -3.48829992       -1.31111350       -1.07566096
 C           -2.27631904        0.99591951       -2.21460463
 C           -3.82879345        0.21546267        0.82646230
 C           -3.46019956        1.60795268        1.01569977
 C           -3.24240892        2.19851704       -0.29538164
 C           -3.83083080       -0.04932473       -0.60513438
 C           -3.30132899        1.13027580       -1.27649663




