%chk=001072.chk
%mem=8GB
%Nproc=32
#p B3LYP/6-31G* opt pop=NPA

Template file

0 1
 C            3.28955076       -2.79846976        0.54958228
 C            3.82133770       -1.51474382        0.95907844
 C            2.91629288       -0.93584128        1.94243933
 C            2.06115019       -3.01615270        1.28777528
 C            1.82871875       -1.87222077        2.14995546
 C            1.02708424       -3.34803851        0.33001454
 C            2.94297550       -2.69976277       -0.85845985
 C            1.52312680       -2.98477983       -0.98689029
 C            4.10668516       -0.75267226       -0.24293459
 C            3.45239420       -1.43540688       -1.35360238
 C            4.02981213        0.62973340       -0.15289397
 C            2.63815256        0.42271189        1.85738916
 C            3.48376918        1.20269520        1.06434983
 C            1.35087275        0.88253082        2.17186143
 C            0.52580175       -1.39833764        2.24184171
 C            0.28792746       -0.02125112        2.30860967
 C           -0.27287510       -2.98490842        0.63657402
 C           -0.49496213       -2.23063140        1.79056738
 C           -1.14571405       -2.80562249       -0.42593980
 C            0.72246234       -2.17694030       -1.79843786
 C           -0.65793835       -2.15053723       -1.56159710
 C            2.67311563       -0.70955351       -2.24636055
 C            1.30642890       -1.13474534       -2.52471851
 C            3.46382322        1.39397732       -1.25311909
 C            2.68850107        0.74488033       -2.20435932
 C            3.13096058        2.56930849        0.75167478
 C            2.98702520        2.64846001       -0.69677900
 C            1.07455091        2.24515539        2.11885272
 C            1.93446298        3.12109963        1.34289318
 C           -0.28158620        2.67270823        1.85046068
 C           -1.03979692        0.44332667        2.34263375
 C           -1.33181171        1.77849857        2.03105087
 C           -1.80169006       -1.88178795        2.09781997
 C           -2.08172315       -0.48791006        2.39932520
 C           -2.50027883       -2.74719735       -0.12586621
 C           -2.86062452       -2.37035301        1.22875132
 C           -3.39327427       -2.05381762       -1.03231400
 C           -1.42622162       -1.14113965       -2.15017430
 C           -2.81060107       -1.18114482       -2.03102217
 C            0.52649069        0.05796999       -2.80909532
 C            1.33568233        1.21557324       -2.47562859
 C           -0.81661586        0.06680151       -2.48002263
 C            1.62484237        3.07217024       -0.97055359
 C            1.12971321        3.65145060        0.25662743
 C           -0.24803138        3.41231449        0.59852980
 C            0.78016878        2.24335302       -1.71113795
 C           -1.40210844        1.26472301       -2.07225147
 C           -1.12098269        3.00181147       -0.39408848
 C           -0.60421053        2.24949615       -1.46627539
 C           -2.51436653        2.07355342        1.34819088
 C           -2.40284695        2.72463656        0.05248513
 C           -3.37969641       -0.16332145        1.82372296
 C           -3.88869753       -1.35056184        1.15292282
 C           -4.31938686       -1.26775230       -0.23231198
 C           -3.57659544        1.09061531        1.26159328
 C           -3.54140617        0.07285200       -1.99770994
 C           -2.78677171        1.31422640       -1.93365150
 C           -3.33554983        2.09292438       -0.84831410
 C           -4.44220714        0.03566216       -0.85391557
 C           -4.18530877        1.22038219       -0.05714780




