%chk=001689.chk
%mem=8GB
%Nproc=32
#p B3LYP/6-31G* opt pop=NPA

Template file

0 1
 C            2.22893453       -3.26790629       -0.36526618
 C            3.11897088       -2.48369500        0.46079449
 C            3.72631764       -1.47346948       -0.38946448
 C            2.20483119       -2.66698851       -1.69148142
 C            2.97367355       -1.44464642       -1.63283783
 C            0.82244533       -2.59390614       -2.11434670
 C            0.85271764       -3.42566080        0.05811081
 C            0.02234856       -3.29857351       -1.12511699
 C            0.41058672       -2.83738673        1.24085860
 C            2.56837286       -1.79693798        1.61233225
 C            1.19324003       -1.85003688        1.85845673
 C            3.83272486       -0.25105966        0.38981602
 C            3.25996611       -0.52267671        1.70159753
 C            3.55813357        0.95813800       -0.23765053
 C            2.38388711       -0.24892940       -2.03215659
 C            2.91615455        0.94346452       -1.54343158
 C            0.32818047       -1.41107736       -2.64770373
 C            1.11647041       -0.24942716       -2.63442667
 C           -1.05297081       -1.30799521       -2.77764943
 C           -1.31424143       -2.94442563       -0.95466999
 C           -1.90371548       -2.08841379       -1.88983755
 C           -0.95964880       -2.86093092        1.47258446
 C           -1.84737090       -3.03578657        0.33080964
 C           -1.55352346       -1.85168617        2.32533151
 C            0.58304502       -0.79493099        2.55104850
 C           -0.81146896       -0.71320538        2.62435473
 C            2.66150665        0.50491352        2.41445426
 C            1.36084742        0.26431659        3.01162536
 C            2.97450567        2.04961876        0.52661346
 C            2.63724618        1.85051887        1.85885284
 C            2.17065405        2.17960391       -1.67979752
 C            2.06194754        2.77265627       -0.35220517
 C            0.56708794        0.96038838       -3.06511258
 C            1.08028000        2.21329426       -2.53240745
 C           -1.67613970       -0.01236289       -2.97596464
 C           -0.87495571        1.09464644       -3.19764610
 C           -3.04108379       -1.25256225       -1.52316565
 C           -2.80028891        0.08399198       -2.05285068
 C           -3.10373939       -2.38101912        0.64536067
 C           -2.94815036       -1.73352248        1.93872699
 C           -3.64174781       -1.40490174       -0.28209873
 C           -3.53021414       -0.41502670        1.84504249
 C           -3.99064278       -0.22112707        0.47873578
 C           -1.44462976        0.53777985        2.73951296
 C           -2.70972014        0.72479635        2.19490254
 C            0.73538770        1.55337503        3.19814910
 C            1.46638101        2.51895244        2.39279329
 C           -0.66943706        1.68119333        2.87826982
 C            0.82181376        3.21587203        0.11997777
 C            0.52305586        3.13547936        1.47609098
 C           -0.81467489        2.73599277        1.88483021
 C           -0.05394439        3.03778592       -2.16753359
 C           -1.26096570        2.35797864       -2.60191261
 C           -0.22444773        3.41386067       -0.77526153
 C           -2.94746594        1.20899343       -1.23404176
 C           -3.51304964        1.07609393        0.02885568
 C           -2.87047736        1.72989748        1.15834699
 C           -1.82739557        2.62929334        0.92829046
 C           -2.19657202        2.35082565       -1.49204655
 C           -1.57903219        3.05655323       -0.37744272




