%chk=000880.chk
%mem=8GB
%Nproc=32
#p B3LYP/6-31G* opt pop=NPA

Template file

0 1
 C            4.26969885       -1.17460289        0.18603559
 C            3.76457893       -1.30628224       -1.16849371
 C            2.69721753       -2.28894368       -1.15437514
 C            3.38819369       -1.92724334        1.06170526
 C            2.48386028       -2.69376941        0.22966173
 C            2.81039860       -1.00534064        2.01714538
 C            4.16573384        0.22280676        0.56100521
 C            3.44999423        0.28800986        1.82135756
 C            3.47406253        0.02057042       -1.67214892
 C            3.62655450        0.95979027       -0.57090592
 C            2.40444910        0.17260555       -2.53492690
 C            1.58358490       -2.10034282       -1.97416528
 C            1.49748834       -0.94892628       -2.76337749
 C            0.41787774       -2.79519063       -1.65784556
 C            1.17564420       -2.88507396        0.65940170
 C            0.25955823       -3.29414386       -0.30248017
 C            1.43527654       -1.06490914        2.23707785
 C            0.71562114       -2.17369675        1.77685309
 C            0.74733309        0.08531349        2.63830942
 C            2.71214225        1.43077502        2.07833388
 C            1.42889184        1.29244331        2.73745099
 C            2.64277618        1.92146328       -0.32425305
 C            2.49881403        2.36904001        0.98829488
 C            1.59000163        1.36534558       -2.42889809
 C            1.59754924        2.10353669       -1.24506240
 C            0.19204183       -0.38603231       -3.08720214
 C            0.32760674        1.06104309       -3.07298334
 C           -0.87316025       -2.27677661       -2.08018717
 C           -0.95968151       -0.97955598       -2.57545555
 C           -1.15632815       -3.31243398        0.01026414
 C           -1.86699541       -2.76416641       -1.14036966
 C           -0.61269384       -2.31127325        2.17499116
 C           -1.55609071       -2.98621394        1.29876463
 C           -0.64851523        0.07751492        2.66527985
 C           -1.28872644       -1.15334684        2.73240542
 C           -1.36523380        1.21748527        2.26627321
 C            0.70641516        2.52089084        2.48389931
 C            1.35331766        3.17265809        1.35135088
 C           -0.71264822        2.44584921        2.19111662
 C            0.48116180        2.89338080       -0.92540520
 C            0.33476927        3.41872087        0.35723511
 C           -0.94518005        3.29152972        1.03549996
 C           -0.77466266        1.83294287       -2.76388899
 C           -0.63934921        2.87280446       -1.75785222
 C           -2.09169400       -0.19802004       -2.31100199
 C           -2.05102036        1.17689822       -2.54349453
 C           -3.03564924       -2.03872260       -0.95842252
 C           -3.15716634       -0.72808155       -1.57569949
 C           -2.86412855       -2.39523188        1.51310250
 C           -2.69211697       -1.24439294        2.38658331
 C           -3.63772506       -1.96880666        0.36227192
 C           -2.61096208        1.08607107        1.64045758
 C           -3.89988205        0.12927572       -0.65777609
 C           -3.32233934       -0.10479838        1.75384302
 C           -4.04331771       -0.59383507        0.59168010
 C           -2.08306198        3.07716144        0.27423566
 C           -1.95474122        3.07809976       -1.17222839
 C           -2.84238244        2.05591668       -1.70280848
 C           -2.97456604        1.98460340        0.63347666
 C           -3.57259504        1.47560739       -0.59365518




