%chk=000114.chk
%mem=8GB
%Nproc=32
#p B3LYP/6-31G* opt pop=NPA

Template file

0 1
 C            4.62455701       -0.86699502       -0.70872829
 C            4.68039667        0.58008376       -0.74106717
 C            4.27269528        1.06250237        0.56588183
 C            4.13885609       -1.26152135        0.60360522
 C            3.77439000       -0.06836914        1.33102944
 C            3.11600370       -2.24961337        0.39306662
 C            3.62667459       -1.29122833       -1.67600812
 C            2.81933758       -2.29575214       -1.03123249
 C            3.68060861        1.03845519       -1.68968419
 C            2.94750608       -0.11697289       -2.17095777
 C            3.37362905        2.17350977        0.34464185
 C            2.93137280        2.09393887       -1.04159422
 C            2.40472698        2.40968255        1.30720996
 C            2.50235547        0.02217322        1.90709055
 C            1.99618573        1.29806790        2.16221020
 C            2.02641603       -2.28134934        1.25017071
 C            1.62254531       -1.07882667        1.86779798
 C            1.04488961       -3.18246433        0.87113403
 C            1.47711561       -2.40186220       -1.37589700
 C            0.73831042       -3.23396872       -0.54937128
 C            1.55503713       -0.08821364       -2.11781955
 C            0.83310108       -1.27727518       -1.92417108
 C            1.56769932        2.19121261       -1.28987538
 C            0.91035147        1.13759922       -1.94204084
 C            1.18440469        3.07378558        0.89167469
 C            0.82533495        3.01911320       -0.45434932
 C            0.58281248        1.47041898        2.45164639
 C            0.18876843        2.75360299        1.89789925
 C            0.26984218       -0.89914208        2.23038207
 C           -0.27065139        0.38387956        2.31915240
 C           -0.20074497       -3.20089528        1.59309038
 C           -0.59547177       -1.98816671        2.26537223
 C           -0.69435506       -3.27063227       -0.68648054
 C           -1.23741868       -3.52509770        0.63388536
 C           -0.57150317       -1.22019504       -1.93817646
 C           -1.32116098       -2.31752582       -1.47583931
 C           -0.47260355        1.19768419       -2.09057468
 C           -1.20256221        0.01090554       -2.18687062
 C           -0.49409659        3.27294859       -0.79677544
 C           -1.12509506        2.38376288       -1.75442069
 C           -1.14366201        2.96479638        1.58717783
 C           -1.44882355        3.50036620        0.27315795
 C           -1.63473417        0.60000197        2.07319210
 C           -2.09631241        1.89608299        1.83756513
 C           -2.00777897       -1.78191051        1.98286409
 C           -2.42550113       -2.79556979        1.01557852
 C           -2.49652956       -0.48105107        1.86021711
 C           -2.70168415       -2.19962334       -1.32982353
 C           -3.28063818       -2.40917184       -0.00450459
 C           -2.59112011        0.07834622       -2.29981190
 C           -3.38020421       -1.08016890       -1.94058844
 C           -2.55007525        2.37578794       -1.47049373
 C           -2.72474616        2.95241279       -0.14560558
 C           -3.21079401        2.10069378        0.92786034
 C           -3.29066374        1.25056657       -1.79544633
 C           -3.70631551       -0.27875260        1.18751745
 C           -4.16064689       -1.29319978        0.25356862
 C           -4.41926255       -0.64847432       -1.02046470
 C           -3.99849222        1.01304248        0.58740219
 C           -4.26227615        0.77856508       -0.82436927




