%chk=000435.chk
%mem=8GB
%Nproc=32
#p B3LYP/6-31G* opt pop=NPA

Template file

0 1
 C            4.34785276       -1.11899904       -0.81562950
 C            4.46363845        0.25881950       -0.37478038
 C            4.22095995        0.28735040        1.05528441
 C            3.83409130       -1.89804072        0.29915243
 C            3.79998375       -1.04415688        1.46323467
 C            2.59689202       -2.51638690       -0.13009690
 C            3.35617361       -1.16241046       -1.87726599
 C            2.35419013       -2.13413317       -1.50631023
 C            3.62896197        1.07514148       -1.23870829
 C            2.91545134        0.18831651       -2.14635984
 C            2.94328058        2.15192201       -0.69159819
 C            3.25413226        1.23721148        1.57891661
 C            2.78179344        2.25096760        0.75646118
 C            2.54657299       -0.90998788        2.18049287
 C            2.30321861        0.50256597        2.39761032
 C            1.49591035       -2.54664277        0.72237957
 C            1.45907095       -1.71823137        1.85844825
 C            0.28099626       -2.93827385        0.16029708
 C            1.03402777       -1.90349112       -1.86492529
 C            0.06056463       -2.63122568       -1.19164403
 C            1.55993941        0.41423121       -2.38105086
 C            0.67003455       -0.67226704       -2.42980084
 C            1.68472065        2.55236812       -1.29541958
 C            1.06086514        1.70563144       -2.20537027
 C            1.46011566        2.79336023        1.01264964
 C            0.87984721        3.17964540       -0.26197052
 C            0.98074885        0.93603634        2.47056388
 C            0.63893882        2.19726323        1.96190211
 C            0.21579637       -1.35976515        2.38444173
 C           -0.02092037       -0.01536687        2.69992494
 C           -0.79472449       -3.09903075        1.02614505
 C           -0.85631204       -2.22545821        2.17798527
 C           -2.13622459       -3.25411046        0.50189556
 C           -1.22380144       -2.60927314       -1.71765711
 C           -2.35111839       -3.02565245       -0.90838392
 C           -0.67941459       -0.44103724       -2.73325672
 C           -1.62245899       -1.44650821       -2.48894656
 C           -0.26283599        1.96545675       -2.52561358
 C           -1.11465782        0.86691329       -2.93627027
 C           -0.50687299        3.17740310       -0.40063635
 C           -1.04151774        2.81882908       -1.63847398
 C           -0.68955097        2.60479062        1.98807190
 C           -1.29409944        3.08498868        0.75248754
 C           -1.31348789        0.41551126        2.98310685
 C           -1.66579102        1.78600909        2.67662290
 C           -2.22422946       -1.74550140        2.30206914
 C           -3.00612682       -2.35232013        1.23929879
 C           -2.44404044       -0.41302617        2.60860419
 C           -3.38786735       -2.01723170       -1.04431949
 C           -2.98136149       -1.09597436       -2.08705305
 C           -3.67054322       -1.48849301        0.27805016
 C           -2.47896873        1.22903334       -2.59198294
 C           -2.42832989        2.40363274       -1.73680646
 C           -3.31871856        0.24043738       -1.94865483
 C           -2.65345392        2.55974952        0.68747328
 C           -2.88256221        1.76794972        1.87951901
 C           -3.29583911        0.38387736        1.73632745
 C           -3.64994717       -0.10896545        0.47917871
 C           -3.15974761        2.10872750       -0.52188224
 C           -3.67324502        0.74782121       -0.62772725




