%chk=000388.chk
%mem=8GB
%Nproc=32
#p B3LYP/6-31G* opt pop=NPA

Template file

0 1
 C            4.37326296       -0.33761520        1.67699598
 C            4.69647581        0.10847323        0.33311576
 C            4.41254741       -0.98447778       -0.57560624
 C            3.71107341       -1.62829876        1.57071109
 C            3.82796412       -2.06818150        0.20203824
 C            2.37993717       -1.49938514        2.13948752
 C            3.41811240        0.60169010        2.23548954
 C            2.25631922       -0.14664664        2.65058613
 C            4.03563060        1.38130731        0.11266958
 C            3.22027380        1.67528248        1.28650108
 C            3.51922439        1.66082779       -1.14646511
 C            3.54994046       -0.73902973       -1.72270185
 C            3.19898108        0.56180614       -2.05539243
 C            2.62298665       -2.49119721       -0.47347286
 C            2.52435685       -1.76557092       -1.72797008
 C            1.27241548       -2.05947483        1.48611780
 C            1.44993009       -2.70117769        0.24791239
 C           -0.00433624       -1.58863494        1.84842756
 C            1.01398520        0.44760810        2.54342098
 C           -0.08102319       -0.39736308        2.57656103
 C            1.93164773        2.18544695        1.11468224
 C            0.87237607        1.67163605        1.87512222
 C            2.44192091        2.62486809       -1.23897320
 C            1.64254111        2.88163885       -0.05387511
 C            1.87703714        0.81050489       -2.60628005
 C            1.53762641        2.17796265       -2.28351268
 C            1.24658133       -1.49073051       -2.21422893
 C            0.88600406       -0.16835999       -2.50891890
 C            0.32946026       -2.98422530       -0.51759017
 C            0.25102662       -2.38594131       -1.84373555
 C           -1.14676930       -2.08521947        1.20334746
 C           -0.98437741       -2.87530420        0.07326557
 C           -2.40269498       -1.51486799        1.45123578
 C           -1.30849373        0.19177337        2.81038444
 C           -2.51003868       -0.49345022        2.39317594
 C           -0.42860351        2.14110428        1.65019774
 C           -1.44592865        1.58592040        2.42929821
 C            0.26394628        2.99088376       -0.48956440
 C            0.19352016        2.45414358       -1.83464560
 C           -0.75946965        2.64767548        0.38579863
 C           -0.46595378        0.21962698       -2.45699681
 C           -0.80663079        1.53148353       -2.09051526
 C           -1.13628147       -2.05835893       -2.08911664
 C           -1.90145180       -2.71147703       -1.03629111
 C           -1.46864474       -0.76091901       -2.46788425
 C           -3.46350373       -1.77353926        0.57272719
 C           -3.17602756       -2.24973384       -0.77062701
 C           -4.56761505       -0.83080905        0.45654622
 C           -3.52852029        0.53395965        2.25310315
 C           -2.82989264        1.79137036        2.04273666
 C           -4.51736648        0.40770422        1.20386485
 C           -1.99963788        2.31795251       -0.17306579
 C           -2.02120465        1.74255821       -1.45352302
 C           -3.09221009        2.19526513        0.68146691
 C           -4.28349637        1.48672218        0.25182895
 C           -2.80503618       -0.37012543       -2.35290283
 C           -3.72924289       -1.27210201       -1.68507522
 C           -4.69407083       -0.47669110       -0.94693651
 C           -3.09258026        0.96535766       -1.86704301
 C           -4.30600238        0.91635413       -1.07590624




