%chk=000146.chk
%mem=8GB
%Nproc=32
#p B3LYP/6-31G* opt pop=NPA

Template file

0 1
 C            4.63187164       -0.51023856        1.27150835
 C            4.92051205       -0.23569692       -0.12431050
 C            4.21025492       -1.21676477       -0.92400572
 C            3.71371938       -1.63414076        1.32197060
 C            3.43549318       -2.06458270       -0.03214543
 C            2.59401400       -1.24594300        2.14672116
 C            3.93671769        0.64283433        1.81925752
 C            2.70382837        0.17266508        2.43463182
 C            4.36397539        1.06696930       -0.44632375
 C            3.85106229        1.65186510        0.78059497
 C            3.50102524       -0.50102413       -1.96616766
 C            3.45643492        0.90063929       -1.57362296
 C            2.34547983       -1.07605905       -2.46063589
 C            2.11741258       -2.36083972       -0.38220460
 C            1.73216172       -2.15983663       -1.70392856
 C            1.33914466       -1.72131212        1.82509428
 C            1.12748486       -2.38130337        0.60755029
 C            0.26393179       -1.06542348        2.39619971
 C            1.54956671        0.95900840        2.33829205
 C            0.29471733        0.33140593        2.42095719
 C            2.69205937        2.40562107        0.70717262
 C            1.64543928        2.18813267        1.69511050
 C            2.23240066        1.57700018       -1.56005342
 C            2.01823362        2.53431017       -0.57566114
 C            1.26111287       -0.20544491       -2.85601724
 C            1.13418086        1.04289634       -2.24626760
 C            0.31901508       -2.16758525       -2.04421638
 C            0.09867369       -1.06068431       -2.96197756
 C           -0.19498782       -2.67852582        0.25487698
 C           -0.62797716       -2.42241615       -1.05529298
 C           -0.94705306       -1.72560356        2.36005447
 C           -1.13221053       -2.68397369        1.28689862
 C           -2.16732125       -0.96362154        2.47355364
 C           -0.88169920        1.05681571        2.14472220
 C           -2.12872713        0.40715119        2.22513228
 C            0.45130786        2.78188040        1.14381534
 C            0.66748597        2.95879768       -0.28521165
 C           -0.79184557        2.32482791        1.54619057
 C           -0.14800037        1.59771248       -2.08867690
 C           -0.36785265        2.61215183       -1.14451773
 C           -1.14606530       -0.46541345       -2.98865014
 C           -1.23774022        0.95275165       -2.68525698
 C           -1.95878553       -2.05450361       -1.29928759
 C           -2.23885938       -1.11624987       -2.29291740
 C           -2.54481372       -2.71346596        0.97157424
 C           -3.20665289       -1.78599379        1.87529088
 C           -2.94723732       -2.36934710       -0.37202521
 C           -4.27337718       -1.14460519        1.13763715
 C           -4.12248981       -1.51644724       -0.26258461
 C           -3.29388388        1.05873194        1.80692029
 C           -4.37710337        0.29793252        1.20186559
 C           -1.85318993        2.77931886        0.77820210
 C           -1.65710690        2.84004122       -0.66087760
 C           -3.17667247        2.27225439        1.03430542
 C           -2.59021180        1.19827090       -2.20901747
 C           -3.24660671       -0.09754919       -2.05605594
 C           -4.19206663       -0.30058849       -1.05618509
 C           -4.53877671        0.78682617       -0.15804254
 C           -2.80280785        2.20508220       -1.28152949
 C           -3.81659552        2.04128941       -0.25243309




