%chk=000299.chk
%mem=8GB
%Nproc=32
#p B3LYP/6-31G* opt pop=NPA

Template file

0 1
 C            4.93827365       -0.78223956        0.00000000
 C            4.23480207       -1.27014853        1.17638385
 C            3.87121191       -0.13352734        1.98579704
 C            4.84710771        0.66694432       -0.00000000
 C            4.22699247        1.07017824        1.24615711
 C            4.22699247        1.07017824       -1.24615711
 C            4.23480207       -1.27014853       -1.17638385
 C            3.87121191       -0.13352734       -1.98579704
 C            3.17520714       -2.14363231        0.72653886
 C            3.17520714       -2.14363231       -0.72653886
 C            1.93604709       -2.12646464        1.36346020
 C            2.48501447       -0.00043155        2.40497919
 C            1.55566451       -0.99846617        2.11349659
 C            3.04733041        1.91740275        1.21074911
 C            2.10209865        1.37609606        2.17605348
 C            3.04733041        1.91740275       -1.21074911
 C            2.56125022        2.41868794       -0.00000000
 C            2.48501447       -0.00043155       -2.40497919
 C            2.10209865        1.37609606       -2.17605348
 C            1.93604709       -2.12646464       -1.36346020
 C            1.55566451       -0.99846617       -2.11349659
 C            0.93887013       -2.85532411        0.72718831
 C            0.93887013       -2.85532411       -0.72718831
 C           -0.43327580       -2.71599472        1.16199819
 C            0.19698014       -0.67487341        2.22276097
 C           -0.75590675       -1.67504183        2.01611724
 C            0.75590675        1.67504183        2.01611724
 C           -0.19698014        0.67487341        2.22276097
 C            1.27516822        2.94688071       -0.00000000
 C            0.43327580        2.71599472        1.16199819
 C            0.75590675        1.67504183       -2.01611724
 C            0.43327580        2.71599472       -1.16199819
 C            0.19698014       -0.67487341       -2.22276097
 C           -0.19698014        0.67487341       -2.22276097
 C           -0.43327580       -2.71599472       -1.16199819
 C           -1.27516822       -2.94688071        0.00000000
 C           -0.75590675       -1.67504183       -2.01611724
 C           -2.56125022       -2.41868794        0.00000000
 C           -2.10209865       -1.37609606        2.17605348
 C           -3.04733041       -1.91740275        1.21074911
 C           -1.55566451        0.99846617        2.11349659
 C           -2.48501447        0.00043155        2.40497919
 C           -0.93887013        2.85532411        0.72718831
 C           -0.93887013        2.85532411       -0.72718831
 C           -1.93604709        2.12646464        1.36346020
 C           -1.55566451        0.99846617       -2.11349659
 C           -1.93604709        2.12646464       -1.36346020
 C           -2.10209865       -1.37609606       -2.17605348
 C           -3.04733041       -1.91740275       -1.21074911
 C           -2.48501447        0.00043155       -2.40497919
 C           -4.22699247       -1.07017824       -1.24615711
 C           -3.87121191        0.13352734       -1.98579704
 C           -4.22699247       -1.07017824        1.24615711
 C           -3.87121191        0.13352734        1.98579704
 C           -4.84710771       -0.66694432        0.00000000
 C           -3.17520714        2.14363231        0.72653886
 C           -3.17520714        2.14363231       -0.72653886
 C           -4.23480207        1.27014853       -1.17638385
 C           -4.23480207        1.27014853        1.17638385
 C           -4.93827365        0.78223956       -0.00000000




