%chk=000981.chk
%mem=8GB
%Nproc=32
#p B3LYP/6-31G* opt pop=NPA

Template file

0 1
 C            4.13358400       -1.71533749       -0.08474855
 C            3.13979727       -2.73794418        0.15571070
 C            2.39556960       -2.38635266        1.35656582
 C            4.04838136       -0.76504884        1.00563606
 C            2.88670809       -1.09968801        1.81220223
 C            4.09544542        0.55104649        0.41354659
 C            3.74014105       -1.01574781       -1.29793860
 C            3.71342383        0.39121337       -0.98684394
 C            2.38801653       -2.89158366       -1.07322908
 C            2.52331322       -1.62965067       -1.78348296
 C            1.12074354       -3.42167704       -0.95568750
 C            1.02821624       -2.63853897        1.35296780
 C            0.56767216       -3.52531388        0.38335042
 C            0.14597718       -1.67150694        1.85786897
 C            1.97999812       -0.08893186        2.11945313
 C            0.61007913       -0.37532516        2.14171496
 C            3.49903765        1.58377994        1.11697011
 C            2.40235495        1.24362749        2.02182376
 C            3.06567800        2.73102564        0.34670739
 C            2.67540827        1.17715016       -1.47796471
 C            2.65458430        2.49059486       -1.02302506
 C            1.38701267       -0.83736818       -1.98644384
 C            1.47117707        0.56055740       -1.88385092
 C            0.06169570       -2.82437326       -1.73831028
 C            0.13294045       -1.45993421       -2.02533505
 C           -0.85322877       -3.70654591        0.21291720
 C           -1.15241718       -3.36486482       -1.17324658
 C           -1.23499445       -1.92934107        1.85948029
 C           -1.75228901       -2.93235563        1.03914805
 C           -2.11164047       -0.95529538        2.33168010
 C           -0.29893119        0.67690691        2.27353507
 C           -1.63981231        0.40695849        2.47758086
 C            1.40897460        2.30378166        1.92854897
 C            1.93314242        3.31548536        1.03356504
 C            0.06589163        1.95228668        1.85707042
 C            1.49970763        3.31426086       -1.27002434
 C            1.05962394        3.84953293        0.01497433
 C            0.31680219        1.32930518       -2.10137647
 C            0.34416371        2.71038106       -1.89193565
 C           -1.03597900       -0.68340777       -2.02560182
 C           -0.93179794        0.70321818       -2.20949539
 C           -2.32681775       -2.53226205       -1.15439203
 C           -2.88317135       -2.62625625        0.18399976
 C           -2.28607152       -1.28487450       -1.76227146
 C           -3.46545648       -0.89613950        1.79470510
 C           -3.77588622       -1.64596671        0.58839243
 C           -2.61338684        1.29107075        1.86472510
 C           -3.79319189        0.50042750        1.55406607
 C           -0.83838505        2.71905683        1.10352686
 C           -0.35778868        3.57157248        0.10830128
 C           -0.79362825        3.33492479       -1.24976666
 C           -2.15909833        2.27426263        0.98281435
 C           -2.07506824        1.50532727       -2.16954590
 C           -2.02522288        2.74397322       -1.41925025
 C           -2.82110917        2.49465395       -0.23266671
 C           -3.42307655       -0.50072512       -1.60526886
 C           -4.23373317       -0.69410891       -0.41128192
 C           -4.38236160        0.59727565        0.23536526
 C           -3.35872857        0.91515604       -1.85940999
 C           -3.87198902        1.59765267       -0.67651996




