%chk=000957.chk
%mem=8GB
%Nproc=32
#p B3LYP/6-31G* opt pop=NPA

Template file

0 1
 C            4.06769174       -0.46545932        1.54285113
 C            4.23269094        0.13524837        0.23176771
 C            3.69325899       -0.78679824       -0.75332681
 C            3.44475425       -1.76247126        1.35517870
 C            3.42052254       -2.04163783       -0.06872044
 C            2.18122315       -1.77379995        2.07670823
 C            3.13877092        0.36439607        2.28514874
 C            1.98017478       -0.44414888        2.62159351
 C            3.68140748        1.47631012        0.28735584
 C            2.92517151        1.58565532        1.52726921
 C            3.12044048        1.99266610       -0.87075470
 C            2.78989482       -0.29574703       -1.69938188
 C            2.78547941        1.07394072       -1.95139978
 C            1.69552941       -1.08252555       -2.08620370
 C            2.39795812       -2.84318296       -0.54223421
 C            1.69835183       -2.43261804       -1.74372244
 C            1.10101277       -2.43884197        1.49887286
 C            1.36140669       -3.24671086        0.39144582
 C           -0.19939793       -1.95038385        1.70401600
 C            0.72683301        0.13386085        2.50820912
 C           -0.37996060       -0.67820142        2.26991318
 C            1.63884154        2.11910939        1.48839821
 C            0.63627362        1.49741568        2.24162295
 C            2.01144294        2.91962303       -0.75273037
 C            1.28472265        2.97015369        0.43446252
 C            1.68611852        1.65427901       -2.69441693
 C            1.28850693        2.87294490       -2.01055281
 C            0.50380306       -0.48115283       -2.52907935
 C            0.49703897        0.85704391       -2.90184176
 C           -0.72539147       -1.11363089       -2.32520802
 C            0.45358958       -3.17676874       -1.75811663
 C            0.26214464       -3.72005455       -0.41778034
 C           -0.76912337       -2.48588097       -2.10861509
 C           -1.28857719       -2.62357420        1.13223438
 C           -1.08555684       -3.38909304       -0.01493154
 C           -1.79034291       -3.01780575       -1.22907819
 C           -2.57922235       -2.15365385        1.35717135
 C           -1.65642227       -0.11770201        2.36482239
 C           -2.76854384       -0.88464636        2.03515016
 C           -0.60131309        2.10975294        2.36367781
 C           -1.78981834        1.27378475        2.43393975
 C           -0.00109181        3.50505500        0.39722096
 C           -0.89969053        3.23457230        1.50249060
 C           -0.16145659        2.91359822       -1.97532113
 C           -0.65480304        1.67122481       -2.55003954
 C           -0.77576599        3.40615233       -0.83540463
 C           -1.86950555       -0.34671230       -2.07712656
 C           -1.76797078        1.04699670       -1.98829007
 C           -2.97204989       -2.31210621       -1.09249131
 C           -3.51776868       -2.19997260        0.24575814
 C           -3.04542312       -0.98134877       -1.67793773
 C           -3.91233360       -0.22357472        1.42879083
 C           -4.33168870       -1.00194680        0.28061985
 C           -4.01316956       -0.22722874       -0.90767789
 C           -2.84431958        1.93579397        1.67277250
 C           -2.22779931        3.03309530        0.95400603
 C           -2.09162118        2.90867940       -0.48388973
 C           -2.58514098        1.75752862       -1.09485233
 C           -3.74717563        1.14301348        0.98235652
 C           -3.65261057        1.10748551       -0.47469908




