%chk=001097.chk
%mem=8GB
%Nproc=32
#p B3LYP/6-31G* opt pop=NPA

Template file

0 1
 C            3.11909890       -2.86910483       -0.10813906
 C            3.48489895       -1.77941583        0.77975745
 C            2.51668063       -1.72684444        1.84778288
 C            1.86955173       -3.43134213        0.37275186
 C            1.52935514       -2.77338990        1.61138187
 C            0.91053213       -3.37080118       -0.70389169
 C            2.87156014       -2.30247913       -1.42299726
 C            1.51779511       -2.62758015       -1.80064330
 C            3.66319507       -0.59512780       -0.02393429
 C            3.24543536       -0.90986000       -1.38384091
 C            3.29226310        0.63968227        0.49542699
 C            2.07319553       -0.48595928        2.29655092
 C            2.51558830        0.69360307        1.67123870
 C            0.90144853       -0.46725287        3.05160644
 C            0.19328443       -2.49063631        1.87611007
 C           -0.06468202       -1.53650385        2.85533179
 C           -0.42311539       -3.11577259       -0.40327385
 C           -0.78847885       -2.76968243        0.90943364
 C           -1.22916758       -2.71193585       -1.46305118
 C            0.74504606       -1.67305751       -2.45640096
 C           -0.62410066       -1.92564805       -2.52447710
 C            2.46760968        0.02480863       -2.06266970
 C            1.21625957       -0.35302478       -2.58427169
 C            3.21053978        1.67649680       -0.42979263
 C            2.70925399        1.36452753       -1.75718490
 C            2.68770523        2.96658068       -0.03965110
 C            1.99859859        1.91714942        2.11081786
 C            2.07357501        3.09164817        1.26109683
 C            0.16310626        0.77076585        3.23533947
 C            0.69170971        1.94974261        2.74101987
 C           -1.39253310       -0.96969039        2.98739585
 C           -1.24271484        0.47736685        3.00745654
 C           -2.12207070       -2.45128553        1.18412023
 C           -2.43458011       -1.52427453        2.26236866
 C           -2.55913878       -2.19274659       -1.21333469
 C           -3.03993301       -2.17804662        0.08808598
 C           -1.55414964       -0.87331150       -2.88905815
 C           -2.75907204       -1.04282895       -2.08938658
 C            0.36766512        0.62962191       -3.09957705
 C           -1.06763184        0.39791446       -3.14875811
 C            1.75046406        2.39286373       -2.12225325
 C            1.70929247        3.36376160       -1.03894961
 C            0.56007013        2.01792548       -2.72139264
 C            0.71504941        3.57887026        1.06699400
 C           -0.15645862        2.80079943        1.92410382
 C            0.44805104        3.59616341       -0.35592211
 C           -1.97744163        1.25248856        2.11105187
 C           -1.33565656        2.27356157        1.40250008
 C           -3.49380951       -0.64352918        1.80157773
 C           -3.94370904       -1.12162943        0.50690026
 C           -3.21150079        0.77737459        1.67924986
 C           -3.45042568        0.07662722       -1.63587116
 C           -4.12634845        0.03463265       -0.35114524
 C           -3.72287187        1.21588088        0.39810372
 C           -1.72951639        1.56073112       -2.57124103
 C           -0.69009192        2.47829913       -2.14022895
 C           -0.69638114        2.96840606       -0.83470213
 C           -1.67110448        2.51903547        0.06192542
 C           -2.84983817        1.39344014       -1.76807778
 C           -2.86135636        2.01199207       -0.45336253




