%chk=000497.chk
%mem=8GB
%Nproc=32
#p B3LYP/6-31G* opt pop=NPA

Template file

0 1
 C            4.40315857        1.19232022        0.82686341
 C            4.34191210        0.99557580       -0.61163794
 C            4.48887130       -0.42219038       -0.85115426
 C            4.15627578       -0.09521391        1.44979796
 C            4.31366558       -1.10330253        0.42701514
 C            2.88829029       -0.01188748        2.15217723
 C            3.30791002        2.06956486        1.19277018
 C            2.45548117        1.37253416        2.13867629
 C            3.15068983        1.67594510       -1.09956432
 C            2.68919218        2.54260894       -0.02932510
 C            2.19954121        0.98937495       -1.86593681
 C            3.59982689       -1.05053450       -1.80553215
 C            2.46914238       -0.29847557       -2.32878562
 C            3.25895563       -2.08071903        0.25421593
 C            3.05817181       -2.23667724       -1.16768139
 C            1.92428236       -0.99644653        1.97524736
 C            2.12415436       -2.04407193        1.06113161
 C            0.62355378       -0.70864119        2.38923892
 C            1.08992629        1.64367663        2.07590435
 C            0.17029614        0.61597960        2.32697261
 C            1.33660620        2.82807060        0.02159123
 C            0.69089889        2.69152388        1.24971456
 C            0.87886278        1.45751273       -1.87504361
 C            0.58677512        2.59756485       -1.12514959
 C           -0.16634367        0.60344083       -2.26595842
 C            1.37470697       -1.23886436       -2.45424360
 C            1.69535315       -2.39320243       -1.63405302
 C            0.07085157       -0.76844383       -2.40575925
 C            1.00807468       -2.76509530        0.63926183
 C            0.72370579       -2.81910049       -0.73522478
 C           -0.29507308       -1.75055523        2.41440785
 C           -0.04086712       -2.88398652        1.54406048
 C           -1.71204872       -1.45028273        2.33886798
 C           -1.19719967        0.88586376        2.16125863
 C           -2.10529480       -0.16591972        1.97161251
 C           -0.62706830        3.11170159        1.32394306
 C           -1.59147480        2.19903488        1.91240395
 C           -0.69630741        3.12199334       -1.15254372
 C           -1.22255357        3.62398686        0.10453694
 C           -1.49162355        1.06377967       -2.23011792
 C           -1.75303715        2.36205590       -1.79335461
 C           -2.54616727        0.14135574       -2.28115673
 C           -0.92747284       -1.66334560       -2.03135207
 C           -0.60329733       -2.70335600       -1.14602700
 C           -2.24583237       -1.27921123       -2.23362327
 C           -1.32036990       -3.37257628        1.07128785
 C           -2.35489855       -2.60580507        1.74311017
 C           -1.58145226       -3.28905349       -0.34731453
 C           -3.31548044       -1.93824121       -1.51170645
 C           -3.41749375       -2.39133825        0.78778293
 C           -2.97067142       -2.91134026       -0.49860672
 C           -3.29347061        0.03056062        1.23891598
 C           -3.74488580        0.36450696       -1.47489686
 C           -3.88080535       -1.03948001        0.56310271
 C           -4.09587775       -0.90246405       -0.86374746
 C           -2.86658201        2.44118348        1.27090202
 C           -2.64125843        3.34170108        0.15274599
 C           -2.98081838        2.62184819       -1.05944045
 C           -3.60393698        1.30459156        0.76826399
 C           -3.78946954        1.48996555       -0.66884401




