%chk=000783.chk
%mem=8GB
%Nproc=32
#p B3LYP/6-31G* opt pop=NPA

Template file

0 1
 C           -3.98414138       -1.79648003       -0.67791061
 C           -4.18166343       -0.35918155       -0.69653965
 C           -3.84276347        0.16621062        0.61478553
 C           -3.48506247       -2.15770068        0.63520674
 C           -3.37398189       -0.94690405        1.42999688
 C           -2.29855508       -2.96605454        0.44745922
 C           -2.94179962       -2.10742127       -1.64036813
 C           -1.89490682       -2.83759457       -0.94517015
 C           -3.47661567        0.16947342       -1.84675080
 C           -2.58293926       -0.87677751       -2.32169074
 C           -2.99288428        1.46453030       -1.76506882
 C           -3.18304432        1.39110294        0.69178354
 C           -3.02395143        2.14188994       -0.47627066
 C           -2.37155920        1.64158066        1.79879267
 C           -2.25598515       -0.77211335        2.24413296
 C           -1.87271421        0.52242104        2.58405162
 C           -1.31664311       -2.90851742        1.42044766
 C           -1.34180242       -1.81862844        2.39129998
 C            0.06564094       -3.08006031        1.01972234
 C           -0.56513952       -2.53687016       -1.24054505
 C            0.43005696       -2.84008105       -0.30445117
 C           -1.23050881       -0.59585588       -2.49928381
 C           -0.29759049       -1.60141232       -2.24197490
 C           -1.70269560        1.76454642       -2.35583311
 C           -0.79731409        0.73180995       -2.57179396
 C           -2.02939495        3.19949591       -0.53429043
 C           -1.22862800        2.98164348       -1.73163167
 C           -1.32257417        2.65171296        1.74401271
 C           -1.11951286        3.38012962        0.57908918
 C           -0.48730771        0.80211535        2.93333814
 C           -0.17980917        2.15165091        2.49339432
 C            0.04130395       -1.52772067        2.74808483
 C            0.87201871       -2.51742976        2.08304581
 C            0.46856296       -0.20392621        2.81695490
 C            2.18903117       -2.20491189        1.80533764
 C            1.76333652       -2.53275522       -0.59301198
 C            2.68092860       -2.43736221        0.45951527
 C            1.01867007       -1.39082483       -2.62497109
 C            2.07387792       -2.01462424       -1.85086647
 C            0.57276667        1.00172433       -2.54389635
 C            1.43670115       -0.02808389       -2.89900810
 C            0.16884913        3.06427874       -1.35336689
 C            0.22145136        3.50257191        0.03039127
 C            1.05438906        2.07591921       -1.77905266
 C            1.10749338        2.44605240        2.06967010
 C            1.31474504        3.13106849        0.80002994
 C            1.79528055        0.11614724        2.50377965
 C            2.69655307       -0.90718209        2.21111939
 C            2.14252167        1.43271531        2.19669314
 C            3.88630126       -1.63573525        0.32330888
 C            3.85287692       -0.62682628        1.37230478
 C            3.27064693       -1.21290060       -2.04999649
 C            2.84400523        0.07678442       -2.56918721
 C            4.15675201       -0.96791312       -0.93162747
 C            2.29706571        1.98127035       -1.14292467
 C            2.44469050        2.49265356        0.14579591
 C            3.12167333        1.69537281        1.15323342
 C            3.97100065        0.67676158        0.74374702
 C            3.25247408        1.09101235       -1.62175534
 C            4.16982309        0.46520317       -0.68128709




