%chk=000943.chk
%mem=8GB
%Nproc=32
#p B3LYP/6-31G* opt pop=NPA

Template file

0 1
 C            4.14606090       -1.16359650        0.94243850
 C            4.16399896       -0.67825764       -0.42570833
 C            3.22869259       -1.47854883       -1.19697161
 C            3.24026172       -2.29489490        0.99115578
 C            2.85428131       -2.61606521       -0.36969622
 C            2.18722862       -1.99111034        1.94428343
 C            3.58136935       -0.11218395        1.76895926
 C            2.34848088       -0.60621438        2.34934119
 C            3.96222882        0.75420072       -0.38278941
 C            3.52157426        1.09330096        0.96802223
 C            3.31025459        1.34705416       -1.45385284
 C            2.25823778       -0.82926151       -1.96707918
 C            2.42668773        0.52322471       -2.27427527
 C            1.00475742       -1.42634832       -2.14689240
 C            1.61031119       -3.19146580       -0.56148414
 C            0.78818815       -2.71216190       -1.65258786
 C            0.90493637       -2.45384293        1.67447509
 C            0.71927029       -3.30409865        0.58157046
 C           -0.18586977       -1.72774391        2.15134253
 C            1.23258344        0.22251940        2.34193170
 C           -0.04051107       -0.35234562        2.39565456
 C            2.43039170        1.94605020        1.12466819
 C            1.37151484        1.56017718        1.95864941
 C            2.63283386        2.60598847       -1.21698172
 C            2.20251527        2.90041856        0.13557833
 C            1.26204207        1.32259021       -2.61550002
 C            1.45476442        2.64655372       -2.06418613
 C           -0.09168378       -0.64935482       -2.53803393
 C            0.00507185        0.74216094       -2.52885378
 C           -1.34238574       -1.24525173       -2.67514569
 C           -0.56816036       -3.15415734       -1.36909300
 C           -0.62032049       -3.49885021        0.04660087
 C           -1.62579076       -2.47098161       -1.95084245
 C           -1.45216922       -2.27872089        1.98522050
 C           -1.70579653       -3.09574614        0.81233761
 C           -2.62321639       -1.46535167        2.21893838
 C           -1.15963498        0.47329100        2.57111732
 C           -2.44543281       -0.04737478        2.43312434
 C            0.28437978        2.41417651        2.11626729
 C           -1.00198898        1.85542172        2.49997320
 C            0.90151582        3.53224033        0.03775951
 C            0.37777547        3.22974653       -1.28902740
 C            0.04278323        3.45049761        1.12227670
 C           -1.09502167        1.52045086       -2.14171596
 C           -0.90234015        2.69221244       -1.39977726
 C           -2.52738068       -0.41197535       -2.60918130
 C           -2.37508917        0.97969155       -2.22933723
 C           -2.85386522       -2.26368021       -1.19869989
 C           -2.89144544       -2.56518513        0.15874936
 C           -3.52132836       -1.63811588        1.08599628
 C           -3.45981035       -1.03206511       -1.67995783
 C           -3.40856137        0.64727183        1.59156018
 C           -3.33394615        1.25677720       -1.17328033
 C           -3.91797248       -0.31532185        0.62865694
 C           -3.88211152       -0.01575155       -0.72914961
 C           -2.03438025        2.64140589        1.84636993
 C           -1.38413953        3.48332359        0.86133371
 C           -1.84993668        3.06144750       -0.44590582
 C           -3.12205884        1.94273675        1.18306660
 C           -3.03264397        2.24109414       -0.24141277




