%chk=000944.chk
%mem=8GB
%Nproc=32
#p B3LYP/6-31G* opt pop=NPA

Template file

0 1
 C            3.82680591       -1.96090032       -1.01339870
 C            4.12927563       -1.19314306        0.17993695
 C            3.20219843       -1.59902072        1.22103899
 C            2.80035872       -2.92162771       -0.66133033
 C            2.56285830       -2.82456270        0.76688419
 C            1.67465737       -2.71300906       -1.55177979
 C            3.25502990       -1.04293166       -1.98456174
 C            1.89417004       -1.45390020       -2.24213035
 C            4.14400054        0.20002097       -0.20173222
 C            3.47710589        0.29646184       -1.49780415
 C            3.79960473        1.13041756        0.76535513
 C            2.44622210       -0.61521694        1.86808512
 C            2.88906009        0.70915985        1.82957942
 C            1.12120713       -0.88951349        2.22962147
 C            1.28871185       -3.11614291        1.22261317
 C            0.66254130       -2.20473396        2.15923586
 C            0.40088225       -2.96592325       -1.06448439
 C            0.26475944       -3.43894437        0.24318780
 C           -0.66148335       -2.26159210       -1.61908577
 C            0.87549983       -0.50340367       -2.22146746
 C           -0.43501073       -0.95540289       -2.07939078
 C            2.47891901        1.25513712       -1.65871545
 C            1.16491153        0.84961996       -1.98189384
 C            3.33676761        2.41948904        0.29760318
 C            2.68385995        2.46121017       -0.99646607
 C            1.92913680        1.78011179        2.03887375
 C            2.38335851        2.91831751        1.26741162
 C            0.20209132        0.15824088        2.38211155
 C            0.57332324        1.46537473        2.07394249
 C           -1.13462179       -0.11605851        2.64785646
 C           -0.76637680       -2.47274949        2.10725719
 C           -1.01481486       -3.28308327        0.92012520
 C           -1.65088081       -1.45923375        2.44585547
 C           -1.93931876       -2.64218027       -1.23495070
 C           -2.14199736       -3.03480959        0.14734786
 C           -3.06704488       -1.83375475       -1.63736495
 C           -1.48718243       -0.04255829       -2.16690825
 C           -2.80330185       -0.51295415       -2.16462476
 C            0.10532228        1.77453844       -1.94584983
 C           -1.22121425        1.32895375       -2.05437013
 C            1.60679480        3.41059457       -0.88881433
 C            1.40514177        3.68285089        0.53162184
 C            0.31627579        3.05807548       -1.43469326
 C           -0.38949173        2.37725530        1.60476740
 C            0.00198864        3.44482929        0.79371552
 C           -0.64523395        3.58885998       -0.49028579
 C           -2.14234432        0.82747926        2.20122602
 C           -1.73619371        1.99492565        1.55583459
 C           -2.92657096       -1.35116976        1.75452392
 C           -3.19653744       -2.18660134        0.67342886
 C           -3.92674122       -1.67437213       -0.47277620
 C           -3.27975894        0.06195399        1.70271094
 C           -3.86893788        0.33138810       -1.66717194
 C           -4.38932186       -0.30057349       -0.46492176
 C           -4.04808332        0.55902942        0.65524215
 C           -2.23704262        2.20406380       -1.65012179
 C           -1.94430804        3.14752691       -0.59540449
 C           -2.56053987        2.57510567        0.58719003
 C           -3.55777992        1.69863155       -1.33562168
 C           -3.73070704        1.86044433        0.10393676




