%chk=000177.chk
%mem=8GB
%Nproc=32
#p B3LYP/6-31G* opt pop=NPA

Template file

0 1
 C            3.90459233       -2.50519355        0.22363422
 C            4.41678497       -1.55687839       -0.74548055
 C            4.51216953       -0.27689396       -0.07888704
 C            3.52015191       -1.76959937        1.42193597
 C            3.85951287       -0.38514121        1.21785262
 C            2.14496806       -2.09848362        1.71745470
 C            2.69346348       -3.07006027       -0.33078051
 C            1.71572474       -3.07253179        0.73116946
 C            3.42531739       -1.40911030       -1.80156383
 C            2.34882924       -2.33781872       -1.53344228
 C            3.99421016        0.71408785       -0.99908700
 C            3.10595957        0.00021261       -1.90846156
 C            3.51953414        1.88298922       -0.43758089
 C            2.94364376        0.60720276        1.55637300
 C            3.18193172        1.84890974        0.97812321
 C            1.24185157       -1.08615917        2.06337232
 C            1.61843089        0.26222500        1.91229755
 C           -0.12122822       -1.42417369        2.04636317
 C            0.38751768       -3.00630003        0.37461019
 C           -0.47553176       -2.59900408        1.36896306
 C            1.03101684       -1.90609162       -1.65232292
 C            0.06504102       -2.59365208       -0.92074550
 C            1.76576786        0.38834313       -1.98690631
 C            0.75532640       -0.58552074       -2.02699854
 C            2.38760785        2.52185869       -1.06510896
 C            1.43492379        1.71519899       -1.69550199
 C            2.25140009        2.92475804        1.21180673
 C            1.95786427        3.50149687       -0.09177296
 C            0.62817093        1.26135677        1.97069011
 C            0.98231795        2.60180744        1.81892815
 C           -1.08196675       -0.41913946        2.22152159
 C           -0.72778077        0.90534679        1.96400041
 C           -2.43481663       -0.76762550        2.24419475
 C           -1.80704220       -2.86795713        1.12818181
 C           -2.79636179       -2.11121447        1.84932778
 C           -1.27736852       -2.32289719       -1.17607348
 C           -2.19561230       -2.85528945       -0.26728589
 C           -0.58237788       -0.18155811       -2.07731814
 C           -1.59195780       -1.13106634       -1.84169069
 C            0.09435052        2.11159313       -1.72425098
 C           -0.88732038        1.18760722       -2.09217263
 C            0.57099358        3.88124131       -0.08228573
 C            0.03173041        3.51019801        1.21853827
 C           -0.30597458        3.27743387       -1.06025236
 C           -1.70395465        1.80947635        1.50338838
 C           -1.31244917        3.03541806        0.98000333
 C           -1.60048375        3.28892306       -0.41962951
 C           -3.40370605        0.13287040        1.64219950
 C           -2.94229005        1.32091779        1.09064356
 C           -3.98030352       -2.05189624        1.00923361
 C           -3.58883692       -2.47124641       -0.32955674
 C           -4.38803891       -0.66563093        0.92358301
 C           -2.92903431       -0.78402567       -2.04259361
 C           -3.96803142       -1.42463479       -1.25129478
 C           -4.63066878       -0.38539671       -0.47730014
 C           -2.21914076        1.60109410       -2.03873798
 C           -2.60390287        2.54160676       -1.00022637
 C           -3.47137657        1.78862510       -0.11902509
 C           -3.28102030        0.61541075       -2.11346064
 C           -4.18252789        0.88398119       -1.00059487




