%chk=001443.chk
%mem=8GB
%Nproc=32
#p B3LYP/6-31G* opt pop=NPA

Template file

0 1
 C            4.00036496       -1.75411442       -0.13241180
 C            4.28807570       -0.34313107        0.01439984
 C            3.95369118        0.29862773       -1.24372053
 C            3.27318771       -1.92457161       -1.38519670
 C            3.08441412       -0.61424117       -1.96618024
 C            2.10688302       -2.73318568       -1.10864698
 C            3.22760944       -2.40441817        0.90579986
 C            2.24481087       -3.23466537        0.23864384
 C            2.50768468       -1.58353219        1.86805817
 C            3.60270965        0.40484233        1.05187483
 C            2.56920632       -0.19855695        1.77552809
 C            3.45373421        1.62776935       -0.93201118
 C            3.40902582        1.74198580        0.52115651
 C            2.39025453        2.11641555       -1.67973984
 C            1.80176471       -0.18790179       -2.30243466
 C            1.59270147        1.17783930       -2.45768754
 C            0.84931169       -2.28412134       -1.49233783
 C            0.69761620       -1.03186155       -2.11008213
 C           -0.26347921       -2.88439858       -0.90203013
 C            1.05613062       -3.23818087        1.06250253
 C            1.22219307       -2.21447867        2.08700962
 C           -0.18129583       -3.30398064        0.43800815
 C            0.11270946       -1.43457426        2.41714591
 C            1.47182083        0.56753394        2.17510702
 C            0.21049814       -0.03551221        2.34216484
 C            2.44544054        2.54586947        1.11129798
 C            1.58912238        1.95440829        2.12294193
 C            1.48025072        3.07940537       -1.08078329
 C            1.59073264        3.37012285        0.27230394
 C            0.24188718        1.69126024       -2.52313068
 C            0.16634832        2.87056185       -1.67327893
 C           -0.59487465       -0.56316414       -2.39407268
 C           -0.82998772        0.81008637       -2.53902463
 C           -1.50429144       -2.65226819       -1.48674161
 C           -1.67495829       -1.43892194       -2.26677916
 C           -2.71707204       -2.86849912       -0.71769363
 C           -1.26702976       -3.08730383        1.27399144
 C           -1.13608434       -2.03939846        2.27245155
 C           -2.59783771       -3.02449844        0.71340029
 C           -2.33014105       -1.22390949        2.20046211
 C           -3.28645325       -1.91373726        1.34787647
 C           -0.96097866        0.74575865        2.33583361
 C           -2.19913270        0.15091605        2.08834947
 C            0.40687692        2.77910577        2.20856500
 C            0.38896047        3.64429913        1.03498066
 C           -0.88343161        2.13448475        2.29216260
 C           -0.99682740        3.09508887       -0.93624762
 C           -0.90989399        3.48705609        0.40321138
 C           -1.76701860        2.85323824        1.39428209
 C           -2.08685355        1.33507936       -2.25024217
 C           -2.17594929        2.50490829       -1.38718414
 C           -3.00681988       -0.91844071       -1.99582468
 C           -3.61298490       -1.75435329       -0.97037172
 C           -3.97005812       -1.16143137        0.31146213
 C           -3.19675491        0.45368700       -1.93724184
 C           -3.19895470        0.87524481        1.43419566
 C           -2.92830213        2.22762643        0.97226770
 C           -3.25083461        2.26987068       -0.44087649
 C           -4.01209122        0.22224904        0.41761206
 C           -3.89562604        1.01601118       -0.79307446




