%chk=001461.chk
%mem=8GB
%Nproc=32
#p B3LYP/6-31G* opt pop=NPA

Template file

0 1
 C            4.45572292       -0.27631637        0.16817027
 C            4.14416652        0.76697941       -0.78418873
 C            3.66797722        1.92028358       -0.03775262
 C            3.97124886        0.15318056        1.47232372
 C            3.48511289        1.51591466        1.34332531
 C            3.06600724       -0.87242046        1.96853009
 C            3.93921723       -1.60640164       -0.07361187
 C            3.25847352       -2.03612930        1.13660701
 C            3.02383757       -1.82769884       -1.18303013
 C            3.18252178        0.50073339       -1.84251096
 C            2.62279806       -0.76837894       -1.99671891
 C            2.53814464        2.47902657       -0.76080849
 C            2.32760689        1.67156194       -1.95337533
 C            1.42688694        2.93824794       -0.05977793
 C            2.30527780        1.86216862        1.98493820
 C            1.35781420        2.74611808        1.31991731
 C            1.77224683       -0.51150201        2.34679587
 C            1.52787067        0.82378571        2.64553580
 C            0.69002675       -1.37546377        2.10126441
 C            2.08953141       -2.77647453        0.73471196
 C            2.02942325       -2.78072577       -0.71821069
 C            0.90196373       -2.59109627        1.42151806
 C            0.77178921       -2.82218799       -1.32204807
 C            1.43305658       -0.88673377       -2.70545183
 C            0.51064426       -1.97182082       -2.39586504
 C            1.03479328        1.53116349       -2.45134239
 C            0.64730318        0.30585718       -2.98848307
 C            0.25141283        3.14315856       -0.77291373
 C            0.06042756        2.43165997       -2.02908239
 C           -1.02836897        3.17609404       -0.08060287
 C            0.06790457        2.52518854        1.95396206
 C            0.16518256        1.29919064        2.73298757
 C           -1.10756697        2.77442132        1.25367548
 C           -0.62229273       -0.95086657        2.39549673
 C           -0.88527638        0.39521846        2.68040760
 C           -1.69478095       -1.82543319        2.21328306
 C           -0.18532683       -3.25971998        0.88563390
 C           -0.29544052       -3.30718987       -0.56428658
 C           -1.49653775       -3.02343968        1.43310910
 C           -1.66035145       -2.93972067       -0.90571065
 C           -2.43446779       -2.99043029        0.32349391
 C           -0.84188783       -1.48361079       -2.62992273
 C           -0.75609823       -0.07760071       -2.99609611
 C           -1.88913736       -1.91514875       -1.82112625
 C           -1.34941786        2.08841440       -2.13688225
 C           -2.04103539        2.75013627       -1.03836561
 C           -1.72467996        0.80450310       -2.53079293
 C           -3.24572194        2.23743691       -0.58047796
 C           -2.27278808        2.16924537        1.71825489
 C           -2.15798968        0.91844504        2.45269463
 C           -3.43062113        2.07276366        0.84816569
 C           -2.99602719       -1.29737630        1.84303128
 C           -3.38995959       -1.93577172        0.59003621
 C           -3.24887034        0.05228688        2.04179749
 C           -4.05910692        0.78198270        1.07915998
 C           -3.01833960       -1.10375620       -1.68953427
 C           -2.94785015        0.28580972       -2.11603897
 C           -3.79966232        1.06802976       -1.23696342
 C           -3.82146567       -1.15557209       -0.47425259
 C           -4.32532136        0.17998080       -0.21260224




