%chk=001586.chk
%mem=8GB
%Nproc=32
#p B3LYP/6-31G* opt pop=NPA

Template file

0 1
 C            3.80748834       -1.65094549       -0.41886748
 C            3.48886582       -1.98120527        0.95699508
 C            3.54920264       -0.75680446        1.73812758
 C            4.10553522       -0.22988528       -0.47980923
 C            3.96868786        0.31934333        0.85716798
 C            3.32211484        0.34770367       -1.55922733
 C            2.83503410       -1.95057144       -1.45659704
 C            2.57461308       -0.72782205       -2.19638072
 C            1.77780158       -2.80325996       -1.17629790
 C            2.22278391       -2.62941701        1.24450685
 C            1.48610745       -3.17853744        0.20344337
 C            2.29488994       -0.62338328        2.46466176
 C            1.53043960       -1.83851068        2.24899217
 C            1.63679776        0.60587994        2.46655949
 C            3.36968497        1.56113084        1.00302775
 C            2.32869515        1.72640207        2.00456142
 C            2.70673562        1.58364032       -1.37288031
 C            2.92173031        2.27924606       -0.18156120
 C            1.62556155        1.91661749       -2.18919920
 C            1.29559597       -0.46444708       -2.68619146
 C            0.95474435        0.86301952       -2.93456632
 C            0.51071878       -2.59772186       -1.85439607
 C            0.29225307       -1.43996907       -2.59685802
 C            0.04345082       -3.25770583        0.33893890
 C           -0.54275100       -3.08479803       -0.97909814
 C            0.14471964       -1.75492078        2.21258969
 C           -0.58024497       -2.65751663        1.42499101
 C            0.23639625        0.63451821        2.57694411
 C           -0.46329818       -0.58021285        2.65572487
 C           -0.46428566        1.84214268        2.39942502
 C            1.59479237        2.91819833        1.64289149
 C            1.94535326        3.25555674        0.27093291
 C            0.15622626        2.88995402        1.73658438
 C            0.60395007        2.84947183       -1.72801119
 C            0.71322748        3.42508274       -0.47609376
 C           -0.39387062        3.30387977        0.45640376
 C           -0.43713570        1.24391146       -3.07995236
 C           -0.68562015        2.34561461       -2.16154668
 C           -1.02265434       -1.12433361       -2.93688033
 C           -1.39389379        0.25356963       -3.21609687
 C           -1.81913650       -2.53473765       -1.08202630
 C           -2.11290090       -1.73935724       -2.19054546
 C           -1.96435840       -2.55030309        1.37663350
 C           -2.60525889       -2.44451047        0.07257520
 C           -1.83331891       -0.58685190        2.89312857
 C           -2.62817977       -1.63173643        2.28008334
 C           -1.84905685        1.81552391        2.30422328
 C           -2.56824521        0.64927028        2.75891195
 C           -1.60645139        2.74168957        0.05010898
 C           -1.75223051        2.26936367       -1.26293987
 C           -2.44940111        2.26215357        1.05609044
 C           -2.70984162        0.48415186       -2.64907116
 C           -3.19990453       -0.77897296       -2.12477356
 C           -2.85443926        1.48572927       -1.60620371
 C           -3.65921445       -1.44298583        0.17617625
 C           -3.72116686       -1.00094145        1.55773226
 C           -3.67342655        0.41986145        1.84149594
 C           -3.53941551        1.35665980        0.73785065
 C           -3.82627612       -0.51685348       -0.84512699
 C           -3.68822030        0.90993195       -0.56728130




