%chk=000392.chk
%mem=8GB
%Nproc=32
#p B3LYP/6-31G* opt pop=NPA

Template file

0 1
 C            4.38684183       -1.59665806        0.36635763
 C            4.66857268       -0.21501018        0.02170098
 C            4.27136251       -0.01236555       -1.35799003
 C            3.65807540       -2.19121130       -0.74263568
 C            3.63603112       -1.23632079       -1.82431508
 C            2.39049360       -2.67131272       -0.23079030
 C            3.50504302       -1.59357536        1.52132951
 C            2.33791515       -2.37300590        1.18588897
 C            4.07622189        0.62918296        1.04271922
 C            3.30215457       -0.22430874        1.93770647
 C            3.54470358        1.85731481        0.67093997
 C            3.38564670        1.09695298       -1.67325040
 C            3.14770577        2.07730415       -0.71855317
 C            2.35237876       -0.87865743       -2.39399405
 C            2.26519542        0.56630691       -2.43074791
 C            1.21832671       -2.48225278       -0.96299247
 C            1.20209899       -1.58740837       -2.04953612
 C            0.01538597       -2.73580075       -0.29707487
 C            1.10689706       -1.98868829        1.69254632
 C           -0.01607097       -2.54322089        1.09034439
 C            2.02316578        0.17700073        2.32929620
 C            0.96562469       -0.74429160        2.32651351
 C            2.51271395        2.43097754        1.51241447
 C            1.73235961        1.53761700        2.34898015
 C            1.85888894        2.74627179       -0.70994365
 C            1.58465977        3.14279947        0.65331745
 C            1.00155667        1.13300079       -2.30069625
 C            0.80473943        2.24000065       -1.46501262
 C           -0.02237321       -1.04046392       -2.44409848
 C           -0.10179121        0.34653701       -2.63687166
 C           -1.16058721       -2.65950713       -1.03508763
 C           -1.17560258       -1.77292045       -2.17917461
 C           -2.44347794       -2.55417829       -0.36145071
 C           -1.22590033       -2.38840641        1.75204232
 C           -2.47425468       -2.51556858        1.02536148
 C           -0.32836797       -0.30455341        2.63515740
 C           -1.34774103       -1.25698095        2.65122469
 C            0.35015177        1.97138296        2.26693592
 C            0.24889163        2.91472019        1.16798630
 C           -0.66567293        1.03573198        2.40995157
 C           -0.50053307        2.56936833       -1.09152534
 C           -0.79617013        2.73923297        0.26966229
 C           -1.34130790        0.97481323       -2.71816610
 C           -1.52405477        2.19620278       -1.95709305
 C           -2.48049331       -1.13907199       -2.24527615
 C           -3.28585052       -1.65895521       -1.14568455
 C           -2.56261523        0.19718910       -2.60855029
 C           -4.23816936       -0.85453301       -0.52151319
 C           -3.45555860       -1.69186932        1.70767841
 C           -2.73194347       -0.81887468        2.62034408
 C           -4.35364949       -0.86168241        0.92631833
 C           -1.91868921        1.34492688        1.87214977
 C           -1.98614539        2.21249181        0.77109046
 C           -3.00301694        0.54373225        2.21933028
 C           -4.18527763        0.51011055        1.38087374
 C           -2.89452680        2.22296052       -1.48079643
 C           -3.57298088        1.05034099       -2.00881179
 C           -4.41588106        0.52077633       -0.95183855
 C           -3.10961593        2.23884703       -0.05102000
 C           -4.23548319        1.36755974        0.21832887




