%chk=000193.chk
%mem=8GB
%Nproc=32
#p B3LYP/6-31G* opt pop=NPA

Template file

0 1
 C            4.45874787        0.60284033        1.24581660
 C            4.73474417        0.52614676       -0.17813255
 C            4.30820463       -0.77993196       -0.64191203
 C            3.80700734       -0.63270015        1.64336728
 C            3.73997921       -1.50259091        0.48563492
 C            2.56476899       -0.28999701        2.31034052
 C            3.50734604        1.67790289        1.45551638
 C            2.40251913        1.15249504        2.23987035
 C            3.90471229        1.51194275       -0.84832199
 C            3.19681015        2.27062352        0.16756830
 C            3.47722938       -0.58268602       -1.81761746
 C            3.11751443        0.82695324       -1.86160227
 C            2.49432116       -1.52430204       -2.07150968
 C            2.57275099       -2.22909044        0.27389406
 C            2.20992006       -2.50837375       -1.04229369
 C            1.44959183       -1.08643043        2.08011265
 C            1.57297002       -2.20621020        1.25250798
 C            0.18382900       -0.53959217        2.29618589
 C            1.13042886        1.65634307        1.98907073
 C            0.02573318        0.85258047        2.27099567
 C            1.87167939        2.60639155       -0.07561086
 C            0.99792569        2.63931420        1.01011254
 C            1.77987807        1.19485591       -2.00900125
 C            1.33795584        2.33302925       -1.33572882
 C            1.20783734       -1.08044471       -2.57654555
 C            0.83647517        0.25095052       -2.43565382
 C            0.88577370       -3.03113995       -1.31191398
 C            0.24379052       -2.11351618       -2.24813038
 C            0.46426017       -3.03147573        1.08804861
 C            0.14608693       -3.51926790       -0.24711768
 C           -0.93220387       -1.37724489        2.24918845
 C           -0.78809180       -2.66154111        1.72733063
 C           -2.20969674       -0.83246913        2.37516012
 C           -1.24939878        1.40684249        2.15367734
 C           -2.36343233        0.60974411        2.38833105
 C           -0.25237177        3.20814733        0.81157926
 C           -1.40331886        2.61652008        1.47496990
 C            0.06764001        2.81547610       -1.61926737
 C           -0.64307243        3.49993811       -0.55520636
 C           -0.52247391        0.57685619       -2.40528133
 C           -0.87679977        1.91633897       -2.25764515
 C           -1.08891358       -1.76135819       -2.04901999
 C           -1.48346908       -0.42811600       -2.21268028
 C           -1.29702905       -3.53701126       -0.37643642
 C           -1.85871249       -3.21987864        0.92292148
 C           -1.90766022       -2.63833296       -1.33609207
 C           -3.31246094       -1.39271719        1.60191590
 C           -3.04535987       -2.41645186        0.70271048
 C           -3.13329169       -2.14991249       -0.73201706
 C           -3.61848550        0.93088663        1.72913893
 C           -4.16592370       -0.29815304        1.18061420
 C           -2.56050934        2.82521528        0.61328999
 C           -2.05611647        3.20472018       -0.69477236
 C           -2.20970098        2.27626625       -1.80177342
 C           -3.62072519        1.93213158        0.67854970
 C           -2.82088063       -0.08449563       -2.00080084
 C           -3.65736843       -0.94375279       -1.17699091
 C           -4.37880735       -0.09870932       -0.24009549
 C           -3.18166783        1.29271297       -1.71014119
 C           -4.06048897        1.28372824       -0.54910762




