%chk=000153.chk
%mem=8GB
%Nproc=32
#p B3LYP/6-31G* opt pop=NPA

Template file

0 1
 C            4.32994454        1.70611496        0.84242941
 C            4.87557163        0.46083981        0.33821439
 C            4.39871695        0.28460134       -1.02264319
 C            3.54710591        2.30699086       -0.22203605
 C            3.50051652        1.38597027       -1.33572113
 C            2.29202611        2.71156792        0.35641265
 C            3.40890269        1.38961348        1.92379930
 C            2.18112579        2.10438575        1.66890052
 C            4.31136352       -0.61621049        1.12827193
 C            3.33610894       -0.04602736        2.04865335
 C            3.89351501       -1.07145713       -1.13705708
 C            3.86507555       -1.64477954        0.20512010
 C            2.82272890       -1.29401522       -1.99418708
 C            2.26327319        1.10113561       -1.91788175
 C            2.08133777       -0.14774387       -2.50199952
 C            1.15517777        2.66762045       -0.42720453
 C            1.13466992        1.86308643       -1.57694748
 C           -0.03743948        2.81727810        0.25126064
 C            0.96265792        1.50423788        1.98030908
 C           -0.17702172        2.10542774        1.44944608
 C            2.08488950       -0.65260839        2.14601514
 C            0.91683454        0.12750700        2.24744275
 C            2.77700436       -2.41645701        0.58722706
 C            1.98069592       -1.96960702        1.71930705
 C            1.85417358       -2.33362912       -1.68249731
 C            1.84677207       -2.90079051       -0.42068906
 C            0.74109532       -0.59958717       -2.81148497
 C            0.59190019       -1.95096798       -2.28869946
 C           -0.11597623        1.55115051       -2.14601317
 C           -0.32914358        0.27836738       -2.69651782
 C           -1.15091651        3.05380088       -0.52737638
 C           -1.21712178        2.34032258       -1.78708597
 C           -2.45033759        3.00517983        0.09951195
 C           -1.42581263        1.60353751        1.80680252
 C           -2.55974734        2.27406311        1.34166000
 C           -0.33926997       -0.50643815        2.29333882
 C           -1.50749839        0.27720324        2.25106210
 C            0.67561874       -2.56022804        1.58159690
 C            0.57515286       -3.11865769        0.24285459
 C           -0.42857382       -1.89360658        2.07959274
 C           -0.62044425       -2.30871872       -1.69627855
 C           -0.62716313       -2.94831006       -0.44495576
 C           -1.60240802       -0.28862864       -2.67406652
 C           -1.75715631       -1.63356627       -2.14083946
 C           -2.57036873        1.82074015       -1.91388003
 C           -3.36924027        2.39807783       -0.84528381
 C           -2.75335209        0.49440512       -2.27056171
 C           -3.84577996        1.61137107        1.31229166
 C           -4.26401343        1.54695823       -0.08220974
 C           -2.75265277       -0.34300353        2.39660087
 C           -3.94832176        0.28287778        1.86546565
 C           -1.64935400       -2.43773245        1.71135596
 C           -1.78048633       -2.91496583        0.34298248
 C           -2.86087457       -1.74412817        2.06761376
 C           -2.99221856       -1.67790718       -1.37971059
 C           -3.63167063       -0.37123178       -1.48948367
 C           -4.37966549        0.14365928       -0.43139316
 C           -4.46289121       -0.58912886        0.81901840
 C           -3.01979126       -2.37764333       -0.18384705
 C           -3.77724387       -1.86031602        0.94399415




