%chk=001126.chk
%mem=8GB
%Nproc=32
#p B3LYP/6-31G* opt pop=NPA

Template file

0 1
 C            4.42059663       -0.65453090       -0.31620759
 C            3.92466120       -1.61420575        0.65300088
 C            3.51705402       -0.88177404        1.84241095
 C            4.42059663        0.65453090        0.31620759
 C            3.74812778        0.52969484        1.59990871
 C            3.92466120        1.61420575       -0.65300088
 C            3.74812778       -0.52969484       -1.59990871
 C            3.51705402        0.88177404       -1.84241095
 C            2.75657694       -1.43883168       -1.95040046
 C            2.83002265       -2.49084030        0.27938688
 C            2.38754369       -2.51266748       -1.03583959
 C            2.18085501       -1.32792784        2.20560614
 C            1.84493595       -2.44935805        1.34669744
 C            1.19267357       -0.38940806        2.50382527
 C            2.75657694        1.43883168        1.95040046
 C            1.53232355        0.95861323        2.57745414
 C            2.83002265        2.49084030       -0.27938688
 C            2.38754369        2.51266748        1.03583959
 C            2.18085501        1.32792784       -2.20560614
 C            1.84493595        2.44935805       -1.34669744
 C            1.53232355       -0.95861323       -2.57745414
 C            1.19267357        0.38940806       -2.50382527
 C            0.99790017       -2.84074160       -1.29296212
 C            0.51120759       -1.96019401       -2.34240843
 C            0.50549570       -2.66679534        1.04835463
 C            0.14707746       -3.11660548       -0.22833817
 C           -0.14886651       -0.74853819        2.34621305
 C           -0.44798458       -2.01373536        1.82737451
 C           -1.15111203        0.22895576        2.44644297
 C            0.51120759        1.96019401        2.34240843
 C            0.99790017        2.84074160        1.29296212
 C           -0.82525792        1.58071868        2.30592070
 C            0.50549570        2.66679534       -1.04835463
 C            0.14707746        3.11660548        0.22833817
 C           -0.14886651        0.74853819       -2.34621305
 C           -0.44798458        2.01373536       -1.82737451
 C           -0.82525792       -1.58071868       -2.30592070
 C           -1.15111203       -0.22895576       -2.44644297
 C           -1.20639581       -3.22528385       -0.53225111
 C           -1.71189658       -2.43048802       -1.64194378
 C           -1.76548984       -2.44312508        1.75101730
 C           -2.17172032       -3.13449172        0.54652263
 C           -2.49098411       -0.14793085        2.38717345
 C           -2.82868501       -1.53056986        2.11565358
 C           -3.42794078        0.68057381        1.64847876
 C           -1.71189658        2.43048802        1.64194378
 C           -1.20639581        3.22528385        0.53225111
 C           -3.04668581        1.96883209        1.29541702
 C           -1.76548984        2.44312508       -1.75101730
 C           -2.17172032        3.13449172       -0.54652263
 C           -3.35912184        2.47450123       -0.03175749
 C           -2.49098411        0.14793085       -2.38717345
 C           -2.82868501        1.53056986       -2.11565358
 C           -3.82095558        1.54995803       -1.04970909
 C           -3.04668581       -1.96883209       -1.29541702
 C           -3.35912184       -2.47450123        0.03175749
 C           -3.82095558       -1.54995803        1.04970909
 C           -4.09395518       -0.17524375        0.67415175
 C           -3.42794078       -0.68057381       -1.64847876
 C           -4.09395518        0.17524375       -0.67415175




