%chk=001503.chk
%mem=8GB
%Nproc=32
#p B3LYP/6-31G* opt pop=NPA

Template file

0 1
 C            4.26134567        0.53323469        0.26953817
 C            3.89563947        0.10061299        1.60572121
 C            3.54984733       -1.30835532        1.53697886
 C            4.10053853       -0.60176941       -0.62630909
 C            3.52110318       -1.69407985        0.13679773
 C            3.41664662       -0.13974065       -1.81967733
 C            3.56879238        1.66560914       -0.31992271
 C            3.15898382        1.28414671       -1.66225094
 C            2.71915967        2.43876234        0.46608165
 C            2.82038482        0.78640217        2.29981560
 C            2.34560169        1.99325064        1.80437892
 C            2.35779531       -1.51704497        2.33681352
 C            1.86450754       -0.21284821        2.75254015
 C            1.44411179       -2.46531017        1.91309748
 C            2.39834075       -2.35783541       -0.35687961
 C            1.51757670       -2.95668298        0.54217594
 C            2.44716984       -0.95433718       -2.38997143
 C            1.98977691       -2.13610934       -1.67125843
 C            1.29405928       -0.35698527       -3.04566527
 C            2.01420143        1.84525348       -2.21932193
 C            1.08951899        1.01098985       -2.97258708
 C            1.55443386        3.07126895       -0.13619359
 C            1.22987488        2.80536436       -1.45572040
 C            0.94968830        2.33112867        2.00600315
 C            0.49855800        3.10254934        0.85897000
 C            0.49591256        0.06700020        2.68984558
 C            0.07973722        1.39706405        2.56293876
 C            0.04271470       -2.26060971        2.21320731
 C           -0.42074851       -0.97855646        2.49969359
 C            0.16168566       -3.29160749        0.12599081
 C           -0.70063647       -3.08601015        1.28446751
 C            0.60703314       -2.37593405       -2.05519853
 C            0.16581490       -1.25252055       -2.86839500
 C           -0.28523971       -2.94106058       -1.14971114
 C           -1.11919614       -0.74640042       -2.67761177
 C           -0.25239449        1.51545586       -2.74737705
 C           -0.16381042        2.63160256       -1.81854739
 C           -1.33277687        0.63995647       -2.64074288
 C           -0.83946877        2.99606339        0.48218552
 C           -1.17252725        2.78951912       -0.86984096
 C           -1.27811541        1.68363854        2.50095161
 C           -1.73211108        2.62261709        1.48785636
 C           -1.78168857       -0.70113998        2.34433045
 C           -2.23495802        0.59756582        2.53642654
 C           -2.04382273       -2.81420769        1.09045043
 C           -2.61640170       -1.63294430        1.71897942
 C           -1.64842000       -2.75437043       -1.36924795
 C           -2.08169850       -1.61792024       -2.17039742
 C           -2.57053021       -2.88964789       -0.25712483
 C           -3.71271618       -1.17696778        0.87414642
 C           -3.31417625       -1.10552029       -1.59770595
 C           -3.59828857       -1.87268551       -0.39626467
 C           -2.51421870        1.15185517       -2.10421950
 C           -2.43370287        2.30354494       -1.21774194
 C           -3.53911768        0.26142524       -1.58868577
 C           -3.10729294        2.30107499        1.17073316
 C           -3.42922978        1.04952104        1.84005264
 C           -4.05378979        0.16902830        0.87069808
 C           -3.47459557        2.17466441       -0.21822228
 C           -4.10888172        0.87903174       -0.39907373




