%chk=000768.chk
%mem=8GB
%Nproc=32
#p B3LYP/6-31G* opt pop=NPA

Template file

0 1
 C            3.78049575        1.81476541       -1.26078867
 C            3.76049260        1.86364427        0.19008923
 C            3.86375031        0.50207206        0.68609301
 C            3.82316956        0.41766970       -1.65330290
 C            4.07733688       -0.36959034       -0.46484663
 C            2.62900282        0.12670112       -2.42636794
 C            2.52505711        2.36819584       -1.73443230
 C            1.84505516        1.34732660       -2.50225864
 C            2.61954996        2.66215661        0.59036628
 C            1.82816435        2.93907644       -0.60048274
 C            1.95536291        2.31900297        1.75778040
 C            3.02608271        0.08699911        1.72585403
 C            2.19405082        1.01153220        2.35867039
 C            2.78346177       -1.27230188        1.90421546
 C            3.57703744       -1.66140901       -0.42513745
 C            3.17695549       -2.19967130        0.85922397
 C            1.96329910       -1.08065179       -2.21159966
 C            2.55794767       -2.05038721       -1.39402073
 C            0.59298649       -1.15465056       -2.48819565
 C            0.46846207        1.24016387       -2.38602273
 C           -0.12042604        0.02770153       -2.71707436
 C            0.44386970        2.79988957       -0.53130135
 C           -0.23150187        2.12575478       -1.55892106
 C            0.53234508        2.58894858        1.85364986
 C           -0.17554921        2.94287521        0.70950396
 C            0.94471544        0.56414504        2.96193114
 C           -0.04780792        1.60933959        2.75602243
 C            1.49712061       -1.71266240        2.42511552
 C            0.57076286       -0.77338245        2.87063731
 C            2.07647938       -3.12083405        0.63515633
 C            1.73895402       -3.08232631       -0.77372855
 C            1.03976661       -2.82712339        1.60731481
 C           -0.09636334       -2.32681081       -2.18496278
 C            0.40603354       -3.18733047       -1.13417328
 C           -1.53955846       -2.29647907       -2.04686920
 C           -1.50174613       -0.00161757       -2.86952403
 C           -2.23458688       -1.22212705       -2.57397969
 C           -1.62713764        2.04660604       -1.52231303
 C           -2.26932615        1.11475766       -2.34431127
 C           -1.56103717        2.90137874        0.76973457
 C           -2.30214902        2.61970707       -0.44342527
 C           -1.38905240        1.27519563        2.59547466
 C           -2.18420403        2.13170883        1.83620785
 C           -0.78158723       -1.10213892        2.84310331
 C           -1.78486842       -0.04930215        2.78459320
 C           -0.29566299       -2.87383621        1.21710881
 C           -0.61659940       -3.22564604       -0.09491524
 C           -1.85345488       -2.74491379       -0.69551572
 C           -1.22994598       -2.19414048        1.99077639
 C           -2.93729512       -0.58644964        2.07143153
 C           -2.77109775       -2.02773361        0.07075458
 C           -2.51886021       -1.82344926        1.42648259
 C           -3.48877359       -0.84273352       -1.95080102
 C           -3.58707371        0.60519263       -2.00144516
 C           -3.72901122       -1.24908694       -0.57772036
 C           -3.60309019        2.11758399       -0.02861303
 C           -3.47988495        1.68548405        1.35480002
 C           -3.80264919        0.27327375        1.41020964
 C           -4.21888061        1.04179646       -0.77438929
 C           -4.31858650       -0.11185912        0.10913849




