%chk=000109.chk
%mem=8GB
%Nproc=32
#p B3LYP/6-31G* opt pop=NPA

Template file

0 1
 C            4.66717322       -0.20291854       -0.98245976
 C            4.67978978       -1.02617408        0.21312036
 C            4.21644401       -0.20927791        1.31868935
 C            4.17995626        1.11443662       -0.61112565
 C            3.84330734        1.09562835        0.79449716
 C            3.13855227        1.47076519       -1.54631562
 C            3.70303859       -0.77383709       -1.90846582
 C            2.83594494        0.29357042       -2.35081857
 C            3.70592975       -2.08628096        0.03116488
 C            3.08835242       -1.91591240       -1.27446309
 C            3.21151831       -0.97273899        2.03915321
 C            2.83638686       -2.10181360        1.20007241
 C            2.20659913       -0.26751129        2.68090850
 C            2.62829034        1.64450026        1.19638240
 C            2.03527143        1.13822426        2.35359778
 C            2.06597604        2.23427211       -1.10189608
 C            1.84637170        2.36691371        0.28007836
 C            0.97907834        2.30177930       -1.96674713
 C            1.49519456        0.01517834       -2.61008878
 C            0.66199078        1.11668461       -2.74619252
 C            1.70875360       -2.05611204       -1.35073532
 C            0.94451258       -1.19247828       -2.15257422
 C            1.48486626       -2.38190002        1.00006866
 C            1.07857517       -2.69952455       -0.29466517
 C            0.87506366       -0.84377592        2.75132836
 C            0.53086723       -1.88853379        1.89987561
 C            0.66712317        1.49060317        2.67871116
 C           -0.05962736        0.25264395        2.92123857
 C            0.67064881        2.97188846        0.73245997
 C            0.05021345        2.50006475        1.96160409
 C           -0.26654131        2.89855500       -1.53094274
 C           -0.39724223        3.28500164       -0.20647026
 C           -0.77399532        0.94166632       -2.71548855
 C           -1.34360246        2.16660832       -2.17962530
 C           -0.44720859       -1.38579813       -2.17903510
 C           -1.30586554       -0.28463783       -2.33276075
 C           -0.21955981       -3.12514088       -0.49023091
 C           -0.93640103       -2.56435826       -1.61742267
 C           -0.82215848       -2.12330803        1.63567672
 C           -1.12252885       -3.04268050        0.63264460
 C           -1.34957139        0.11075500        2.42297442
 C           -1.77193071       -1.15113989        1.99171489
 C           -1.38059892        2.42109097        1.73538237
 C           -1.66635138        3.08521923        0.47477133
 C           -2.07088645        1.25399066        2.05928513
 C           -2.59244559        2.11084541       -1.58171060
 C           -2.77934951        2.67873602       -0.25188379
 C           -2.63491976       -0.33330090       -1.88187973
 C           -3.32147518        0.85640486       -1.62115787
 C           -2.34838633       -2.69520900       -1.31874125
 C           -2.45764343       -3.10758704        0.07612513
 C           -3.20299999       -1.54424623       -1.49057859
 C           -3.12206369       -1.35269288        1.70474304
 C           -3.49871402       -2.31442388        0.68777222
 C           -4.14071732       -1.56848685       -0.37885574
 C           -3.38172190        1.12605109        1.60885402
 C           -3.78056728        1.86946928        0.42552618
 C           -4.28480918        0.90651804       -0.53550790
 C           -3.97369691       -0.19480166        1.51040826
 C           -4.58221010       -0.31146388        0.19001032




