%chk=000702.chk
%mem=8GB
%Nproc=32
#p B3LYP/6-31G* opt pop=NPA

Template file

0 1
 C           -4.63302796       -0.07372992        0.63058063
 C           -4.10845933       -1.34756523        0.17538565
 C           -3.52793894       -1.15931329       -1.14142743
 C           -4.33482814        0.91690535       -0.38845377
 C           -3.57535217        0.26627340       -1.43921280
 C           -3.74446390        2.05027896        0.27890796
 C           -3.89528399        0.29698560        1.82806443
 C           -3.43896315        1.65282806        1.64887550
 C           -3.25342292       -1.86340857        1.22091429
 C           -2.90936338       -0.73753264        2.07466396
 C           -2.23557647       -2.71884061        0.84605206
 C           -2.37850918       -1.87729427       -1.47329743
 C           -1.88256782       -2.81845148       -0.56742452
 C           -1.52928411       -1.34843773       -2.44137910
 C           -2.43863638        0.87925332       -1.96899598
 C           -1.58095781        0.07823410       -2.71993506
 C           -2.53396388        2.61837429       -0.27658188
 C           -1.98399745        2.10687613       -1.45294651
 C           -2.03831275        1.94867921        1.87652702
 C           -1.64432028        2.87660156        0.83972044
 C           -1.55945043       -0.40456784        2.24647334
 C           -1.14238667        0.93615247        2.22110017
 C           -0.98320112       -2.63789145        1.56414495
 C           -0.60708429       -1.42265237        2.13569275
 C           -0.48180915       -3.22398712       -0.62385274
 C           -0.02535376       -3.35822163        0.75581367
 C           -0.13655143       -1.76574293       -2.50776961
 C            0.37013171       -2.67359029       -1.58317297
 C           -0.23668018        0.52453650       -3.03445927
 C            0.66204711       -0.60546998       -2.87546656
 C           -0.71592434        2.57697041       -1.79558994
 C            0.17174126        1.77650157       -2.62235741
 C           -0.29153053        3.00976427        0.57477192
 C            0.09553524        3.18241039       -0.75050034
 C            0.21961761        1.22165694        2.10177645
 C            0.60828651        2.39953463        1.44394253
 C            0.75218461       -1.12369610        2.25025573
 C            1.15369091        0.20910477        2.33541000
 C            1.31682612       -3.18866743        1.03728483
 C            1.69199931       -2.11078031        1.93818790
 C            1.74669525       -2.70088741       -1.36363307
 C            2.24119100       -3.15258752       -0.07582999
 C            1.91645458       -0.43276234       -2.29303555
 C            2.55210501       -1.55559114       -1.76663851
 C            1.52790533        1.95485311       -2.12939695
 C            1.49104245        2.98928085       -1.10482777
 C            2.36945476        0.85122964       -1.96280241
 C            1.95916709        2.67426095        1.26600981
 C            2.43152884        2.94600771       -0.08498767
 C            2.51215512        0.52036342        2.37278983
 C            2.93621095        1.83078806        1.92127850
 C            3.05747343       -1.73649077        1.61157675
 C            3.35509895       -2.30375544        0.30441715
 C            3.63219941       -1.40531974       -0.80478156
 C            3.48220262       -0.44502027        1.88035379
 C            3.52780348        1.00747145       -1.19883002
 C            3.61877612        2.14253598       -0.29498215
 C            4.04788875        1.65414845        1.00284647
 C            4.11123501       -0.13682000       -0.51881016
 C            4.28855336        0.23021429        0.87756064




