%chk=000499.chk
%mem=8GB
%Nproc=32
#p B3LYP/6-31G* opt pop=NPA

Template file

0 1
 C            4.28558091        1.70890730       -0.24225062
 C            4.32895690        0.52000854       -1.07026525
 C            4.59367622       -0.58784215       -0.17974030
 C            4.02882050        1.27454759        1.12292408
 C            4.26929290       -0.14549759        1.17353663
 C            2.71865523        1.76881870        1.49819954
 C            3.14247760        2.49085417       -0.66729649
 C            2.33822867        2.75616290        0.50601049
 C            3.11824281        0.49737584       -1.88309863
 C            2.49243442        1.80178117       -1.76573749
 C            2.31121463       -0.64141880       -1.90141851
 C            3.87762389       -1.82226127       -0.40590786
 C            2.79140622       -1.83888635       -1.37306325
 C            3.21618645       -1.01047606        1.66843829
 C            3.29663054       -2.20731756        0.86699046
 C            1.73082923        0.89580036        1.97143195
 C            1.94688063       -0.49310609        1.95757903
 C            0.41979364        1.38276553        2.01933163
 C            0.98354088        2.94528282        0.31006433
 C            0.14127989        2.58208849        1.34910010
 C            1.10768856        1.88769479       -1.82453206
 C            0.48710924        2.80989685       -0.98581387
 C            0.93734767       -0.50580308       -2.12386591
 C            0.37182291        0.77441898       -2.23235010
 C            0.11155411       -1.63643443       -2.04908154
 C            1.83850317       -2.80310308       -0.86562047
 C            2.06132466       -2.88274104        0.56979022
 C            0.51586054       -2.74187638       -1.29244293
 C            0.84544498       -1.36649901        1.96745059
 C            0.96436798       -2.64139938        1.37736093
 C           -0.62391917        0.51682138        2.35738459
 C           -0.42257906       -0.86404739        2.29672129
 C           -1.92147890        1.01823806        2.47628207
 C           -1.15984100        3.06025028        1.28621257
 C           -2.20953877        2.34670957        1.97874444
 C           -0.86438917        3.05716964       -1.18271617
 C           -1.66141389        3.43161312       -0.02455662
 C           -1.01107844        0.91445476       -2.38513811
 C           -1.63302528        2.08901180       -1.94753754
 C           -1.22595398       -1.52569504       -2.42147685
 C           -1.78591793       -0.20810227       -2.65808423
 C           -2.23302279       -2.31943955       -1.72952030
 C           -0.42142696       -3.35700365       -0.46275847
 C           -0.18642380       -3.29431986        0.96976236
 C           -1.83770049       -3.15101507       -0.69259989
 C           -1.52904255       -1.71743638        2.30336760
 C           -1.43288285       -2.98342965        1.61840658
 C           -2.47850089       -3.02585808        0.60902600
 C           -3.05118083        0.17797652        2.12081687
 C           -2.85019330       -1.18719635        2.01533149
 C           -3.37267810       -1.90877223        0.86136154
 C           -3.35504564        2.25320488        1.08377875
 C           -2.98510576        2.85938274       -0.18061921
 C           -2.97437584        2.03718826       -1.37697015
 C           -3.80861176        0.87469716        1.09235858
 C           -3.17635627       -0.23276194       -2.23392553
 C           -3.41721698       -1.49506259       -1.55962961
 C           -3.89750241       -1.20396615       -0.21721150
 C           -3.66281792        0.83199875       -1.37863585
 C           -4.08355523        0.23364752       -0.11389768




