%chk=001115.chk
%mem=8GB
%Nproc=32
#p B3LYP/6-31G* opt pop=NPA

Template file

0 1
 C            4.34842823        0.86431628       -0.23918982
 C            4.04002794        0.92863458        1.17809772
 C            3.79381923       -0.42714642        1.63732003
 C            4.29259547       -0.53329191       -0.64031356
 C            3.73584479       -1.28650766        0.46676571
 C            3.63219484       -0.59880851       -1.92228617
 C            3.54011476        1.62596264       -1.17745401
 C            3.20245410        0.74570127       -2.27940861
 C            2.57283333        2.50368438       -0.70274256
 C            2.93039006        1.75170923        1.62221792
 C            2.33215036        2.63153025        0.73079109
 C            2.64934369       -0.39741719        2.53046338
 C            2.08308309        0.94267925        2.48594595
 C            1.78932049       -1.48114349        2.52191693
 C            2.60578840       -2.08725232        0.28073587
 C            1.85604489       -2.41966279        1.41078795
 C            2.48441909       -1.46856919       -2.06465180
 C            2.06238937       -2.26967702       -1.00333110
 C            1.81853538        0.66443744       -2.72587770
 C            1.48371617       -0.74175303       -2.82590103
 C            1.28068330        2.57589993       -1.37207244
 C            0.86918901        1.54211202       -2.20813124
 C            0.92804749        2.95035914        0.90466519
 C            0.34148777        3.12275952       -0.41454139
 C            0.69587946        1.11507801        2.43968346
 C            0.18122356        2.28833767        1.87663407
 C            0.38593356       -1.25900739        2.80028468
 C           -0.15130369        0.02039950        2.67140130
 C            0.54349997       -3.02535979        1.27428569
 C           -0.33566113       -2.38785176        2.24469217
 C            0.82954601       -2.90449130       -1.15364510
 C            0.06966999       -3.32959725        0.00890240
 C            0.15631846       -1.11916500       -2.69143923
 C           -0.11356145       -2.35974701       -2.11804574
 C           -0.47482645        1.15985786       -2.20342855
 C           -0.82210987       -0.12812230       -2.63822805
 C           -1.01246034        2.85332510       -0.55417924
 C           -1.42264888        1.97159260       -1.56153482
 C           -1.19533643        2.47980041        1.84563900
 C           -1.77757222        2.95634913        0.60370096
 C           -1.53356709        0.16138268        2.52392178
 C           -2.06559208        1.42974243        2.33236097
 C           -1.68417574       -2.23492248        1.96024569
 C           -2.31968988       -0.96115386        2.25154808
 C           -1.34599865       -3.16830139       -0.29348691
 C           -1.45820945       -2.65940386       -1.65265703
 C           -2.21558772       -2.71037208        0.69132927
 C           -2.15279102       -0.52958471       -2.62391356
 C           -2.48973953       -1.78802538       -1.98125967
 C           -2.78256897        1.70166620       -1.72218739
 C           -3.18302180        0.42969704       -2.28599289
 C           -3.16782654        2.55432291        0.58675115
 C           -3.34594519        1.58074292        1.65383176
 C           -3.70056165        1.98578557       -0.63231835
 C           -3.47596396       -0.84675952        1.37572545
 C           -3.33302288       -1.85060361        0.32724494
 C           -3.53050847       -1.50688019       -1.00719620
 C           -4.09077676       -0.20966054       -1.34323894
 C           -3.98945968        0.41149502        1.08306363
 C           -4.36448473        0.74087791       -0.28230109




