%chk=000896.chk
%mem=8GB
%Nproc=32
#p B3LYP/6-31G* opt pop=NPA

Template file

0 1
 C            4.07922863       -1.60070762        0.71801769
 C            3.93894017       -1.38562245       -0.71175023
 C            2.80790442       -2.17253905       -1.17073868
 C            2.96058169       -2.41603661        1.15300391
 C            2.27250587       -2.89833382       -0.02575097
 C            2.18953169       -1.65683914        2.11468351
 C            3.96009242       -0.30964008        1.36786350
 C            2.77380146       -0.32994338        2.21063663
 C            3.93779070        0.04441830       -0.94967858
 C            4.05589276        0.71178202        0.34213167
 C            3.07776770        0.55658270       -1.91446898
 C            1.91648438       -1.63095923       -2.09731984
 C            2.07494453       -0.30860377       -2.52483555
 C            0.66967585       -2.23705108       -2.23140269
 C            0.89657388       -3.08587942        0.04647772
 C            0.19370876       -3.08715698       -1.15287688
 C            0.81002991       -1.76482195        2.06786165
 C            0.22779141       -2.71079725        1.21705252
 C            0.04917860       -0.68434416        2.50244156
 C            1.93803398        0.78865113        2.21020509
 C            0.55008777        0.61007724        2.33999605
 C            3.37528426        1.90146785        0.55780297
 C            2.44236372        1.97075014        1.67174606
 C            2.47972341        1.86905037       -1.72614415
 C            2.73873485        2.57692964       -0.55996573
 C            0.89958072        0.50574753       -2.80847431
 C            1.12488926        1.82994910       -2.26530368
 C           -0.46354851       -1.45028813       -2.68529897
 C           -0.36211964       -0.06201827       -2.70485000
 C           -1.25881977       -3.02516762       -1.13921955
 C           -1.66727495       -2.08224420       -2.17034596
 C           -1.14581769       -2.92043818        1.30516485
 C           -1.92203822       -3.04556523        0.08093575
 C           -1.30638337       -0.87890797        2.72496023
 C           -1.90993711       -2.10386410        2.23216310
 C           -2.22574014        0.21027616        2.46254881
 C           -0.33884346        1.68172874        2.13856695
 C           -1.71533907        1.43978913        2.05499128
 C            1.54989111        3.07237896        1.40347793
 C            1.69962459        3.42207452       -0.00426268
 C            0.13582506        2.89873552        1.65232515
 C            0.08350574        2.47635115       -1.60432802
 C            0.37126951        3.38944120       -0.58787232
 C           -0.54778796        3.50594175        0.52799641
 C           -1.44429911        0.71698280       -2.28419059
 C           -1.22295420        1.99039612       -1.72826070
 C           -2.80146245       -1.30600799       -1.98578930
 C           -2.70719700        0.12199764       -2.22712093
 C           -3.15290613       -2.28753560        0.24594421
 C           -3.17294667       -1.76429801        1.60195914
 C           -3.40789600       -0.34656079        1.81227187
 C           -3.62005835       -1.49265545       -0.79620100
 C           -3.78111352        0.74714783       -1.48329207
 C           -4.05539064        0.38224054        0.82297536
 C           -4.24306257       -0.21238858       -0.49226858
 C           -2.50870328        2.29314102        1.28513877
 C           -1.86760604        3.16230609        0.31684149
 C           -2.22134115        2.61763215       -0.97757115
 C           -3.69362870        1.77154829        0.62563453
 C           -3.51702311        1.99170046       -0.80423429




