%chk=001127.chk
%mem=8GB
%Nproc=32
#p B3LYP/6-31G* opt pop=NPA

Template file

0 1
 C            4.43964867        0.28818405        0.99295083
 C            3.61663677        0.47576830        2.17349363
 C            2.96437592       -0.79289111        2.46078484
 C            4.34021198       -1.11138208        0.61217636
 C            3.22542651       -1.68370168        1.35233983
 C            4.33189003       -1.17226185       -0.83535111
 C            4.17244344        1.08480007       -0.19259413
 C            4.17993845        0.18627398       -1.33580033
 C            3.21999850        2.09735865       -0.14436063
 C            2.59030367        1.50413005        2.16808518
 C            2.48433114        2.36639023        1.08747339
 C            1.58723763       -0.51221481        2.79953594
 C            1.38300833        0.91996972        2.72289262
 C            0.58138898       -1.32355067        2.29560146
 C            2.14190884       -2.23814138        0.66820956
 C            0.85917488       -2.19649056        1.23201379
 C            3.32797323       -1.99008636       -1.48260768
 C            2.26935260       -2.57607796       -0.67903656
 C            3.04985528        0.19876038       -2.25444927
 C            2.68219910       -1.17669681       -2.50112238
 C            2.27461856        2.22722154       -1.23948632
 C            2.03822918        1.13618363       -2.07465023
 C            1.17099459        2.86373742        0.71036541
 C            1.15402920        2.99659790       -0.73534922
 C            0.13120151        1.36453834        2.30364500
 C            0.02683981        2.39095207        1.35423559
 C           -0.72718072       -0.87681383        2.46006918
 C           -0.95382514        0.50558573        2.48482779
 C           -1.75167720       -1.74852610        2.11317118
 C           -0.21247735       -2.71050282        0.49312435
 C           -1.47186308       -2.73894257        1.09115128
 C            1.08387412       -2.56502901       -1.51052152
 C            1.27384778       -1.52083400       -2.49995361
 C           -0.15484374       -2.63550225       -0.89949858
 C            0.72333352        0.82726108       -2.44808682
 C            0.31695062       -0.50982520       -2.56651830
 C           -0.06213809        2.89551174       -1.38529480
 C           -0.24459563        1.82313776       -2.35214668
 C           -1.21844795        2.64815246        0.76987393
 C           -1.27589879        2.95529200       -0.59189944
 C           -2.22947017        1.01376877        2.27096161
 C           -2.36307718        2.16497831        1.39918121
 C           -3.10061692       -1.24887297        1.90896377
 C           -3.34048758        0.11608219        2.00866202
 C           -2.64471298       -2.82230902        0.23381889
 C           -3.69927323       -2.02388872        0.83281985
 C           -1.22611173       -2.05647307       -1.56925333
 C           -1.00444728       -0.85680943       -2.25883206
 C           -2.50085455       -2.39691626       -1.14363577
 C           -1.65078290        1.45805001       -2.33150291
 C           -2.31922804        2.37252733       -1.41683568
 C           -2.00950756        0.11477818       -2.32986555
 C           -3.58806359        2.00341198        0.63048510
 C           -4.23495234        0.77763969        1.06917637
 C           -3.50650322        1.97655128       -0.81944974
 C           -4.39492385       -1.34395580       -0.24597957
 C           -3.61104691       -1.52500050       -1.45944186
 C           -3.32422394       -0.21628613       -2.00734825
 C           -4.68872372        0.06994183       -0.11459239
 C           -4.13126747        0.74644626       -1.27462526




