%chk=001556.chk
%mem=8GB
%Nproc=32
#p B3LYP/6-31G* opt pop=NPA

Template file

0 1
 C            4.05865018       -0.89940267        0.40794239
 C            3.89787546       -0.98005004       -1.03167638
 C            3.09194691       -2.15183193       -1.32109310
 C            3.26053576       -1.95913920        1.00782344
 C            2.59864803       -2.68012662       -0.05988400
 C            2.44692503       -1.36959824        2.05208104
 C            3.72565818        0.34184128        1.08389204
 C            2.87699956        0.00852871        2.21670505
 C            3.45239301        1.48134509        0.33257206
 C            3.31257235        0.14488569       -1.73940798
 C            3.21819176        1.37555512       -1.10488031
 C            2.12381052       -1.78944530       -2.34198202
 C            2.16963276       -0.34364279       -2.49550924
 C            0.88788277       -2.41240140       -2.31339162
 C            1.24057847       -2.96017096        0.05124333
 C            0.51873733       -3.16272628       -1.12385005
 C            1.08740346       -1.66613082        2.10321101
 C            0.55459619       -2.62194293        1.22312113
 C            0.23934114       -0.81581136        2.82444564
 C            1.96352831        0.94138682        2.68901802
 C            0.63070617        0.49850472        3.06081108
 C            2.53910340        2.48579566        0.85721723
 C            1.83156043        2.23120748        2.02706320
 C            2.10387804        2.24596383       -1.43000440
 C            1.86121140        3.09516697       -0.27481331
 C            0.98272656        0.39525509       -2.50176205
 C            1.01989855        1.74874123       -2.15419120
 C           -0.28469914       -1.65363629       -2.69792085
 C           -0.24719983       -0.26013907       -2.65935114
 C           -0.93298514       -3.21861781       -1.08078812
 C           -1.42954767       -2.34935743       -2.13888783
 C           -0.77704900       -3.00869268        1.35244904
 C           -1.56795005       -3.23761996        0.15351453
 C           -1.11796811       -1.10029218        2.90417407
 C           -1.61675091       -2.32085005        2.31016546
 C           -2.06783126       -0.03482560        2.61598319
 C           -0.30544347        1.56852008        2.75596422
 C            0.44138128        2.65036967        2.13832155
 C           -1.57965336        1.23316675        2.29648085
 C            0.59773855        3.64629709       -0.10759518
 C           -0.14617225        3.38163564        1.11784909
 C           -0.14711614        2.50249060       -2.19889031
 C           -0.33716175        3.55484431       -1.21416405
 C           -1.44828219        0.45074454       -2.55480037
 C           -1.42094266        1.83282760       -2.37830441
 C           -2.60781436       -1.64346521       -1.95602430
 C           -2.64081820       -0.23518548       -2.31284956
 C           -2.84413458       -2.55922000        0.31955462
 C           -2.88733679       -2.02292980        1.67006714
 C           -3.17283120       -0.60997761        1.87012152
 C           -3.36985681       -1.80778109       -0.72590191
 C           -3.65692992        0.39396777       -1.49028177
 C           -3.74835025        0.11837212        0.84121140
 C           -4.01034837       -0.53538103       -0.43146945
 C           -2.17417145        1.97872373        1.26832978
 C           -1.52501332        3.10327514        0.75459864
 C           -1.66796077        3.40597324       -0.65744756
 C           -2.39065639        2.46585393       -1.48861658
 C           -3.26198282        1.45828534        0.56015796
 C           -3.34915338        1.67086658       -0.88035064




