%chk=000659.chk
%mem=8GB
%Nproc=32
#p B3LYP/6-31G* opt pop=NPA

Template file

0 1
 C            4.53386551       -0.29293527        0.63797213
 C            3.91279089       -1.59636095        0.76928809
 C            3.67348146       -2.08531852       -0.56931660
 C            4.31009927        0.16170629       -0.72652454
 C            3.80309886       -0.95923188       -1.48316172
 C            3.50892505        1.36739862       -0.65583734
 C            3.82906593        0.61899338        1.51747999
 C            3.48279581        1.78679513        0.73445069
 C            2.77348666       -1.47195499        1.66732445
 C            2.74726627       -0.10657554        2.16370600
 C            1.56976910       -2.08694208        1.32854826
 C            2.39359447       -2.70083860       -0.83427415
 C            1.52817368       -2.94941505        0.22442632
 C            2.53508718       -0.81709099       -2.17666919
 C            1.82684583       -2.06802786       -2.01211291
 C            2.33560391        1.47990497       -1.40621557
 C            1.80975137        0.36231266       -2.07687347
 C            1.48991555        2.55452940       -1.12739130
 C            2.39231499        2.52695730        1.15227293
 C            1.55113950        3.13700470        0.14028637
 C            1.52237302        0.54110509        2.31225152
 C            1.48031241        1.92039521        2.11329618
 C            0.37683614       -1.53739043        1.81018045
 C            0.33730289       -0.19212733        2.20630316
 C           -0.81104713       -2.25321063        1.64999381
 C            0.30117921       -3.48349238       -0.13726993
 C           -0.82723842       -3.31959077        0.75287417
 C            0.43835821       -2.09416103       -2.12419898
 C           -0.18378155       -3.15017267       -1.46710899
 C            0.45125060        0.32201579       -2.38947803
 C           -0.26125216       -0.87942941       -2.25158486
 C            0.33115170        2.70298200       -1.88353922
 C           -0.23692567        1.52256450       -2.50928118
 C           -0.76574325        3.50057329       -1.35849815
 C            0.32167553        3.49535347        0.82206218
 C            0.19657495        2.57875393        1.94954626
 C           -0.80091112        3.79197391        0.06415465
 C           -0.89210343        0.46551282        2.33105960
 C           -0.97336526        1.84379227        2.10231088
 C           -2.01114521       -1.70236871        2.09897481
 C           -2.06150901       -0.28594555        2.41826194
 C           -3.26122344       -2.04512989        1.43655205
 C           -2.00012742       -3.55766634       -0.07073870
 C           -1.62496737       -3.20835212       -1.43120642
 C           -3.22218970       -2.84801141        0.23250215
 C           -1.64911020       -0.83797400       -2.01681031
 C           -2.35555585       -2.01361064       -1.77843884
 C           -3.49987941       -1.96458496       -0.89387217
 C           -1.66989628        1.54237656       -2.28342102
 C           -2.00722460        2.83397836       -1.71232574
 C           -2.28545073        0.38886021       -1.80577230
 C           -2.10092889        3.38611035        0.56539905
 C           -2.16164524        2.39376930        1.62692351
 C           -2.87253204        2.87144279       -0.55551552
 C           -3.30112049        0.25329151        1.87247229
 C           -3.92083295       -0.80272186        1.09233565
 C           -3.89454643       -0.67969189       -0.35632278
 C           -3.35316136        0.48432537       -0.89455451
 C           -3.27435083        1.52152357        1.31467130
 C           -3.48432048        1.63402100       -0.11956640




