%chk=000169.chk
%mem=8GB
%Nproc=32
#p B3LYP/6-31G* opt pop=NPA

Template file

0 1
 C            4.32200040       -1.72744253        0.59154316
 C            4.69367125       -0.85291893       -0.50438325
 C            4.48138019        0.51104056       -0.06417467
 C            3.78490444       -0.90303886        1.66378605
 C            3.84737851        0.47750827        1.24587679
 C            2.49726679       -1.44410772        2.02741922
 C            3.24463964       -2.58042493        0.12644901
 C            2.21057782       -2.55390725        1.13719546
 C            3.77223190       -1.09340514       -1.60273337
 C            2.87681001       -2.16842382       -1.21270156
 C            3.78645904        1.20549374       -1.13193474
 C            3.18866201        0.18357170       -1.98089574
 C            3.00370350        2.28661576       -0.77068782
 C            2.74758496        1.30810893        1.45454169
 C            2.66257930        2.43013249        0.63536599
 C            1.44901418       -0.57799251        2.32102843
 C            1.57276217        0.79770479        2.04653656
 C            0.17417607       -1.13906685        2.38884905
 C            0.89253173       -2.69550257        0.73241645
 C           -0.08346537       -2.28656558        1.62963665
 C            1.52190132       -2.03433377       -1.49698162
 C            0.59058129       -2.61676297       -0.63220239
 C            1.81918629        0.23073621       -2.24769009
 C            1.10908718       -0.97043723       -2.29565133
 C            1.77014452        2.51734081       -1.49333539
 C            1.12158566        1.43522612       -2.08355564
 C            1.49057314        3.26922765        0.69682155
 C            1.00252055        3.41981581       -0.66749575
 C            0.44465672        1.62939262        2.19262360
 C            0.37600061        2.83999635        1.51031824
 C           -0.87129727       -0.33975492        2.82657832
 C           -0.75210909        1.09459418        2.66508062
 C           -2.24731945       -0.71801505        2.55145080
 C           -1.38778676       -2.66171819        1.34490174
 C           -2.49849398       -1.92485508        1.91423749
 C           -0.75609618       -2.63212162       -1.01175477
 C           -1.70764772       -2.94608353       -0.04049372
 C           -0.21050054       -0.94663944       -2.71620128
 C           -1.14065666       -1.90449876       -2.14096417
 C           -0.27480136        1.44977143       -2.22251903
 C           -0.88994255        0.33311487       -2.78738557
 C           -0.43074223        3.25664319       -0.63196703
 C           -0.82777142        3.15771964        0.76261424
 C           -1.04730906        2.41205841       -1.54648609
 C           -2.01640884        1.58663404        2.12644608
 C           -2.97287064        0.48607373        2.16549056
 C           -2.00939585        2.48465655        1.05564571
 C           -3.99878498        0.42216698        1.22689715
 C           -3.61451838       -2.04149251        0.99222300
 C           -3.10483796       -2.60750746       -0.24865856
 C           -4.38397383       -0.85869462        0.65875441
 C           -2.47043822       -1.31530927       -2.22511606
 C           -2.30746019        0.09005254       -2.58216061
 C           -3.45767480       -1.70677751       -1.32725355
 C           -4.38063079       -0.72153528       -0.79012947
 C           -2.40685155        2.19207046       -1.34209540
 C           -2.92062438        2.31860666        0.01339392
 C           -4.03189558        1.39802497        0.15709015
 C           -3.07350356        1.06478483       -1.96279288
 C           -4.17876200        0.68044964       -1.10081056




