%chk=001410.chk
%mem=8GB
%Nproc=32
#p B3LYP/6-31G* opt pop=NPA

Template file

0 1
 C           -4.19016303        1.06367024       -0.70155912
 C           -4.28330164       -0.23708987       -0.07179538
 C           -3.82343705       -1.21525791       -1.03981516
 C           -3.42588105        0.90167961       -1.93248859
 C           -3.07237771       -0.49553846       -2.05415661
 C           -2.36536634        1.88291742       -1.92446465
 C           -3.58655716        2.14629098        0.04735531
 C           -2.62078955        2.79073824       -0.82518916
 C           -2.89386986        1.84432052        1.28811446
 C           -3.54620986       -0.48063727        1.15675181
 C           -2.71849932        0.51517903        1.68327309
 C           -3.14847661       -2.27158471       -0.30717829
 C           -3.06522659       -1.84920507        1.08612223
 C           -2.04195507       -2.86481476       -0.89925800
 C           -1.74473373       -0.85591085       -2.27886589
 C           -1.37694482       -2.16504007       -1.99022541
 C           -1.05464985        1.47640896       -2.13090926
 C           -0.74955692        0.12860251       -2.37140272
 C           -0.04091572        2.32549093       -1.70502214
 C           -1.49214716        3.19534551       -0.00228362
 C           -1.77255324        2.76228926        1.35764805
 C           -0.20254434        3.02031054       -0.50028971
 C           -0.70483505        2.44525483        2.17975165
 C           -1.59673878        0.15878290        2.44247507
 C           -0.65214102        1.12491119        2.78758470
 C           -1.96130046       -2.20910362        1.84625849
 C           -1.25701951       -1.18446560        2.59894981
 C           -1.00598095       -3.43790483       -0.05902420
 C           -0.96421627       -3.11294394        1.29218546
 C            0.02492583       -2.52572718       -1.95694616
 C            0.22235493       -3.43239735       -0.83339273
 C            0.59822289       -0.24651965       -2.50255219
 C            0.99106131       -1.56518693       -2.23770695
 C            1.23340161        2.10262357       -2.19889208
 C            1.56812728        0.75402218       -2.61982861
 C            2.36497073        2.64624467       -1.47605239
 C            0.86568287        3.08828789        0.39708828
 C            0.64127787        2.76952053        1.73649993
 C            2.16647957        3.03902115       -0.09511545
 C            0.74991066        0.74191515        2.89322647
 C            1.54685628        1.85745998        2.41610980
 C            0.14853209       -1.56058186        2.66019092
 C            0.31179653       -2.79904874        1.91803045
 C            1.12236621       -0.56555987        2.58846336
 C            1.44373247       -3.42389862       -0.17425473
 C            1.49319449       -3.01972521        1.22530693
 C            2.31463963       -1.84755151       -1.89845894
 C            2.57568276       -2.81220971       -0.84549888
 C            2.94030237        0.49141043       -2.21370695
 C            3.43825423        1.66883271       -1.52203332
 C            3.26983754       -0.76873014       -1.73578690
 C            3.19413919        2.38673011        0.70007260
 C            2.79125559        1.61165627        1.86060056
 C            3.96231334        1.52045990       -0.17806447
 C            2.34112420       -0.81824705        1.94465459
 C            2.58052942       -2.06831991        1.37159974
 C            3.37974921       -2.14620740        0.16267990
 C            3.87914210       -0.91338081       -0.41498803
 C            3.20829801        0.23631205        1.64309244
 C            3.99022743        0.19609958        0.41312062




