%chk=001709.chk
%mem=8GB
%Nproc=32
#p B3LYP/6-31G* opt pop=NPA

Template file

0 1
 C            3.31117119       -1.86328543        1.15273055
 C            3.87140193       -1.03806725        0.11053572
 C            3.92396234        0.32395149        0.61028776
 C            2.91634163       -0.98964980        2.25189902
 C            3.13984550        0.37250553        1.83282359
 C            1.58519828       -1.38041129        2.65302260
 C            2.16602796       -2.69485578        0.84072920
 C            1.32738666       -2.66055839        2.02152935
 C            1.55870804       -2.62148232       -0.41709005
 C            3.20733144       -1.00310464       -1.17398732
 C            2.15323618       -1.87096868       -1.45197651
 C            3.55618703        1.21516010       -0.47782535
 C            3.08412568        0.38911437       -1.57926982
 C            2.85405355        2.36487118       -0.16062374
 C            2.10916118        1.30367933        1.91603553
 C            2.26555381        2.46515082        1.16519123
 C            0.56338687       -0.43356714        2.68289736
 C            0.81763728        0.90176928        2.31342155
 C           -0.75188648       -0.89916476        2.76457762
 C            0.01472805       -3.07062690        1.90033270
 C           -1.02334404       -2.23912110        2.48223790
 C            0.25131265       -3.11787301       -0.54997042
 C           -0.46486159       -3.48008317        0.59171978
 C           -0.44373125       -2.97358583       -1.74866558
 C            1.43685600       -1.60751612       -2.61375164
 C            0.18045401       -2.27857420       -2.85006301
 C            1.96252127        0.77039427       -2.32006910
 C            1.29959480       -0.22334336       -3.04321646
 C            1.85560668        2.85178686       -1.09049715
 C            1.31310401        1.97963625       -2.03279100
 C            1.18311411        3.41533976        1.08307224
 C            0.97137640        3.71643829       -0.32618048
 C           -0.23516624        1.83398580        2.31438069
 C           -0.09309574        3.05196768        1.64968685
 C           -1.80408964        0.00815987        2.80551906
 C           -1.52670293        1.41860461        2.62643310
 C           -3.05074639       -0.29955837        2.10957290
 C           -2.25983008       -2.57825687        1.80334562
 C           -1.90943433       -3.31433310        0.59956185
 C           -3.15561987       -1.50336925        1.42954601
 C           -1.84322099       -2.57071313       -1.72059201
 C           -2.54366565       -2.65781365       -0.52901416
 C           -3.23137257       -1.47839807       -0.02662886
 C           -0.76744404       -1.29358850       -3.34834393
 C           -0.07248393       -0.02585903       -3.47989946
 C           -1.95361021       -1.36045736       -2.51151727
 C            0.01765688        2.21018179       -2.49980280
 C           -0.73394103        1.13457087       -3.11718146
 C           -0.45766160        3.66771684       -0.57822108
 C           -1.11551668        3.46913898        0.70331728
 C           -0.91811687        2.98734579       -1.69773844
 C           -2.64202267        1.99424440        1.89112885
 C           -3.47751964        0.90361390        1.42642129
 C           -2.35558393        2.84797490        0.75242531
 C           -3.12108821       -0.25858997       -0.70232795
 C           -2.43702123       -0.19304700       -1.92281026
 C           -2.01101481        1.03878759       -2.42335300
 C           -2.16870439        2.24499784       -1.62947251
 C           -3.45370352        0.91566247       -0.02469069
 C           -2.87484087        2.18307263       -0.43681100




