%chk=001271.chk
%mem=8GB
%Nproc=32
#p B3LYP/6-31G* opt pop=NPA

Template file

0 1
 C            3.91462196       -1.34537439        1.05872136
 C            3.94258062       -0.00339160        1.58693723
 C            4.19291070        0.88517692        0.46263788
 C            4.10978681       -1.24033148       -0.38144033
 C            3.84459004        0.13998301       -0.72823120
 C            3.30323925       -2.27010921       -0.99325623
 C            2.72003131       -2.14018449        1.25475505
 C            2.62740553       -2.97643495        0.08278411
 C            1.54813348       -1.54412590        1.73270852
 C            2.75744873        0.50020218        2.24865126
 C            1.55787880       -0.20775492        2.15587277
 C            3.48445341        2.11093684        0.73294322
 C            2.74235451        1.91877300        1.97232941
 C            2.52381733        2.58087954       -0.24166320
 C            2.67093352        0.46007048       -1.42273108
 C            2.08523309        1.73016111       -1.26132225
 C            2.27949189       -1.87814257       -1.94099206
 C            2.01911577       -0.53052214       -2.17613700
 C            1.30672827       -3.30937084       -0.38941051
 C            1.15822770       -2.77805695       -1.73485584
 C            0.31825046       -2.16542432        1.47216753
 C            0.23475186       -3.15014123        0.46867551
 C           -0.85673798       -1.58839388        1.97616762
 C            0.34686843        0.48034506        2.27653578
 C           -0.84142553       -0.24336103        2.37500314
 C            1.46116978        2.57029453        1.79423756
 C            1.53062710        3.28813078        0.53580414
 C            0.29348737        1.87047820        2.07664402
 C            0.33842352        3.61092701       -0.08376740
 C            0.87209924        2.03238867       -1.89101365
 C            0.10944554        3.10680691       -1.42709544
 C            0.84694263       -0.22272142       -2.85210093
 C            0.29250585        1.11104043       -2.75736313
 C           -0.11871784       -2.38553709       -2.14683797
 C           -0.25926452       -1.17511653       -2.83062041
 C           -0.99730873       -3.40676658       -0.10382009
 C           -1.21677403       -2.90369371       -1.45148252
 C           -2.06836936       -2.26263179        1.79706082
 C           -2.18687095       -3.15777417        0.67094070
 C           -3.32334842       -1.54230837        1.85745310
 C           -2.03083450        0.46815691        2.53828123
 C           -3.30644015       -0.15687093        2.26093005
 C           -0.91146673        2.45667449        1.68804484
 C           -0.89755076        3.38797867        0.64689023
 C           -2.10290076        1.82013721        2.02035032
 C           -1.33023612        3.10601993       -1.63395842
 C           -1.95527528        3.35558775       -0.34471033
 C           -1.15829170        0.99184003       -2.83698665
 C           -1.49479295       -0.41286622       -2.71034772
 C           -1.95713109        1.93478198       -2.21496674
 C           -2.46829382       -2.16376220       -1.42175697
 C           -3.17468397       -2.58651378       -0.22838220
 C           -3.91312732       -1.60288129        0.52569811
 C           -2.46871798       -0.82434149       -1.80381185
 C           -3.93282818        0.60969395        1.19680569
 C           -3.23120632        1.87300838        1.09535546
 C           -3.02926046        2.40160866       -0.17058761
 C           -3.00518225        1.49131006       -1.30990356
 C           -3.96959500       -0.24575224        0.02652523
 C           -3.22692180        0.12726500       -1.09835861




