%chk=000732.chk
%mem=8GB
%Nproc=32
#p B3LYP/6-31G* opt pop=NPA

Template file

0 1
 C            4.12356396        1.69513691       -0.53581984
 C            4.34794599        0.28190386       -0.30791293
 C            3.92818071       -0.02973023        1.05063058
 C            3.50172685        2.23519847        0.65837515
 C            3.20900585        1.12835204        1.55228281
 C            2.39536923        3.06080403        0.22621781
 C            3.15565291        1.81342163       -1.61324926
 C            2.10688158        2.69505656       -1.15329591
 C            3.72592338       -0.44044103       -1.40396874
 C            2.78728503        0.47634510       -2.03097531
 C            3.31417528       -1.73966737       -1.16364785
 C            3.41393043       -1.29247324        1.29485166
 C            3.41391940       -2.24497476        0.19796249
 C            2.12290726       -1.40675793        1.95753595
 C            1.90418693        0.98926951        2.03266619
 C            1.31571559       -0.27923383        2.08705164
 C            1.31532235        3.18058692        1.08654394
 C            1.09519810        2.12095810        2.06733586
 C            0.01825317        3.46825228        0.50670288
 C            0.78857825        2.40284579       -1.48110803
 C           -0.19834569        3.13490649       -0.83048195
 C            1.43464629        0.13644114       -2.09152803
 C            0.45877349        1.13090216       -1.97793166
 C            2.02139161       -2.16552576       -1.67068492
 C            1.06182790       -1.20658236       -2.01418749
 C            2.30567396       -3.15284529        0.40809933
 C            1.52967774       -2.66328647        1.53728117
 C            1.62574656       -3.30679011       -0.86507856
 C            0.14753715       -2.76901313        1.45627248
 C           -0.07968820       -0.42174684        2.03289044
 C           -0.64297025       -1.69925345        1.89690713
 C           -0.33962504        1.97019861        2.23181481
 C           -0.95921634        3.05945104        1.49826982
 C           -0.90951786        0.70280901        2.16571167
 C           -2.27437948        2.92204302        1.09165494
 C           -1.50523395        2.99723641       -1.27072257
 C           -2.56988146        3.19054285       -0.30434628
 C           -0.88834972        0.78621460       -2.11115676
 C           -1.83291049        1.80956818       -2.03951818
 C           -0.29324066       -1.55920179       -1.99098255
 C           -1.27868266       -0.55623770       -1.95983605
 C            0.28393248       -3.62677314       -0.82214616
 C           -0.35652647       -3.62712758        0.47807085
 C           -0.62167353       -2.87666973       -1.66732766
 C           -1.77679568       -3.64853172        0.21152189
 C           -1.94176559       -3.17978917       -1.16175903
 C           -2.03031162       -1.84104857        1.90050981
 C           -2.63878998       -2.85026155        1.05296933
 C           -2.28532880        0.59957003        1.93088987
 C           -2.98912549        1.70824239        1.44913915
 C           -2.87042012       -0.65971247        1.81872966
 C           -3.68105523        2.34919869       -0.69982291
 C           -3.21619887        1.48624832       -1.77310294
 C           -4.00012530        1.49652906        0.42942824
 C           -2.62393352       -0.88530819       -1.68075138
 C           -2.92852020       -2.13109819       -1.14218739
 C           -3.55315886       -2.16315897        0.16628499
 C           -3.87040315       -0.89089569        0.77614985
 C           -3.53637942        0.12972980       -1.40387727
 C           -4.16037577        0.15617324       -0.08334476




