%chk=000460.chk
%mem=8GB
%Nproc=32
#p B3LYP/6-31G* opt pop=NPA

Template file

0 1
 C            4.71536509       -0.78555923        0.39995074
 C            4.44489253        0.50596721        0.99904309
 C            4.42080971        1.46317026       -0.08524490
 C            4.36532686       -0.68789555       -1.00988795
 C            4.22001617        0.71325456       -1.32068169
 C            3.23657226       -1.57020369       -1.23564668
 C            3.80840321       -1.74375986        1.00008394
 C            3.16768406       -2.45463210       -0.08467754
 C            3.26502247        0.36998060        1.84471782
 C            2.94838825       -1.04330595        1.94035435
 C            2.22098530        1.28533638        1.73524917
 C            3.41524468        2.50125917       -0.04928168
 C            2.37982288        2.44048379        0.96800266
 C            2.97304156        1.17009323       -1.90201465
 C            2.72768408        2.47207598       -1.32786421
 C            2.04195472       -1.07592425       -1.77831036
 C            1.89074888        0.29505518       -2.03467034
 C            0.90147458       -1.88187712       -1.69113770
 C            1.94814054       -3.03854117        0.18796323
 C            0.93547022       -2.98747319       -0.84106072
 C            1.61308910       -1.43645343        2.01261551
 C            1.26052995       -2.64021880        1.40832939
 C            0.92861116        0.89069936        2.08219790
 C            0.61966048       -0.47193389        2.20590090
 C           -0.10788903        1.81363342        1.94006340
 C            1.20382912        3.02823609        0.35702285
 C            1.35468714        2.84020562       -1.07117731
 C           -0.04257608        2.73006781        0.88926993
 C            0.60207319        0.83062464       -2.15044487
 C            0.34414117        2.13839805       -1.70620274
 C           -0.34165110       -1.38785329       -2.10400548
 C           -0.47524480       -0.02650280       -2.39621238
 C           -1.48092443       -2.17579273       -1.89754095
 C           -0.28130944       -3.39397868       -0.17789478
 C           -0.14374953       -2.94506765        1.20329074
 C           -1.47800840       -3.15932041       -0.82546286
 C           -0.72275494       -0.86943012        2.27726737
 C           -1.11515004       -2.10070708        1.73383904
 C           -1.35794415        1.48752619        2.45455177
 C           -1.68624170        0.08191366        2.61256708
 C           -2.52799462        2.15862251        1.90983664
 C           -1.13880510        2.81756060        0.03112831
 C           -0.95055681        2.44744738       -1.30960872
 C           -2.40469881        2.78462802        0.60818047
 C           -1.74411830        0.53441058       -2.56598577
 C           -1.98027689        1.85862069       -2.02691085
 C           -2.80506329       -1.57788328       -1.93243027
 C           -2.93927521       -0.25657846       -2.32397825
 C           -2.64023358       -2.89743203       -0.00161782
 C           -2.42755298       -2.28321120        1.29684846
 C           -3.53049406       -2.04128744       -0.75934340
 C           -3.06837077       -0.10386079        2.19689810
 C           -3.61077346        1.19392593        1.83824996
 C           -3.40128346       -1.21779925        1.44057272
 C           -4.08857699       -1.06388034        0.15943128
 C           -3.55679478        2.39394795       -0.18143274
 C           -3.33926584        1.92155861       -1.53090808
 C           -3.90862462        0.59047037       -1.64016985
 C           -4.26440138        1.35536867        0.55177063
 C           -4.39306481        0.20382126       -0.32339188




