%chk=000915.chk
%mem=8GB
%Nproc=32
#p B3LYP/6-31G* opt pop=NPA

Template file

0 1
 C            3.17279980        2.66527738       -0.85323554
 C            3.64527602        1.83658728        0.24093872
 C            3.76618412        0.47678799       -0.24901155
 C            2.84571133        1.78914449       -1.96500661
 C            3.25698600        0.44850265       -1.61374493
 C            1.45826442        2.00427817       -2.31446043
 C            1.94279101        3.30179709       -0.42225557
 C            0.91732383        2.99795007       -1.40253831
 C            2.79851190        2.08255653        1.39045078
 C            1.69399596        2.92358101        0.95618954
 C            2.53745800        1.02759509        2.24808057
 C            3.45212105       -0.58449909        0.59780539
 C            2.97978801       -0.31584462        1.88960689
 C            3.18668472       -1.81866406        0.00866973
 C            2.45811635       -0.62291616       -1.99730517
 C            2.67148755       -1.83932778       -1.35094296
 C            0.66539969        0.90459271       -2.62748383
 C            1.22831865       -0.38326374       -2.62799170
 C           -0.72240745        1.05659512       -2.55017966
 C           -0.38472745        2.81983723       -0.95399064
 C           -1.25273368        2.07141505       -1.74726779
 C            0.38851241        2.59049889        1.31023331
 C           -0.63562481        2.90438338        0.41866880
 C            1.21525387        0.90818783        2.83570688
 C            0.15104993        1.63841498        2.30786364
 C            2.09133542       -1.25462262        2.56615812
 C            1.01928264       -0.48764133        3.18367506
 C            2.49847236       -2.85011641        0.76228557
 C            1.81541459       -2.48630456        1.98682383
 C            1.68664170       -2.90530462       -1.44624485
 C            1.53110003       -3.48053056       -0.12139241
 C            0.43442834       -1.47391087       -2.97709854
 C            0.55087439       -2.70252455       -2.21340682
 C           -1.55005819        0.03817808       -3.00859150
 C           -0.98001472       -1.27406259       -3.23456682
 C           -2.83271868       -0.17320150       -2.36613572
 C           -2.60753419        2.06655576       -1.42000889
 C           -3.40661340        0.87467610       -1.66635525
 C           -1.94613559        2.80070533        0.86267625
 C           -2.99148692        2.59460091       -0.12379614
 C           -1.15954735        1.21417996        2.55406961
 C           -2.21741098        1.92568778        1.99030047
 C           -0.27117397       -0.99654263        3.20533559
 C           -1.39008286       -0.09277140        2.99353835
 C            0.43756425       -2.94361696        1.87823720
 C            0.22856008       -3.41294132        0.51957765
 C           -0.57580884       -2.23729222        2.50452387
 C           -0.74997117       -2.94073321       -1.60887156
 C           -1.71643761       -2.21519753       -2.39938864
 C           -2.75237501       -1.47250190       -1.71835447
 C           -0.86273875       -2.95385013       -0.21988874
 C           -2.45681190       -0.87765901        2.38888002
 C           -1.82917112       -2.04194346        1.79868118
 C           -2.85764104       -1.54422801       -0.32995030
 C           -1.87892183       -2.22162111        0.41593045
 C           -4.10586781        0.55999410       -0.43363508
 C           -3.98290628        1.70421621        0.45051958
 C           -3.46282977        1.22694964        1.71824366
 C           -3.70136042       -0.62724368        0.30257753
 C           -3.44459663       -0.22284922        1.67685219




