%chk=001206.chk
%mem=8GB
%Nproc=32
#p B3LYP/6-31G* opt pop=NPA

Template file

0 1
 C            4.46441370       -0.46204960       -0.26693745
 C            4.19256538       -1.19903997        0.95003328
 C            3.33397887       -2.32241569        0.60393700
 C            3.90316614       -1.21878371       -1.37524785
 C            3.01797597       -2.21692853       -0.80976088
 C            3.36047858       -0.26969748       -2.32287512
 C            3.98262293        0.90334960       -0.39455050
 C            3.56088573        1.06106791       -1.77550429
 C            3.21435982        1.48394098        0.61987565
 C            3.57542855       -0.50021190        2.05696244
 C            3.06291254        0.84482866        1.85266309
 C            2.23367539       -2.35885090        1.55655076
 C            2.47190462       -1.31689543        2.53363747
 C            0.93847042       -2.52781064        1.07400310
 C            1.67668414       -2.25366305       -1.18260227
 C            0.77068220       -2.80666564       -0.27952555
 C            1.96287005       -0.37687114       -2.69135932
 C            1.18450633       -1.41213958       -2.19289740
 C            2.36676065        1.83618333       -2.05201769
 C            1.39745398        0.95646467       -2.69104947
 C            2.34668534        2.52670402        0.29993914
 C            1.91853050        2.71561724       -1.08202295
 C            1.19343190        2.77936273        1.15204682
 C            1.78561145        0.92769526        2.54794760
 C            1.37557365       -0.42773651        2.86250703
 C            0.82077399        1.82475570        2.09609233
 C           -0.13097060       -1.96094403        1.77553252
 C            0.08232731       -0.80255574        2.53294562
 C           -1.43435603       -2.27737586        1.37752260
 C           -0.50598562       -3.09082738       -0.73557140
 C           -1.60748274       -3.01690736        0.20462526
 C           -0.19574662       -1.31024406       -2.34359089
 C           -0.94415958       -2.40294939       -1.93165340
 C            0.04144093        1.10481140       -2.39342387
 C           -0.78176571       -0.03191315       -2.35582554
 C            0.50941744        3.05160662       -1.05403061
 C            0.17806524        3.39724070        0.31828843
 C           -0.39307800        2.29252107       -1.79850853
 C           -1.14812238        3.31918958        0.70980734
 C           -0.53437541        1.50300039        2.24522326
 C           -0.89708983        0.18269636        2.54120805
 C           -1.49536942        2.40449915        1.78532034
 C           -2.49633729       -1.53968821        1.90929804
 C           -2.22269684       -0.22320403        2.45640298
 C           -3.77454809       -1.47161192        1.21757849
 C           -2.80675873       -2.85903694       -0.60202649
 C           -2.38400962       -2.30290174       -1.87825895
 C           -3.89293132       -2.04197974       -0.10667326
 C           -2.16172609        0.12227581       -2.14449989
 C           -2.98331836       -0.99492000       -2.00076120
 C           -4.07891326       -0.94645634       -1.04685310
 C           -1.74882488        2.47382911       -1.55639618
 C           -2.14458322        3.14831270       -0.33064148
 C           -2.66244280        1.36548774       -1.76330221
 C           -2.86326927        1.96379763        1.56213614
 C           -3.23939335        0.69151052        1.96527531
 C           -4.15489935       -0.07212297        1.12863024
 C           -4.28216706        0.26941031       -0.28175820
 C           -3.26122852        2.42217242        0.24149131
 C           -3.69710374        1.44306706       -0.73735572




