%chk=001486.chk
%mem=8GB
%Nproc=32
#p B3LYP/6-31G* opt pop=NPA

Template file

0 1
 C           -3.93884704       -1.63041376        0.43082728
 C           -3.17404471       -2.50448594       -0.43326258
 C           -2.18139779       -3.16369109        0.39556037
 C           -3.23489048       -1.55012232        1.70412576
 C           -2.06308627       -2.40736296        1.61930912
 C           -3.04676800       -0.14455733        2.01788469
 C           -4.19107582       -0.27711862       -0.01659896
 C           -3.82785477        0.61945055        1.06843612
 C           -3.51166675        0.20848508       -1.20547030
 C           -2.47062063       -1.93476693       -1.57345998
 C           -2.50640611       -0.56204875       -1.79576626
 C           -0.99313307       -3.32126336       -0.40598757
 C           -1.20396714       -2.62873398       -1.66930749
 C            0.24843034       -3.17721925        0.19436271
 C           -0.81826182       -1.87878079        1.95250014
 C            0.34717732       -2.39681874        1.36286588
 C           -1.77027546        0.30175700        2.33494323
 C           -0.76993320       -0.63971396        2.58599192
 C           -1.41868929        1.62916159        2.06485130
 C           -3.22205324        1.79476058        0.47018269
 C           -3.27655488        1.61955504       -0.97582973
 C           -2.06689445        2.32866963        1.03905744
 C           -2.33302916        2.26672135       -1.75655933
 C           -1.40122244        0.07111498       -2.37371254
 C           -1.43136668        1.45674377       -2.56058389
 C           -0.10888354       -1.99271117       -2.24888124
 C           -0.21191295       -0.63984584       -2.60399747
 C            1.31910358       -3.20471278       -0.68324927
 C            1.14781720       -2.53257956       -1.96033072
 C            2.64181400       -2.91698652       -0.19030044
 C            1.59912520       -1.91227543        1.78769812
 C            2.75739701       -2.23606105        1.07818379
 C            0.42746175       -0.22099489        3.14040564
 C            1.65631077       -0.86030166        2.70685732
 C           -0.21548009        2.11856411        2.56662998
 C            0.67754675        1.20283339        3.25460720
 C            0.60423227        2.97733404        1.72828770
 C           -1.35762460        3.27696722        0.30322770
 C           -1.53738815        3.31115384       -1.13715843
 C            0.05436647        3.49502525        0.57000161
 C           -0.18837740        2.19745805       -2.70097083
 C           -0.22056712        3.29261874       -1.74912752
 C            0.76892964        3.32207114       -0.68376637
 C            0.93252503        0.05233323       -3.00536580
 C            0.99249629        1.49266583       -2.84871409
 C            2.35657601       -1.77204773       -2.22186784
 C            3.32554379       -2.11650465       -1.19433144
 C            2.24502855       -0.45898001       -2.65228015
 C            3.79050907       -1.22737312        0.92115454
 C            4.02964048       -1.05478872       -0.50202321
 C            2.66835138        0.17972759        2.55067177
 C            2.02581404        1.45761091        2.77921291
 C            1.92962217        2.38812706        1.67043604
 C            3.56433242        0.08147749        1.49806679
 C            1.85371665        2.44778897       -0.74592404
 C            2.09729999        1.77201049       -1.94325902
 C            2.96253675        0.60804541       -1.95874357
 C            3.72964478        0.32525589       -0.83744559
 C            2.47673015        2.02954175        0.43743103
 C            3.46219320        1.03823091        0.40050489




