%chk=001121.chk
%mem=8GB
%Nproc=32
#p B3LYP/6-31G* opt pop=NPA

Template file

0 1
 C            4.44155212       -0.09590178        0.12857972
 C            4.01144260       -1.20982072        0.95455802
 C            3.51041482       -2.23870794        0.06219296
 C            4.10430900       -0.41400556       -1.25314174
 C            3.30715627       -1.62151395       -1.23432282
 C            3.54327686        0.77099402       -1.85789751
 C            3.92797721        1.23261451        0.40716109
 C            3.59685929        1.83535456       -0.86804207
 C            3.07617846        1.43389529        1.48920878
 C            2.99989795       -0.99021365        1.97289812
 C            2.59812811        0.30218278        2.27800949
 C            2.36638955       -2.86197958        0.69788749
 C            1.99421299       -2.03235578        1.83400720
 C            1.34900459       -3.31631104       -0.12474156
 C            2.01758199       -1.62601303       -1.76975873
 C            1.20756803       -2.70806808       -1.44382893
 C            2.18247227        0.71822741       -2.36116087
 C            1.41203507       -0.42179304       -2.16431202
 C            2.36572182        2.59046368       -0.98684063
 C            1.59249717        2.00470013       -2.07322476
 C            1.98224899        2.39207283        1.38296952
 C            1.68634159        3.00072199        0.15877444
 C            1.20647438        0.54764159        2.60840021
 C            0.89371185        1.90979166        2.22631960
 C            0.64295794       -1.73772569        2.03544459
 C            0.25345917       -0.44009040        2.39566338
 C            0.01290105       -3.40792906        0.42721169
 C           -0.31409167       -2.62499381        1.53341068
 C           -0.20893253       -2.65630268       -1.74684783
 C           -0.88359280       -3.42454560       -0.71285555
 C            0.01547691       -0.30055689       -2.16120197
 C           -0.77008001       -1.45700575       -2.17009622
 C            0.21139626        2.12526400       -2.01331925
 C           -0.58688187        0.97326410       -2.11666620
 C            0.40633709        3.51195249       -0.02655096
 C           -0.26256533        3.20287435       -1.27773624
 C           -0.41357403        2.23592998        1.88533169
 C           -0.58824212        3.30236256        1.00756224
 C           -1.08585199       -0.06535318        2.29705705
 C           -1.42188957        1.26731408        2.01720575
 C           -1.65858955       -2.38944818        1.80174661
 C           -2.05656956       -1.06221194        2.23225013
 C           -2.23337208       -3.20114418       -0.49458318
 C           -2.65645236       -2.86646992        0.85528900
 C           -2.15530634       -1.35423646       -2.17865623
 C           -2.93249565       -2.31175515       -1.40552598
 C           -1.98301258        1.08833446       -1.99387334
 C           -2.77605352       -0.05590749       -2.02407744
 C           -1.68172238        3.33526596       -1.05154813
 C           -1.87584106        3.52326920        0.38018543
 C           -2.54338602        2.25228978       -1.46360696
 C           -2.73845444        1.58639274        1.67592075
 C           -2.99118978        2.69511843        0.77988619
 C           -3.55645839        2.12953425       -0.43271759
 C           -3.36149856       -0.77337386        1.65809733
 C           -3.70624476       -1.86736001        0.76482413
 C           -3.92102668       -1.57485666       -0.63920150
 C           -3.86854421       -0.19106884       -1.06493575
 C           -3.64726165        0.52912359        1.27275163
 C           -4.03679994        0.80206949       -0.10953291




