%chk=001498.chk
%mem=8GB
%Nproc=32
#p B3LYP/6-31G* opt pop=NPA

Template file

0 1
 C            3.59573594       -2.08955593        0.61322517
 C            3.89325038       -1.53912875       -0.69483864
 C            4.22899808       -0.13788778       -0.52099327
 C            3.59842357       -0.99510211        1.57015971
 C            4.06478779        0.19653699        0.88753649
 C            2.29679139       -0.96454745        2.21450136
 C            2.35742424       -2.82517524        0.78672302
 C            1.60843221       -2.19342990        1.86176248
 C            1.66379004       -3.25053085       -0.33842615
 C            2.88239833       -1.62880809       -1.73545839
 C            1.87224429       -2.57016021       -1.61489653
 C            3.49057412        0.62359073       -1.51859825
 C            2.52259307       -0.27485476       -2.12504595
 C            3.09635084        1.91362826       -1.20584261
 C            3.48177716        1.41356525        1.21130734
 C            3.30866695        2.38911305        0.15207445
 C            1.58286154        0.23246491        2.24926746
 C            2.25692912        1.42375849        2.00624954
 C            0.18766572        0.19686319        2.17847742
 C            0.22074740       -2.18537128        1.79831500
 C           -0.45614698       -1.04099782        2.22081313
 C            0.23664188       -3.48961299       -0.21567209
 C           -0.42232723       -3.08632827        0.94387559
 C            0.55832107       -2.23896967       -2.13098041
 C           -0.35909469       -3.16445775       -1.50051206
 C            1.17387929        0.09231632       -2.18860986
 C            0.19071896       -0.89894580       -2.25803054
 C            1.77535630        2.36282635       -1.61209209
 C            0.80793309        1.42799407       -1.99982800
 C            2.17648416        3.21979453        0.50673396
 C            1.50322852        2.60721234        1.64160517
 C            1.40318656        3.43279796       -0.70119151
 C           -0.55083563        1.37036698        1.94162710
 C            0.11272810        2.56560059        1.61824442
 C           -1.95520654        1.31077135        1.87085564
 C           -1.83159868       -1.09203309        2.37088796
 C           -2.60974250        0.10168215        2.10986171
 C           -1.81317321       -3.13317892        0.94267146
 C           -2.54319322       -2.22307500        1.80690458
 C           -1.71153661       -2.87509691       -1.53508445
 C           -2.49195415       -3.15907313       -0.34323325
 C           -1.15933375       -0.55309792       -2.16132145
 C           -2.11926705       -1.56119439       -2.00570895
 C           -0.54446256        1.78138963       -1.92889427
 C           -1.53086663        0.78637984       -2.01276156
 C            0.05784242        3.69721047       -0.54225504
 C           -0.51446695        3.47895560        0.77502071
 C           -0.86826182        3.05321158       -1.44575203
 C           -2.66248194        2.31337302        1.20477648
 C           -1.94363117        3.40043975        0.58343903
 C           -2.16704706        3.29327140       -0.85355765
 C           -2.87032410        1.09196479       -1.74810461
 C           -3.69033182        1.92859356        0.25634999
 C           -3.20700835        2.31673348       -1.05791506
 C           -3.73744870       -0.27853054        1.26441746
 C           -3.68261485       -1.71257961        1.06354477
 C           -3.58826515       -2.20981751       -0.29538555
 C           -3.39393481       -1.25533491       -1.37556438
 C           -4.05796330        0.52965579        0.18183813
 C           -3.72424305        0.07481416       -1.16651214




