%chk=001064.chk
%mem=8GB
%Nproc=32
#p B3LYP/6-31G* opt pop=NPA

Template file

0 1
 C            1.92000088       -3.84950568        0.14914906
 C            2.90459039       -2.86030921        0.53234720
 C            2.37717946       -2.09516782        1.65141543
 C            0.79459384       -3.72241652        1.05577131
 C            1.04693171       -2.60587897        1.94056242
 C           -0.40259409       -3.67645635        0.24771381
 C            1.45147638       -3.49147652       -1.17983585
 C            0.01419224       -3.45368538       -1.12962925
 C            3.26170478       -2.13055368       -0.66771264
 C            2.14344419       -2.28838549       -1.58452107
 C            3.76457033       -0.85891060       -0.49316989
 C            2.60569864       -0.71853398        1.65298319
 C            3.62726403       -0.25931721        0.82436415
 C            1.55687439        0.15088435        1.99873446
 C            0.01859316       -1.70322876        2.15750398
 C            0.34532071       -0.38066777        2.45004718
 C           -1.48902999       -2.93579881        0.70472516
 C           -1.28567564       -2.02949726        1.75576972
 C           -2.46846872       -2.64796097       -0.24410036
 C           -0.65906703       -2.47163546       -1.83885301
 C           -2.02615171       -2.44372201       -1.61313123
 C            1.39809630       -1.16128604       -1.95642098
 C            0.00571333       -1.25929344       -2.12112651
 C            3.31900951        0.16998076       -1.40267814
 C            2.01073301        0.09739036       -1.89510909
 C            3.80649038        1.16206376        0.63806027
 C            3.79917069        1.39499491       -0.80170540
 C            1.66644953        1.53611876        1.77287751
 C            2.83221575        2.06114018        1.21133626
 C            0.53421166        2.35797787        1.88447741
 C           -0.64714217        0.47466141        2.90396168
 C           -0.60999069        1.86348029        2.49629856
 C           -2.33477236       -1.20176677        2.14957010
 C           -2.02891934        0.03389468        2.84741190
 C           -3.49524303       -1.66282215        0.04196182
 C           -3.41443337       -0.92404503        1.21632504
 C           -2.80914907       -1.38217565       -2.18750782
 C           -3.82044843       -1.00289446       -1.21182217
 C           -0.73815936       -0.09338014       -2.36564369
 C           -2.11333738       -0.18466455       -2.59435043
 C            1.23580531        1.26283490       -2.00725165
 C           -0.15689866        1.16352301       -2.14209310
 C            3.05899925        2.60654056       -1.03598052
 C            2.72821766        3.15676805        0.26903134
 C            1.81520797        2.51581611       -1.76994074
 C            0.37147347        3.43231115        1.01287622
 C            1.45251031        3.81934563        0.12841215
 C            0.99005280        3.57014903       -1.22919364
 C           -0.97130092        2.27931804       -1.86127835
 C           -0.84470127        3.50228424        0.22572844
 C           -0.42996260        3.33917952       -1.15811856
 C           -1.90902714        2.18720478        1.91836468
 C           -2.81475740        1.09959288        2.24455805
 C           -3.62764728        0.51877733        1.19502132
 C           -1.96619970        2.79581261        0.66192242
 C           -3.92872365        0.44054299       -1.24431181
 C           -2.96001997        0.92405683       -2.21661833
 C           -2.32623315        2.08959777       -1.65910640
 C           -3.73959940        1.19227519       -0.01520094
 C           -2.83913855        2.29691875       -0.31287068




