%chk=001412.chk
%mem=8GB
%Nproc=32
#p B3LYP/6-31G* opt pop=NPA

Template file

0 1
 C           -4.28366174       -0.73414994       -0.54063890
 C           -4.19607622        0.26528625        0.50411414
 C           -3.87309039        1.51860361       -0.14444118
 C           -3.66451655       -0.17099212       -1.73467833
 C           -3.30306914        1.19844192       -1.43987774
 C           -2.62647729       -1.08088594       -2.15980418
 C           -3.67324245       -2.02430167       -0.30203807
 C           -2.82257710       -2.32355837       -1.44159023
 C           -2.84856154       -2.19797965        0.87865049
 C           -3.23267202        0.08075931        1.57912713
 C           -2.47365051       -1.08270469        1.63451901
 C           -3.05620618        2.28299558        0.77304296
 C           -2.57737393        1.35717668        1.79797850
 C           -2.13996897        3.15874200        0.21794690
 C           -2.01353180        1.65183170       -1.71704581
 C           -1.61478450        2.83826929       -1.10699477
 C           -1.32787044       -0.61402616       -2.30274677
 C           -1.03134506        0.74974008       -2.15540865
 C           -0.29256037       -1.54076515       -2.26257384
 C           -1.64683404       -3.01335352       -0.93014752
 C           -1.83306613       -3.16343908        0.50405124
 C           -0.38792726       -2.63935231       -1.39819249
 C           -0.70555577       -3.26094396        1.29952582
 C           -1.19639310       -1.04043738        2.19534405
 C           -0.50111978       -2.24124846        2.31248371
 C           -1.22945857        1.38718707        2.16889816
 C           -0.51499961        0.18651979        2.29022019
 C           -1.01396568        3.54281255        1.03730123
 C           -0.53463969        2.58609441        2.01674173
 C           -0.21852596        3.22690514       -1.13822024
 C            0.08522969        3.83800240        0.14290066
 C            0.30214922        1.17142110       -2.28644917
 C            0.72378411        2.37247291       -1.70212232
 C            0.94389028       -1.15240691       -2.74858388
 C            1.25301154        0.26651756       -2.76668969
 C            2.12166593       -1.86922209       -2.30641958
 C            0.73712930       -3.04928079       -0.67382047
 C            0.58033110       -3.44672180        0.65354363
 C            2.00841790       -2.71376732       -1.13426633
 C            0.91177542       -2.22637341        2.61930774
 C            1.58141847       -3.06054060        1.63036115
 C            0.88408268        0.21989409        2.44035934
 C            1.59820831       -0.95675931        2.65389981
 C            0.91285197        2.57389404        1.92640985
 C            1.30256502        3.43503952        0.81185733
 C            1.59786218        1.38208299        2.13561306
 C            2.05957728        2.53046802       -1.31975512
 C            2.36248953        3.03441844        0.01477968
 C            2.65341291        0.41782688       -2.40396253
 C            3.17444965       -0.89862528       -2.06848661
 C            3.04017737        1.50921370       -1.64255364
 C            3.03344087       -2.29774638       -0.18448419
 C            2.76403753       -2.35117548        1.17847649
 C            2.87046674       -1.14099161        1.97831648
 C            3.71193998       -1.13640272       -0.73800850
 C            2.91502900        1.28230154        1.68311759
 C            3.34282033        2.14336753        0.59813699
 C            3.86054929        1.29468208       -0.45985669
 C            3.50416240       -0.02554564        1.45238243
 C            3.99679577       -0.04927046        0.08044995




