%chk=000297.chk
%mem=8GB
%Nproc=32
#p B3LYP/6-31G* opt pop=NPA

Template file

0 1
 C            4.95890124        0.22513086        0.43536760
 C            4.53037336       -1.03271980       -0.15426711
 C            4.12391316       -0.76725632       -1.51169944
 C            4.59827305        1.28988211       -0.48618477
 C            4.07306536        0.67718560       -1.68899662
 C            3.76369608        2.22725585        0.23287178
 C            4.20162920        0.42600850        1.66080981
 C            3.57791134        1.72266307        1.58791773
 C            3.56189660       -1.63776488        0.73713102
 C            3.34774928       -0.72503813        1.85062723
 C            2.45102695       -2.30673743        0.21863021
 C            2.85148458       -1.29862522       -1.95323048
 C            2.13868117       -2.19023423       -1.14969015
 C            2.72878221        1.01440183       -2.13952326
 C            2.12071224       -0.21715255       -2.59391170
 C            2.44459593        2.54819438       -0.28403362
 C            1.94248009        1.91725010       -1.42846029
 C            2.16145561        1.82493108        1.89544959
 C            1.57689777        2.66326277        0.87244088
 C            2.04510661       -0.56495068        2.32263235
 C            1.43740535        0.70571370        2.31283240
 C            1.43878865       -2.60201800        1.13142151
 C            1.23761329       -1.69154704        2.24687767
 C            0.13459709       -3.04432147        0.67539546
 C            0.85816063       -2.51440246       -1.59438731
 C           -0.13459709       -3.04432147       -0.67539546
 C            0.73487054       -0.30917517       -2.63894321
 C            0.18355497       -1.57047389       -2.47251481
 C            0.55482364        1.86621464       -1.58534966
 C           -0.03626670        0.80283142       -2.28909158
 C            0.21632809        2.56149137        0.65771553
 C           -0.21632809        2.56149137       -0.65771553
 C            0.03626670        0.80283142        2.28909158
 C           -0.55482364        1.86621464        1.58534966
 C           -0.18355497       -1.57047389        2.47251481
 C           -0.85816063       -2.51440246        1.59438731
 C           -0.73487054       -0.30917517        2.63894321
 C           -2.13868117       -2.19023423        1.14969015
 C           -1.43878865       -2.60201800       -1.13142151
 C           -1.23761329       -1.69154704       -2.24687767
 C           -2.45102695       -2.30673743       -0.21863021
 C           -1.43740535        0.70571370       -2.31283240
 C           -2.04510661       -0.56495068       -2.32263235
 C           -1.57689777        2.66326277       -0.87244088
 C           -2.16145561        1.82493108       -1.89544959
 C           -1.94248009        1.91725010        1.42846029
 C           -2.44459593        2.54819438        0.28403362
 C           -2.12071224       -0.21715255        2.59391170
 C           -2.85148458       -1.29862522        1.95323048
 C           -2.72878221        1.01440183        2.13952326
 C           -4.12391316       -0.76725632        1.51169944
 C           -4.07306536        0.67718560        1.68899662
 C           -3.56189660       -1.63776488       -0.73713102
 C           -3.34774928       -0.72503813       -1.85062723
 C           -4.53037336       -1.03271980        0.15426711
 C           -3.57791134        1.72266307       -1.58791773
 C           -3.76369608        2.22725585       -0.23287178
 C           -4.59827305        1.28988211        0.48618477
 C           -4.20162920        0.42600850       -1.66080981
 C           -4.95890124        0.22513086       -0.43536760




