%chk=000587.chk
%mem=8GB
%Nproc=32
#p B3LYP/6-31G* opt pop=NPA

Template file

0 1
 C            4.40329798        0.03848464        1.01511853
 C            3.78791162       -1.19947495        1.46075325
 C            3.59960150       -2.03640346        0.29980356
 C            4.33457075        0.06493356       -0.43634466
 C            3.93551724       -1.24866883       -0.87885245
 C            3.51539423        1.19670954       -0.82119995
 C            3.59586702        1.13713250        1.51649036
 C            3.16868109        1.93216864        0.38742911
 C            2.62510700       -0.85619227        2.25525152
 C            2.56910354        0.58884929        2.37405778
 C            1.42381213       -1.53628683        2.06953444
 C            2.28969910       -2.61700378        0.07524623
 C            1.27340341       -2.44543449        1.00767464
 C            2.82186367       -1.35421926       -1.79942745
 C            1.96183001       -2.42317780       -1.31919545
 C            2.54663353        1.06266391       -1.81869932
 C            2.22704779       -0.20913236       -2.33152181
 C            1.63589168        2.11141683       -1.94387879
 C            1.92114874        2.54408834        0.44377411
 C            1.34250186        2.91261218       -0.76706647
 C            1.31391282        1.18495946        2.36201453
 C            1.09169238        2.30579331        1.54806160
 C            0.27795531       -0.97235886        2.63148752
 C            0.22344694        0.41859674        2.77716203
 C           -0.89557620       -1.71994807        2.60833558
 C           -0.01647878       -2.80836559        0.62178832
 C           -1.01227596       -2.74477878        1.59260058
 C            0.62020835       -2.40433495       -1.68383137
 C           -0.34822747       -2.78023241       -0.74553954
 C            1.03775078       -0.39854548       -3.03413711
 C            0.24897792       -1.58834258       -2.75197029
 C            0.40059868        1.93785279       -2.68469832
 C            0.11606494        0.70343270       -3.24340104
 C           -0.05685866        3.29920936       -0.81760868
 C           -0.64381528        2.68670312       -2.00000131
 C           -0.15006594        2.93720395        1.60185342
 C           -0.78269101        3.36431503        0.36417505
 C           -0.99377477        1.05272863        2.99963853
 C           -1.18610746        2.38333752        2.45610935
 C           -2.18721716       -1.06173652        2.72824421
 C           -2.23144755        0.32093941        2.80608371
 C           -2.40806613       -2.85425660        1.22436106
 C           -3.11122231       -1.73683975        1.83321894
 C           -1.68256400       -2.81169960       -1.15495669
 C           -2.75074102       -2.88408293       -0.17818883
 C           -1.15163727       -1.26088219       -2.96476499
 C           -1.23949778        0.17430512       -3.18943089
 C           -2.11687700       -1.90356023       -2.20090417
 C           -1.94036329        2.18618360       -1.95174531
 C           -2.24988542        0.91145724       -2.58044669
 C           -2.16725136        2.91679567        0.38912061
 C           -2.43480556        2.38149387        1.70895031
 C           -3.02065927        1.05797803        1.83000593
 C           -2.70838485        2.27752502       -0.71935205
 C           -3.73352026       -0.97191111        0.76681323
 C           -3.65932132       -1.77763773       -0.43965732
 C           -3.24841005       -1.14937680       -1.68157819
 C           -3.24470808        0.23738825       -1.76073180
 C           -3.49752196        0.39996378        0.69594284
 C           -3.43951886        1.02766217       -0.55196994




