%chk=000161.chk
%mem=8GB
%Nproc=32
#p B3LYP/6-31G* opt pop=NPA

Template file

0 1
 C            4.23327158        2.00578409        0.19422316
 C            4.71811417        0.71646843        0.64409225
 C            4.51540864       -0.22546053       -0.43960204
 C            3.65083645        1.82938979       -1.12741954
 C            3.72139305        0.42638787       -1.46735888
 C            2.35073031        2.45738953       -1.11078493
 C            3.15564039        2.39886028        1.08154172
 C            2.08272337        2.88997103        0.24658579
 C            3.87546005        0.28198561        1.74749292
 C            2.85623565        1.28536292        1.95963027
 C            3.98436918       -1.43407514        0.14834077
 C            3.44733168       -1.06651575        1.45744761
 C            3.20154781       -2.24019085       -0.66143425
 C            2.57320546       -0.22146531       -1.92795689
 C            2.49315885       -1.60738188       -1.77149202
 C            1.29671175        1.85840333       -1.79130674
 C            1.39838036        0.50930776       -2.17448870
 C            0.02439668        2.37521690       -1.54088579
 C            0.78164646        2.71944624        0.68694182
 C           -0.21877226        2.88813451       -0.26129791
 C            1.52462777        0.88918365        2.06759244
 C            0.53620237        1.81016609        1.72375715
 C            2.14403693       -1.44836482        1.77476598
 C            1.18925661       -0.47084934        2.11425245
 C            2.25280057       -3.10919693       -0.00196027
 C            1.71159042       -2.66650204        1.26886046
 C            1.20854647       -2.27387768       -1.91789002
 C            1.13650566       -3.30276319       -0.90585088
 C            0.23022238       -0.17511995       -2.53465062
 C            0.07331606       -1.51114905       -2.15556190
 C           -1.02804172        1.89603454       -2.31151782
 C           -0.89532199        0.56807256       -2.87621328
 C           -2.40011679        2.06319863       -1.86296282
 C           -1.51377958        2.97602297        0.22465861
 C           -2.64003912        2.64283603       -0.62627138
 C           -0.78977417        1.52023925        2.03577724
 C           -1.75862531        2.38484018        1.52282393
 C           -0.16839244       -0.82098821        2.22175666
 C           -1.13186764        0.19781563        2.35087692
 C            0.30194563       -2.96541896        1.25504397
 C           -0.05926185       -3.36553968       -0.09740171
 C           -0.57753006       -2.13389945        1.92845884
 C           -1.17374800       -1.97385250       -1.70235580
 C           -1.24409346       -2.85405343       -0.61211479
 C           -2.19926754       -0.06673562       -2.83465354
 C           -3.14162990        0.87533633       -2.25225132
 C           -2.32977363       -1.32709271       -2.13164366
 C           -3.92974497        0.16648595       -1.25711951
 C           -3.46840812       -1.21694381       -1.23254188
 C           -3.68856673        2.10745348        0.23147729
 C           -3.16171996        2.04137483        1.58770670
 C           -4.27852345        0.81525889       -0.07499762
 C           -2.47195091       -0.14327522        2.56237151
 C           -3.52873983        0.76413644        2.15042957
 C           -4.34909499        0.06868183        1.16898049
 C           -1.92043803       -2.37607252        1.67227841
 C           -2.28272042       -2.70732357        0.30400014
 C           -3.45973677       -1.93454897       -0.04319604
 C           -2.91084325       -1.46715660        2.19154183
 C           -3.94908986       -1.32343185        1.18147564




