%chk=000321.chk
%mem=8GB
%Nproc=32
#p B3LYP/6-31G* opt pop=NPA

Template file

0 1
 C            4.81062784       -0.52120085       -0.00000000
 C            4.14038215       -1.05473045        1.17424116
 C            3.74935061        0.05916350        2.00376612
 C            4.62158494        0.92029764        0.00000000
 C            3.97624745        1.28112537        1.24473616
 C            3.97624745        1.28112537       -1.24473616
 C            4.14038215       -1.05473045       -1.17424116
 C            3.74935061        0.05916350       -2.00376612
 C            3.10629311       -1.96413115        0.72405612
 C            3.10629311       -1.96413115       -0.72405612
 C            1.86559540       -1.97837906        1.35623168
 C            2.38442763        0.10117145        2.49344776
 C            1.52482975       -0.96823301        2.27355280
 C            2.71652039        2.00777948        1.21331754
 C            1.87338502        1.42975564        2.24476308
 C            2.71652039        2.00777948       -1.21331754
 C            2.12641967        2.37684740        0.00000000
 C            2.38442763        0.10117145       -2.49344776
 C            1.87338502        1.42975564       -2.24476308
 C            1.86559540       -1.97837906       -1.35623168
 C            1.52482975       -0.96823301       -2.27355280
 C            0.83041902       -2.64821011        0.70097660
 C            0.83041902       -2.64821011       -0.70097660
 C           -0.35819111       -2.82661080        1.40064353
 C            0.17474019       -0.76711903        2.55969300
 C           -0.66386013       -1.86662662        2.44013834
 C            0.50146613        1.59217088        2.12083291
 C           -0.35261937        0.53344394        2.45461352
 C            0.75755404        2.65956834        0.00000000
 C            0.05593866        2.53059041        1.20226132
 C            0.50146613        1.59217088       -2.12083291
 C            0.05593866        2.53059041       -1.20226132
 C            0.17474019       -0.76711903       -2.55969300
 C           -0.35261937        0.53344394       -2.45461352
 C           -0.35819111       -2.82661080       -1.40064353
 C           -0.66386013       -1.86662662       -2.44013834
 C           -1.59017385       -3.12466164        0.69293492
 C           -1.59017385       -3.12466164       -0.69293492
 C           -2.09568054       -1.68296538        2.47964023
 C           -2.67915079       -2.48375796        1.41378510
 C           -1.73913613        0.74159143        2.35503662
 C           -2.61937181       -0.34113503        2.36646610
 C           -1.28397489        2.88166223        1.23688582
 C           -2.20844769        1.97448998        1.89680161
 C           -1.28397489        2.88166223       -1.23688582
 C           -1.90126448        3.31149967        0.00000000
 C           -1.73913613        0.74159143       -2.35503662
 C           -2.20844769        1.97448998       -1.89680161
 C           -2.09568054       -1.68296538       -2.47964023
 C           -2.67915079       -2.48375796       -1.41378510
 C           -2.61937181       -0.34113503       -2.36646610
 C           -3.62529269       -1.64457657        0.69518987
 C           -3.72106536       -0.38421366        1.41389722
 C           -3.62529269       -1.64457657       -0.69518987
 C           -3.72106536       -0.38421366       -1.41389722
 C           -3.46785698        2.02330610        1.17004950
 C           -3.27995375        2.86096041        0.00000000
 C           -3.46785698        2.02330610       -1.17004950
 C           -4.06225830        0.77511376        0.72966933
 C           -4.06225830        0.77511376       -0.72966933




