%chk=001125.chk
%mem=8GB
%Nproc=32
#p B3LYP/6-31G* opt pop=NPA

Template file

0 1
 C            4.38364513        0.93819602        0.17674307
 C            3.92708534        0.75863702        1.54333579
 C            3.66974962       -0.65650046        1.74861265
 C            4.46741822       -0.37509799       -0.44213145
 C            3.93622028       -1.34677288        0.49909511
 C            3.88165771       -0.28172595       -1.76654610
 C            3.62913824        1.80506230       -0.71474997
 C            3.38853436        1.07518949       -1.94483903
 C            2.61018235        2.59958945       -0.20309175
 C            2.75821067        1.48971470        1.99540609
 C            2.24837745        2.51210838        1.20772064
 C            2.35730002       -0.79032437        2.36363039
 C            1.83196903        0.54058803        2.59645427
 C            1.48909755       -1.77483108        1.91333860
 C            3.02814847       -2.30399452        0.06217416
 C            1.91431266       -2.66341400        0.92302574
 C            2.81200508       -1.19387996       -2.13066788
 C            2.51216864       -2.26538505       -1.30334783
 C            2.03201898        0.99533637       -2.46386647
 C            1.72357242       -0.40652199       -2.67923695
 C            1.37460337        2.75313509       -0.96022970
 C            1.03858513        1.82459577       -1.94124750
 C            0.83570199        2.82053897        1.30789229
 C            0.35893647        3.17815381       -0.01821984
 C            0.45960929        0.75831921        2.47465890
 C            0.01381811        2.03118450        2.10766518
 C            0.12211425       -1.62583920        2.14373115
 C           -0.40597281       -0.34026205        2.35622312
 C           -0.71183316       -2.66397736        1.74014807
 C            0.92577225       -3.29503274        0.06724942
 C            1.14525090       -2.76119596       -1.26394540
 C           -0.37522302       -3.38324893        0.52670253
 C            0.40891277       -0.81595409       -2.49824438
 C            0.12046343       -2.03708872       -1.87538173
 C           -0.29797350        1.43659042       -2.07136638
 C           -0.58060187        0.15476946       -2.55783081
 C           -0.97959725        2.94021416       -0.30006842
 C           -1.30056122        2.17946035       -1.43135131
 C           -1.35131402        2.25973799        2.00788645
 C           -1.83296378        2.90399958        0.79904299
 C           -1.79262944       -0.12372733        2.34437920
 C           -2.27241068        1.18084516        2.29884017
 C           -2.14450133       -2.47356853        1.73402503
 C           -2.66820900       -1.16048239        2.02684792
 C           -1.45602057       -3.11914732       -0.40510106
 C           -1.20676432       -2.32955105       -1.53035399
 C           -2.62632284       -2.85420430        0.41268884
 C           -1.89252597       -0.27287710       -2.66419102
 C           -2.23561064       -1.54708165       -2.06271026
 C           -2.63942151        1.90013947       -1.71538957
 C           -2.96345102        0.66319985       -2.39713969
 C           -3.21998536        2.53165581        0.62319843
 C           -3.50272899        1.46363962        1.57068587
 C           -3.64789958        2.09477380       -0.68696968
 C           -3.75384850       -0.91956240        1.08884118
 C           -3.57303636       -1.84647129       -0.02174249
 C           -3.47521947       -1.35940667       -1.31857410
 C           -3.97709786       -0.03001200       -1.61767382
 C           -4.15873263        0.38863204        0.84734732
 C           -4.36212347        0.83913249       -0.52138200




