%chk=000001.chk
%mem=8GB
%Nproc=32
#p B3LYP/6-31G* opt pop=NPA

Template file

0 1
 C                 -3.90570900   -1.21036900   -1.59982300
 C                 -4.63885500    0.02782000   -1.98814700
 C                 -3.86701000    1.25828500   -1.70286700
 C                 -4.60824100    1.97846100   -0.62851100
 C                 -3.84537000    2.01380800    0.65901800
 C                 -4.60551100    1.18150400    1.61577500
 C                 -3.85559500   -0.03826900    2.06893100
 C                 -4.57308900   -1.16683500    1.61376000
 C                 -3.88146300   -2.04298000    0.68521200
 C                 -4.63223000   -1.89208600   -0.60575500
 C                 -2.47588200   -1.23932300   -1.60853400
 C                 -1.76864700   -2.05864000   -0.63100400
 C                 -2.49655600   -2.09970000    0.68430700
 C                 -1.76677400   -1.22313400    1.60620600
 C                 -2.44696000   -0.04621800    2.06161300
 C                 -1.73286400    1.18750800    1.68390600
 C                 -2.47264000    1.98290000    0.66447200
 C                 -1.74272500    1.97460000   -0.63764900
 C                 -2.49671400    1.21107500   -1.67529100
 C                 -1.77452300   -0.05524600   -1.98959300
 C                 -0.37253300   -0.05182900   -1.97583100
 C                  0.33713900   -1.22971800   -1.57893500
 C                 -0.37944800   -2.06630000   -0.64140600
 C                  0.37950300   -2.06259100    0.65193300
 C                 -0.33703900   -1.22117600    1.58506000
 C                  0.37275300   -0.04136800    1.97675600
 C                 -0.35822900    1.18961700    1.65916000
 C                  0.37374700    1.97414500    0.63721300
 C                 -0.37393800    1.97038300   -0.64681000
 C                  0.35815300    1.18078600   -1.66458800
 C                  1.73274800    1.17842800   -1.68893900
 C                  2.44690100   -0.05704000   -2.06090000
 C                  1.76688300   -1.23199800   -1.60045600
 C                  2.49667900   -2.10377300   -0.67384200
 C                  1.76880700   -2.05498700    0.64136700
 C                  2.47593000   -1.23073600    1.61455200
 C                  1.77449700   -0.04470300    1.99002300
 C                  2.49684700    1.22013200    1.66974300
 C                  1.74271500    1.97833400    0.62795800
 C                  2.47249400    1.97929200   -0.67415600
 C                  3.84530600    2.00993300   -0.66906700
 C                  4.60532100    1.17329100   -1.62195600
 C                  3.85548600   -0.04883600   -2.06856600
 C                  4.57300700   -1.17520900   -1.60837700
 C                  3.88138400   -2.04636200   -0.67507800
 C                  4.63218800   -1.88866700    0.61499800
 C                  3.90556200   -1.20202100    1.60581900
 C                  4.63892300    0.03813800    1.98743400
 C                  3.86713200    1.26709500    1.69646400
 C                  4.60841300    1.98178400    0.61805100
 C                  5.79051100    1.28468400    0.39641500
 C                  5.81808800    0.80158800   -1.03278900
 C                  5.80476900   -0.65084400   -0.95784600
 C                  5.83285500   -1.08634300    0.37336000
 C                  5.84477200    0.08739800    1.27553300
 C                 -5.84444000    0.08105200   -1.27594700
 C                 -5.79077500    1.28253800   -0.40328100
 C                 -5.81800300    0.80693700    1.02828000
 C                 -5.80474300   -0.64607300    0.96089000
 C                 -5.83300500   -1.08813800   -0.36826300




