%chk=000096.chk
%mem=8GB
%Nproc=32
#p B3LYP/6-31G* opt pop=NPA

Template file

0 1
 C            4.54953517       -1.53437915        0.69154742
 C            4.77212625       -1.02436475       -0.65159681
 C            4.64805947        0.41739646       -0.59810806
 C            4.18095017       -0.41741412        1.54387941
 C            4.37170547        0.79977961        0.78103394
 C            2.86553455       -0.68980922        2.10999119
 C            3.40766250       -2.42195448        0.63641895
 C            2.46161095       -2.00974657        1.66535041
 C            3.70252462       -1.51853779       -1.50500413
 C            2.92573034       -2.46236764       -0.73451044
 C            3.70967098        0.81660383       -1.63727653
 C            3.01074848       -0.37993135       -2.08129533
 C            2.98028133        1.97555785       -1.44219304
 C            3.49681064        1.85117124        1.00098382
 C            3.07128668        2.63111645       -0.14673681
 C            1.91412903        0.32908499        2.13965606
 C            2.31282296        1.62804644        1.82669587
 C            0.55028282        0.00021693        2.11563280
 C            1.11592641       -2.22922753        1.40570814
 C            0.17106478       -1.33133658        1.91327599
 C            1.55077286       -2.47563951       -0.89746519
 C            0.81472123       -2.86360243        0.20732589
 C            1.61260920       -0.39424541       -2.11796578
 C            0.94058265       -1.56975711       -1.77550731
 C            1.58322372        2.00375281       -1.84201977
 C            0.90973842        0.81298679       -2.13530345
 C            1.76801774        3.17718537        0.16195949
 C            1.31650365        2.59495458        1.41381092
 C            0.92365022        2.98667825       -1.00234334
 C           -0.40579421        1.01669949        2.00036301
 C           -0.02686462        2.26484486        1.49396671
 C           -1.76897248        0.69292911        1.97980178
 C           -1.17818727       -1.64681527        1.72000188
 C           -2.15737889       -0.64908377        1.83542872
 C           -0.49913102       -3.19116466       -0.02181436
 C           -1.45509992       -2.80154969        0.98309448
 C           -0.45533469       -1.61602606       -1.86319987
 C           -1.06418061       -2.71924040       -1.26705543
 C           -0.48951149        0.80477603       -2.05385058
 C           -1.17887305       -0.41576722       -1.97400573
 C           -0.42831768        2.81602457       -0.77343825
 C           -0.85796127        2.85192710        0.55058906
 C           -1.12269245        1.98167063       -1.64058967
 C           -2.66712246        1.72255226        1.66701227
 C           -2.21762764        2.77249773        0.77394388
 C           -4.03978594        1.42707335        1.30253091
 C           -3.50180289       -0.97988958        1.60229327
 C           -4.45473692        0.04890189        1.23664043
 C           -2.73669415       -2.96342428        0.33583031
 C           -2.49696624       -2.74518610       -1.08800169
 C           -3.81314700       -2.09322145        0.73080566
 C           -2.58037336       -0.41202271       -1.82351851
 C           -4.87182260       -0.22099291       -0.13750684
 C           -3.25741452       -1.58086980       -1.46271864
 C           -4.33820273       -1.51493855       -0.49215577
 C           -2.50640763        2.02621285       -1.56231855
 C           -3.06314223        2.69422300       -0.39906106
 C           -4.27737701        2.01012140       -0.00991356
 C           -3.26059879        0.80444039       -1.75221218
 C           -4.46676152        0.91307981       -0.93688600




