%chk=000236.chk
%mem=8GB
%Nproc=32
#p B3LYP/6-31G* opt pop=NPA

Template file

0 1
 C            4.47436541       -0.79212969       -1.36312408
 C            4.40645198       -1.73577057       -0.26304148
 C            4.23195484       -0.97729738        0.96441870
 C            4.35960760        0.54643859       -0.80877583
 C            4.32634301        0.43398682        0.63838884
 C            3.25579666        1.21780673       -1.47962699
 C            3.31501449       -1.01492376       -2.20890398
 C            2.64622667        0.25498872       -2.38187946
 C            3.21487347       -2.54418511       -0.44801689
 C            2.54335165       -2.11120223       -1.65793977
 C            3.02745694       -1.45989793        1.62436738
 C            2.45965054       -2.50284049        0.78555443
 C            2.16641082       -0.53545923        2.22635801
 C            3.51843375        1.31583011        1.33702712
 C            2.59703966        0.78658058        2.33123561
 C            2.42263847        2.06028258       -0.73617094
 C            2.76648559        2.31319637        0.59390924
 C            1.09592375        2.25184244       -1.16536664
 C            1.26786971        0.26196711       -2.47940248
 C            0.62328511        1.45798954       -2.22188268
 C            1.15546830       -1.98697574       -1.62062677
 C            0.55152269       -0.92667905       -2.29427756
 C            1.08151279       -2.57024233        0.70699418
 C            0.46784191       -2.55183249       -0.54984136
 C            0.79629649       -0.84488588        2.31903379
 C            0.36653759       -2.06038553        1.77689406
 C           -0.15417436        0.15712812        2.59672316
 C            1.63342275        1.83399841        2.58443053
 C            1.76300404        2.80980862        1.50939984
 C            0.23416527        1.48457457        2.68700904
 C            0.18949782        2.96542302       -0.35721518
 C            0.43735099        3.07248125        1.00450243
 C           -0.50903186        2.46272257        1.92281128
 C           -1.14354482        3.06648170       -0.74271530
 C           -0.69045652        1.55621648       -2.64285750
 C           -1.54518033        2.53866724       -2.02535615
 C           -0.84492498       -0.86272010       -2.31432176
 C           -1.44077603        0.31886653       -2.76289336
 C           -0.92702482       -2.56079717       -0.58263199
 C           -1.58573037       -1.75066533       -1.52285956
 C           -0.97243833       -2.40341997        1.84004283
 C           -1.56909228       -2.88548491        0.61276048
 C           -1.50915032       -0.10700056        2.38919151
 C           -1.90402874       -1.43930199        2.37227560
 C           -1.75878199        2.10811102        1.42841437
 C           -2.16344490        2.68745533        0.22578346
 C           -2.32426286        0.88928738        1.81696706
 C           -2.86799773        1.95464688       -1.88383387
 C           -2.82751454        0.61030475       -2.44174900
 C           -3.29289478        2.13292806       -0.50392717
 C           -2.98060506       -1.64021114       -1.49935804
 C           -3.60419693       -0.37433530       -1.85115625
 C           -2.99955191       -2.71316342        0.74525256
 C           -3.21339785       -1.81486332        1.87413587
 C           -3.73158002       -2.18928775       -0.38274349
 C           -3.60881513        0.58477224        1.35954284
 C           -4.05164090        1.13246735        0.08744662
 C           -4.45725091        0.00779645       -0.73823898
 C           -4.11293891       -0.77281562        1.44308012
 C           -4.60537257       -1.14627355        0.12678353




