%chk=000419.chk
%mem=8GB
%Nproc=32
#p B3LYP/6-31G* opt pop=NPA

Template file

0 1
 C            4.38604092        0.59734175        1.26561409
 C            4.36423676        1.20143951       -0.05583533
 C            4.31135128        0.13090230       -1.03260479
 C            4.15855220       -0.82849384        1.10437807
 C            4.23117414       -1.12745652       -0.30631945
 C            2.93909939       -1.17288253        1.81496598
 C            3.26857794        1.13973546        2.01755880
 C            2.42887967        0.03828164        2.43351830
 C            3.31757535        2.20582440       -0.06906844
 C            2.66015417        2.19018891        1.23011065
 C            2.53082486        2.34838522       -1.20634404
 C            3.25290832        0.13966512       -2.03275922
 C            2.45819416        1.26559584       -2.18374617
 C            3.15479582       -1.89897743       -0.88543274
 C            2.62145919       -1.16650308       -2.02077210
 C            2.01790784       -2.04958216        1.23675699
 C            2.24517035       -2.54920743       -0.05993108
 C            0.71519159       -2.05154666        1.75405667
 C            1.05366899        0.22401218        2.44673028
 C            0.24487467       -0.90503262        2.40435869
 C            1.27639517        2.33806087        1.27487135
 C            0.51351059        1.45663472        2.05657450
 C            1.18777208        2.87363177       -1.05240533
 C            0.65778153        3.01722478        0.22696404
 C            1.06178621        1.09427180       -2.55200515
 C            0.35524677        2.26491942       -2.07709213
 C            1.25817120       -1.30039616       -2.29637503
 C            0.45840648       -0.15529269       -2.43175107
 C            1.19256088       -3.16656704       -0.72240732
 C            0.66469254       -2.49464329       -1.90280879
 C           -0.18152057       -3.02618469        1.32326956
 C            0.07060568       -3.65304940        0.04817108
 C           -1.61418059       -2.79150898        1.41526777
 C           -1.10970973       -0.74599996        2.66506589
 C           -2.07177617       -1.70158956        2.14281113
 C           -0.87240771        1.64072914        2.12658495
 C           -1.68217809        0.58427248        2.55326059
 C           -0.70079724        3.27797134        0.32252271
 C           -1.43864442        2.70660043        1.43172880
 C           -1.00604576        2.18097587       -1.82904840
 C           -1.50943438        3.04269336       -0.85745378
 C           -0.92657821       -0.22067978       -2.20574427
 C           -1.66711576        0.97107436       -2.07170490
 C           -0.77629734       -2.60118048       -1.86652280
 C           -1.11839414       -3.48588321       -0.76506810
 C           -2.20303734       -3.09355429        0.11526414
 C           -1.55485256       -1.46915992       -2.06741563
 C           -3.17377224       -2.24681019       -0.40252268
 C           -2.87632995       -1.53548622       -1.63663469
 C           -3.23771909       -0.96017192        1.68506026
 C           -3.04100275        0.43890288        2.04616933
 C           -3.83505555       -1.29893717        0.47414480
 C           -2.83497136        2.65197378        1.02227932
 C           -2.87937974        2.90545563       -0.41184780
 C           -3.60616771        1.45166560        1.27995218
 C           -3.05355134        0.92285428       -1.90622291
 C           -3.69597760       -0.34808264       -1.66354985
 C           -4.38047387       -0.25865298       -0.37969227
 C           -3.69543711        1.87917240       -1.02111017
 C           -4.31475842        1.12305563        0.05418549




