%chk=000094.chk
%mem=8GB
%Nproc=32
#p B3LYP/6-31G* opt pop=NPA

Template file

0 1
 C            4.45381731        1.40789799       -1.20425560
 C            4.77641011        1.23245615        0.20096994
 C            4.70249553       -0.18550709        0.50013665
 C            4.12864660        0.10333950       -1.75532505
 C            4.36607846       -0.89181213       -0.72781967
 C            2.80614718        0.18843893       -2.35157797
 C            3.25550788        2.22415159       -1.28612601
 C            2.30438414        1.53485126       -2.13388669
 C            3.74390860        1.89344319        0.97958586
 C            2.83386485        2.55461153        0.05895858
 C            3.84352866       -0.35045459        1.66407603
 C            3.18715552        0.92419118        1.91163845
 C            3.10417202       -1.51820831        1.77829004
 C            3.50605988       -1.97861415       -0.64941720
 C            3.11009624       -2.45399556        0.66544514
 C            1.91836112       -0.87576817       -2.20342053
 C            2.31801737       -2.01479894       -1.49584686
 C            0.55183427       -0.62942460       -2.35815394
 C            0.95136098        1.67679060       -1.85540240
 C            0.09410026        0.69352961       -2.32254955
 C            1.47504800        2.49602639        0.34218079
 C            0.56477714        2.37746193       -0.71364584
 C            1.81287308        0.95879558        2.14199976
 C            1.09126964        2.01684607        1.59009438
 C            1.74230295       -1.45065568        2.28418536
 C            1.13170181       -0.21448738        2.49376730
 C            1.77925380       -3.02118378        0.55103902
 C            1.31114032       -2.80871771       -0.80259818
 C            0.97367561       -2.49473128        1.63166939
 C           -0.34257420       -1.65350078       -2.05084251
 C           -0.02699386       -2.48704407       -0.98823373
 C           -1.68310544       -1.46097527       -2.34161183
 C           -1.27443504        0.92464391       -2.23375882
 C           -2.10914313       -0.11189116       -2.63893084
 C           -0.79817103        2.43551580       -0.40938908
 C           -1.72389186        1.86090537       -1.28986726
 C           -0.23450696        2.16995177        1.95086844
 C           -1.15986941        2.60800962        0.92621013
 C           -0.26428742       -0.17648632        2.60014132
 C           -0.87934877        1.07243397        2.63893665
 C           -0.36676528       -2.24248248        1.38564546
 C           -0.88923632       -2.50495961        0.11418476
 C           -0.99984478       -1.29138846        2.17501540
 C           -2.66283605       -1.98838544       -1.41152374
 C           -2.25119443       -2.27147495       -0.10570210
 C           -3.53389457       -0.04533358       -2.38606522
 C           -3.89669333       -1.25987990       -1.66758743
 C           -3.08529470        1.95428112       -0.98124584
 C           -4.04037674        1.07921982       -1.63686816
 C           -2.48593191        2.21773104        1.36664914
 C           -2.30632432        1.18817169        2.38819117
 C           -3.48285750        2.07345808        0.41240089
 C           -2.38697000       -1.23351378        2.11074224
 C           -3.03657985       -1.87662653        0.98273008
 C           -3.06631179        0.02888188        2.33882555
 C           -4.74574672       -0.88290528       -0.55817790
 C           -4.94446551        0.55667017       -0.62544619
 C           -4.54910758        1.11815365        0.65368715
 C           -4.31575669       -1.21266552        0.78460377
 C           -4.29547414        0.01701309        1.56240728




