%chk=001361.chk
%mem=8GB
%Nproc=32
#p B3LYP/6-31G* opt pop=NPA

Template file

0 1
 C            4.02788128        0.89814844        0.30084307
 C            4.04109764       -0.27353721       -0.54175360
 C            3.70479137       -1.41692204        0.29533740
 C            3.71296181        0.45718897        1.65152989
 C            3.19640171       -0.89156982        1.54280049
 C            2.87521589        1.47182592        2.24866797
 C            3.10541251        1.96782005       -0.01639736
 C            2.68000184        2.51246324        1.25170756
 C            2.14028473        1.78957126       -1.00773402
 C            3.15375237       -0.31671845       -1.68612268
 C            2.19549319        0.68196530       -1.87487997
 C            2.83983867       -2.27990053       -0.48576061
 C            2.75167157       -1.70147217       -1.81939915
 C            1.68369720       -2.79626739        0.09711650
 C            1.86926348       -1.15755364        1.87430122
 C            1.25323548       -2.29169695        1.33356078
 C            1.56046344        1.09457022        2.72844632
 C            1.09027692       -0.19956142        2.54365890
 C            1.31024500        2.96305793        1.36412644
 C            0.66981467        2.19100247        2.41978671
 C            1.00466221        2.60740662       -0.99542026
 C            0.57922320        3.20169628        0.20797946
 C            0.16539303        2.58017698       -2.10515662
 C            1.13045516        0.42376931       -2.74842160
 C            0.13216312        1.37945721       -2.91287924
 C            1.64114788       -1.99398726       -2.59504087
 C            0.81538515       -0.89745424       -3.07800934
 C            0.76763993       -3.42296201       -0.74449154
 C            0.74705680       -3.04812555       -2.14714785
 C           -0.61100564       -3.57545875       -0.32475423
 C            0.02897011       -2.69791022        1.86045476
 C           -0.92239537       -3.40204923        1.01274125
 C           -0.27459701       -0.42776025        2.70402086
 C           -0.71821510       -1.74744268        2.66299653
 C           -0.69573953        1.93542069        2.30805643
 C           -1.17751569        0.64555163        2.57338173
 C           -0.77050386        3.47213631        0.40386001
 C           -1.44605751        2.79314057        1.49737271
 C           -1.20008362        3.06328212       -2.00445667
 C           -1.67485606        3.52851272       -0.72324325
 C           -1.25076154        0.92757510       -2.94799443
 C           -2.08031437        1.98847946       -2.43913918
 C           -0.57626259       -1.31810447       -3.00507434
 C           -0.61429910       -2.65816396       -2.47785260
 C           -1.43967848       -2.91180269       -1.32267638
 C           -1.52044890       -0.38673463       -2.59258757
 C           -2.35854150       -1.95073971       -0.90619854
 C           -2.33074929       -0.65433245       -1.46710926
 C           -2.24832362       -2.91071137        1.34007250
 C           -2.12484328       -2.04474077        2.49850573
 C           -2.97610914       -2.17126871        0.32347427
 C           -2.54393279        0.40732744        2.41355114
 C           -3.04631982       -0.94866760        2.31788427
 C           -3.64847078       -1.08785365        0.99725671
 C           -2.76578589        2.39675422        1.02734258
 C           -2.85571843        2.75466573       -0.37891493
 C           -2.98648385        1.68701572       -1.35669460
 C           -3.10699109        0.37701517       -0.89502305
 C           -3.26990796        1.16774891        1.41757661
 C           -3.63898553        0.21672383        0.38192292




