%chk=001402.chk
%mem=8GB
%Nproc=32
#p B3LYP/6-31G* opt pop=NPA

Template file

0 1
 C            4.20240477       -1.37882766       -0.05273360
 C            3.47761181       -2.08488144        0.98373696
 C            2.62661969       -3.04386891        0.31346100
 C            3.52869923       -1.65017818       -1.31856713
 C            2.46608864       -2.58943456       -1.05605747
 C            3.19060801       -0.38147551       -1.91675066
 C            4.33580479        0.05636534        0.06739602
 C            3.95507047        0.63176039       -1.20959309
 C            3.55590010        0.74738558        1.07676956
 C            2.62864896       -1.32906057        1.89213570
 C            2.56990706        0.05658002        1.79040955
 C            1.42818559       -3.19142445        1.11261753
 C            1.39344635       -2.07453454        2.04932316
 C            0.25996409       -3.49512119        0.43752502
 C            1.17509159       -2.32323881       -1.50662664
 C            0.16688826       -3.11091905       -0.96642182
 C            1.86664105       -0.10483943       -2.25314623
 C            0.85043864       -1.04777627       -2.00645203
 C            1.52913549        1.22679959       -2.45807672
 C            3.31859756        1.90898567       -0.93484116
 C            3.24264503        2.04874218        0.51469589
 C            2.21900879        2.26498670       -1.70389377
 C            2.19723423        2.76650361        1.07481295
 C            1.40524076        0.72587840        2.17314453
 C            1.39621602        2.11776344        2.09541458
 C            0.19302255       -1.38566321        2.22713302
 C            0.19905985        0.01512711        2.32586235
 C           -0.99432119       -3.10876186        1.04312995
 C           -1.00288894       -2.05509162        1.95378257
 C           -1.21533375       -2.78805680       -1.23592782
 C           -1.96543380       -3.11515474       -0.03262195
 C           -0.50418411       -0.68833059       -2.19192824
 C           -1.52311664       -1.62358333       -1.92545428
 C            0.14182040        1.60340738       -2.55824782
 C           -0.83844687        0.62684681       -2.56332409
 C            1.20920562        3.14598280       -1.13959246
 C            1.27010576        3.47627277        0.20725326
 C           -0.06799727        2.79039443       -1.74184433
 C            0.14307661        2.83188971        2.15800154
 C            0.03480295        3.63726875        0.94902305
 C           -1.01268718        0.70238659        2.51917472
 C           -1.07537001        2.07096268        2.28788316
 C           -2.20882652       -1.42276644        2.21916482
 C           -2.21508648        0.00918716        2.43546416
 C           -3.18920581       -2.49951959        0.17790573
 C           -3.37725509       -1.75694822        1.41384429
 C           -2.86430369       -1.24042293       -1.95677702
 C           -3.75091052       -1.70685104       -0.90138997
 C           -2.13743675        1.08307016       -2.39125063
 C           -3.20927641        0.13526731       -2.22016688
 C           -1.26033719        2.91023917       -1.02343590
 C           -1.22932973        3.30457156        0.31330102
 C           -2.01108079        2.56277028        1.29048110
 C           -2.36209105        2.18515263       -1.46943632
 C           -3.28497805        0.57683211        1.62663822
 C           -4.07388946       -0.52142162        1.09578505
 C           -4.39592566       -0.54269119       -0.31491388
 C           -4.04108057        0.60555159       -1.12156116
 C           -3.01690382        1.70802731        0.85125627
 C           -3.34949338        1.72788453       -0.50549365




