%chk=000473.chk
%mem=8GB
%Nproc=32
#p B3LYP/6-31G* opt pop=NPA

Template file

0 1
 C            4.31833125       -1.71198239        0.23106060
 C            4.44400696       -0.41699169        0.86859396
 C            4.64319735        0.54607798       -0.19336434
 C            3.96865352       -1.47564532       -1.16213933
 C            4.19370858       -0.07605986       -1.43345277
 C            2.64052669       -2.01778357       -1.37423406
 C            3.19713379       -2.39296851        0.84763516
 C            2.32137226       -2.83156488       -0.21723348
 C            3.30907107       -0.24942811        1.76942346
 C            2.62068733       -1.52336666        1.85598666
 C            2.55337958        0.91832031        1.72232422
 C            3.96803575        1.81946303       -0.08642564
 C            3.01889880        2.01820869        0.99391820
 C            3.09064946        0.71861327       -1.93920923
 C            3.22128235        2.01703971       -1.31783498
 C            1.62345968       -1.22248882       -1.91438719
 C            1.81372799        0.16133747       -2.04704211
 C            0.31686014       -1.71683094       -1.82828972
 C            0.97977590       -2.96815408        0.08430416
 C            0.08450606       -2.79041537       -0.95859833
 C            1.23478763       -1.54004517        1.98025409
 C            0.55370717       -2.58272981        1.35513533
 C            1.21296843        0.88212290        2.12123958
 C            0.54252574       -0.34650760        2.22211531
 C            0.48184419        2.06633359        2.09405689
 C            2.05598256        2.96455853        0.47176780
 C            2.00880479        2.72136554       -0.95920590
 C            0.84735706        3.09473636        1.13197066
 C            0.70052038        1.01003674       -2.04056289
 C            0.79931517        2.30069266       -1.49612597
 C           -0.75080068       -0.90276918       -2.22116956
 C           -0.56217674        0.47901130       -2.30934212
 C           -2.04217560       -1.42933213       -2.22484939
 C           -1.20956093       -3.24037726       -0.74305773
 C           -2.29408916       -2.66026893       -1.50498433
 C           -0.78931195       -2.75459220        1.65752332
 C           -1.64095010       -3.34925805        0.63858525
 C           -0.86031338       -0.38672860        2.30397405
 C           -1.50762925       -1.62283771        2.21601386
 C           -0.96827605        2.01913724        2.14013837
 C           -1.61370303        0.79249777        2.24129667
 C           -0.34062445        3.33336849        0.33216358
 C           -0.35100604        2.90268830       -0.99577810
 C           -1.46215215        3.01031413        1.19202079
 C           -1.66347229        1.33786153       -2.31241676
 C           -1.56409326        2.59398280       -1.59343586
 C           -3.17781692       -0.55727516       -1.98754460
 C           -3.00448559        0.81330871       -2.10991933
 C           -3.40568963       -2.42941086       -0.59408022
 C           -2.95764630       -2.75325339        0.74760488
 C           -2.88101727       -1.69298823        1.73860991
 C           -3.91562534       -1.09666684       -0.84995288
 C           -2.97744992        0.73633536        1.94914306
 C           -3.57575657       -0.51295143        1.52176505
 C           -4.21444588       -0.27227064        0.23125400
 C           -2.71046458        2.83129811        0.61534540
 C           -2.79067347        2.77525919       -0.83438050
 C           -3.70287265        1.70587032       -1.19797345
 C           -3.57184234        1.79083238        1.14491074
 C           -4.25895613        1.16327098        0.02685578




