%chk=001043.chk
%mem=8GB
%Nproc=32
#p B3LYP/6-31G* opt pop=NPA

Template file

0 1
 C            3.50960759       -2.54403386       -0.28443955
 C            3.66120318       -1.75190605        0.92170942
 C            2.45816401       -1.90554751        1.71965045
 C            2.24342596       -3.24522623       -0.19306632
 C            1.63442869       -2.91807584        1.07716163
 C            1.48662590       -2.94980008       -1.38941437
 C            3.41962471       -1.61999743       -1.40284957
 C            2.15127799       -1.83716510       -2.05534582
 C            4.03663548       -0.41772998        0.51351436
 C            3.70759977       -0.29804322       -0.90307106
 C            3.68352878        0.63131500        1.34581534
 C            1.84612789       -0.76461018        2.24816047
 C            2.54604557        0.44854273        2.24641826
 C            0.45472395       -0.75811617        2.42045987
 C            0.25933442       -2.75770167        1.11161406
 C           -0.26973522       -1.90166910        2.06875684
 C            0.09959632       -2.91271969       -1.29749648
 C           -0.49423493       -3.03770112       -0.03489043
 C           -0.57232584       -2.19901184       -2.28414761
 C            1.37995791       -0.74420517       -2.44333674
 C            0.08173814       -1.02946801       -2.85054794
 C            2.92553201        0.77914800       -1.31832175
 C            1.68736484        0.54178528       -1.95647267
 C            3.53931042        1.93744706        0.73516955
 C            3.15104829        1.98585161       -0.66223961
 C            1.79827731        1.69534951        2.26819924
 C            2.53540454        2.66514259        1.48516152
 C           -0.21356700        0.46274603        2.57992459
 C            0.41219361        1.63618953        2.17864713
 C           -1.58969805        0.48157415        2.75228336
 C           -1.63304192       -1.96595983        2.32344131
 C           -2.31496372       -0.77205850        2.77598825
 C           -1.88395574       -2.98996523        0.06394051
 C           -2.47826455       -2.61343974        1.33694487
 C           -1.98461656       -1.89904987       -2.12782505
 C           -2.64780489       -2.33858753       -0.98895218
 C           -0.89964234        0.02792775       -2.93565412
 C           -2.20181995       -0.54803664       -2.62027874
 C            0.74257429        1.58136749       -2.09127771
 C           -0.57211081        1.29610039       -2.47714951
 C            2.21086198        3.06936548       -0.80165404
 C            1.81080966        3.48099058        0.54017453
 C            0.99993086        2.84266336       -1.55513075
 C           -0.30825677        2.57845282        1.42457568
 C            0.36336934        3.45341646        0.56849720
 C           -0.05406475        3.50934168       -0.81525788
 C           -2.36004706        1.43563873        1.97817677
 C           -1.67495111        2.37026574        1.19967718
 C           -3.52066670       -0.61160798        1.97996533
 C           -3.60791891       -1.73852769        1.06992234
 C           -3.64956314       -1.48936691       -0.36085258
 C           -3.51619580        0.73280052        1.43352532
 C           -3.18192193        0.24930622       -2.04315475
 C           -3.85050188       -0.19287285       -0.82856218
 C           -3.87188984        0.92845955        0.10506765
 C           -1.59605292        2.18250555       -2.13790996
 C           -1.36063511        3.17133915       -1.10369058
 C           -2.23697480        2.81442406       -0.00098724
 C           -2.94058220        1.67405562       -1.92141167
 C           -3.35031897        2.08868841       -0.58715415




