%chk=000292.chk
%mem=8GB
%Nproc=32
#p B3LYP/6-31G* opt pop=NPA

Template file

0 1
 C            4.96875209        0.55756562       -0.39637178
 C            4.56612508       -0.70313357       -0.99203952
 C            4.26431875       -1.62478920        0.08592082
 C            4.71302190        0.47374934        1.03388375
 C            4.24003058       -0.86269964        1.32539415
 C            3.87458000        1.59587950        1.39518866
 C            4.10843633        1.59682336       -0.93705895
 C            3.59169921        2.34915509        0.18012263
 C            3.53204137       -0.42501516       -1.97316285
 C            3.15942316        0.97511497       -1.84450513
 C            2.52320820       -1.35777871       -2.16309150
 C            3.03086011       -2.39003354        0.01582961
 C            2.31339926       -2.41052762       -1.17153597
 C            2.92501571       -1.04132236        1.92183362
 C            2.30637671       -2.17307305        1.25541107
 C            2.59903617        1.35669144        2.05743959
 C            2.12660787        0.05933832        2.25573740
 C            2.17819291        2.65675037        0.19654165
 C            1.68673326        2.34077799        1.52037913
 C            1.80257671        1.31572425       -1.77838053
 C            1.36846797        2.30656550       -0.88345062
 C            1.21074950       -0.88562275       -2.56016558
 C            0.86195954        0.44761983       -2.34899930
 C            0.88445598       -2.66783425       -1.11123275
 C            0.26574031       -1.91491071       -2.18014348
 C            0.91932122       -2.24200369        1.25749666
 C            0.23785415       -2.69782920        0.12127250
 C            0.74496723       -0.13648600        2.37556784
 C            0.24280851       -1.41797594        2.14967754
 C            0.32697709        2.11649872        1.62873905
 C           -0.12255135        0.96252522        2.27065204
 C           -0.00298839        2.47495617       -0.69994312
 C           -0.46335945        2.62558150        0.61228789
 C           -0.49641011        0.77033981       -2.29484665
 C           -0.86963497        1.95076359       -1.65415477
 C           -1.05684542       -1.54731871       -2.02072645
 C           -1.42966538       -0.26641882       -2.41480720
 C           -1.15944355       -2.63559816        0.12587520
 C           -1.80845364       -2.18452033       -1.03523556
 C           -1.10482682       -1.65750085        2.34928135
 C           -1.77891763       -2.47452221        1.36373260
 C           -1.50811463        0.75144807        2.34693846
 C           -1.97559006       -0.53207983        2.61960853
 C           -1.82538832        2.67102920        0.84621849
 C           -2.37137887        1.69739879        1.77641131
 C           -2.21884861        2.28652001       -1.57034853
 C           -2.71642987        2.75603447       -0.29241219
 C           -2.78558080        0.03435798       -2.46223625
 C           -3.20830438        1.37475298       -2.11451800
 C           -3.18881534       -1.98416402       -1.04305121
 C           -3.72130700       -0.89818424       -1.85226788
 C           -3.19069296       -2.15913434        1.43939273
 C           -3.31440458       -0.92720896        2.20694898
 C           -3.92653410       -1.99351051        0.20628554
 C           -3.68565124        1.30599750        1.27985002
 C           -3.92117199        2.01271806        0.02830972
 C           -4.30017042        1.26782276       -1.15750539
 C           -4.64394856       -0.13490068       -1.02602789
 C           -4.12264046       -0.00458408        1.43477243
 C           -4.65566794       -0.73981929        0.29521805




