%chk=000391.chk
%mem=8GB
%Nproc=32
#p B3LYP/6-31G* opt pop=NPA

Template file

0 1
 C            4.32708347       -1.22321976       -1.16714265
 C            4.64926105       -0.24679388       -0.14215417
 C            4.23345261       -0.78298380        1.14060649
 C            3.63776196       -2.32483892       -0.52228249
 C            3.62300811       -2.07842057        0.90191640
 C            2.36415659       -2.48942568       -1.18821840
 C            3.39491720       -0.60253376       -2.09722664
 C            2.19563478       -1.40459309       -2.13523459
 C            4.09820092        1.02437550       -0.56069801
 C            3.26378945        0.78558939       -1.73535218
 C            3.62428658        1.89169042        0.41372824
 C            3.31891150       -0.00147480        1.96145949
 C            3.13581414        1.34273720        1.67973249
 C            2.34036184       -2.09343541        1.57682054
 C            2.15249473       -0.82187905        2.24682652
 C            1.24766389       -2.83872173       -0.44694968
 C            1.23620572       -2.64075070        0.94257167
 C            0.02792939       -2.71689340       -1.09553310
 C            0.94844267       -0.77860150       -2.17921073
 C           -0.16689661       -1.56022604       -1.86783164
 C            2.00983112        1.39143660       -1.80406661
 C            0.85569364        0.61858606       -2.04829003
 C            2.67347054        2.89795723       -0.00374543
 C            1.87814059        2.62756200       -1.18800561
 C            1.83852481        1.93782271        1.94658289
 C            1.74649978        3.09580490        1.09328595
 C            0.86897600       -0.25930553        2.24757096
 C            0.70942421        1.12447195        2.09018328
 C           -0.00065046       -2.39392460        1.52738760
 C           -0.22789863       -1.10592035        2.04370073
 C           -1.05536705       -3.27567766       -0.43942168
 C           -1.06719574       -3.10509454        0.99860874
 C           -2.38047958       -2.99433504       -0.93131218
 C           -1.43908530       -0.99236853       -1.96505400
 C           -2.56167742       -1.78081817       -1.69808999
 C           -0.41899827        1.21342783       -1.95893360
 C           -1.56661021        0.39789868       -2.03585033
 C            0.56131570        3.14259281       -0.92401272
 C            0.46539547        3.37856086        0.50711452
 C           -0.53759966        2.54923391       -1.52616475
 C           -0.56361703        1.65310556        1.80470604
 C           -0.66895416        2.88506881        1.12464867
 C           -1.52001543       -0.56325113        2.03680338
 C           -1.69030315        0.81940026        1.91371018
 C           -2.40750721       -2.74788064        1.39265251
 C           -3.25470176       -2.93076750        0.22632235
 C           -2.62338954       -1.40934040        1.89696815
 C           -3.78467744       -1.16147515       -1.21737352
 C           -4.06323432       -1.73860038        0.08916206
 C           -3.83725363       -0.91605141        1.26684724
 C           -2.84055289        0.96761292       -1.94591784
 C           -3.93058784        0.20681451       -1.35393634
 C           -1.75897500        2.97712383       -1.01947379
 C           -1.83363823        3.14911451        0.42392340
 C           -2.96321911        2.31752648       -1.44773192
 C           -2.96253464        1.33088963        1.63503413
 C           -4.00240254        0.44978080        1.12911064
 C           -4.37470988        0.94953180       -0.18575284
 C           -3.06159505        2.55755094        0.87818198
 C           -3.86232065        2.29633501       -0.30519978




