%chk=001684.chk
%mem=8GB
%Nproc=32
#p B3LYP/6-31G* opt pop=NPA

Template file

0 1
 C            2.93256819       -2.70695390       -0.42502309
 C            3.67552043       -1.67348398        0.25548006
 C            3.92350466       -0.61487626       -0.70702373
 C            2.62400509       -2.22228979       -1.76352189
 C            3.04413009       -0.84320505       -1.83871593
 C            1.24066933       -2.53116561       -2.02998201
 C            1.69103840       -3.16805720        0.16118837
 C            0.74275734       -3.33429097       -0.92583256
 C            1.23670442       -2.63768040        1.36700035
 C            3.09221124       -1.06145959        1.43136594
 C            1.88947506       -1.53769853        1.95205463
 C            3.81984163        0.65096454       -0.01074824
 C            3.29480462        0.37701050        1.32415680
 C            3.31102262        1.72951216       -0.71374765
 C            2.11837533        0.14547921       -2.17484905
 C            2.43976400        1.46397404       -1.85504717
 C            0.40886352       -1.55362286       -2.55266145
 C            0.78122022       -0.19816747       -2.44761226
 C           -0.93282585       -1.89597914       -2.63117783
 C           -0.62103771       -3.30041438       -0.63818412
 C           -1.48524414       -2.75860379       -1.59682091
 C           -0.07105576       -2.94827795        1.73552604
 C           -1.01341584       -3.35480933        0.70058908
 C           -0.78536974       -2.11657665        2.68883379
 C            1.20920099       -0.71485925        2.84523449
 C           -0.18588291       -0.96062720        3.15505920
 C            2.35940820        1.24345781        1.89997818
 C            1.40587209        0.72495440        2.77291783
 C            2.71901539        2.80916774        0.04396219
 C            2.15386320        2.50700657        1.34606318
 C            1.40885129        2.48142443       -1.87222357
 C            1.67160501        3.39131939       -0.77102994
 C           -0.18916713        0.81725414       -2.56122974
 C            0.09533139        2.11556520       -2.13066996
 C           -1.90996962       -0.88578380       -2.94958058
 C           -1.51013353        0.49970954       -2.87099230
 C           -2.77904700       -2.20975316       -1.20996306
 C           -3.05182955       -1.07168085       -2.06567462
 C           -2.32900938       -2.88102677        1.08980521
 C           -2.17639384       -2.06657557        2.28398556
 C           -3.11604548       -2.13208725        0.13143327
 C           -2.78634055       -0.77484538        2.02690998
 C           -3.42648530       -0.83557522        0.72131167
 C           -0.89454271        0.30998185        3.06309694
 C            0.09888147        1.35819648        2.87515273
 C           -2.12166460        0.39063622        2.40194217
 C            0.82886095        3.11136963        1.39892302
 C            0.57233920        3.74089370        0.10611556
 C           -0.20194088        2.45605192        2.07606903
 C           -0.93230096        2.92254314       -1.63310883
 C           -0.70941420        3.69498146       -0.41818505
 C           -2.58166704        1.20871805       -2.19612611
 C           -3.34696417        0.21328780       -1.45766418
 C           -3.46246202        0.31443156       -0.06838173
 C           -2.29741162        2.42359862       -1.59518034
 C           -2.48764067        1.58671297        1.79277853
 C           -1.52581986        2.67541125        1.70181743
 C           -1.80654521        3.40825766        0.48131000
 C           -3.23652797        1.54435574        0.54468692
 C           -2.81555017        2.67419959       -0.26379027




