%chk=001201.chk
%mem=8GB
%Nproc=32
#p B3LYP/6-31G* opt pop=NPA

Template file

0 1
 C            4.43430666        0.63794711        0.66412454
 C            4.44080477       -0.80780791        0.68964849
 C            3.54178785       -1.22817778        1.75908303
 C            3.68637270        1.08073097        1.82837879
 C            2.88275359       -0.04539049        2.26561241
 C            3.01287209        2.30469515        1.45798389
 C            3.86374794        1.32233487       -0.48533374
 C            3.25210691        2.52961557        0.03904738
 C            3.20180747        0.59557202       -1.48155584
 C            4.04956204       -1.51373076       -0.51168136
 C            3.35597272       -0.78917563       -1.56467364
 C            2.72129388       -2.30157170        1.24485527
 C            3.18548281       -2.60019439       -0.09949542
 C            1.34716105       -2.28534126        1.46421037
 C            1.49082799        0.03251973        2.19248911
 C            0.73535754       -1.13445252        1.98946932
 C            1.58318594        2.39085978        1.65877655
 C            0.86823065        1.28490143        2.11946586
 C            2.00822726        2.99823726       -0.54496210
 C            1.04345345        3.12715953        0.53411163
 C            2.16722014        1.19415889       -2.20092130
 C            1.58637910        2.44979126       -1.74415722
 C            1.08656613        0.36534253       -2.71790753
 C            2.22600594       -1.60685052       -1.99065502
 C            2.18385725       -2.78416830       -1.13453689
 C            1.03750580       -0.97869306       -2.37621225
 C            0.59097451       -3.13152861        0.66607477
 C            0.94623401       -3.25575539       -0.73967348
 C           -0.84884053       -3.06080146        0.73337799
 C           -0.66632159       -1.06087448        2.05116943
 C           -1.44056266       -2.13685758        1.58318100
 C           -0.51748476        1.33982536        2.01409173
 C           -1.26016117        0.18903372        2.26169598
 C           -0.30904236        2.96314413        0.26419347
 C           -1.08276198        2.37349898        1.26094871
 C            0.16273063        2.40447176       -2.02123662
 C           -0.12850166        1.15339543       -2.70193533
 C           -0.73973963        2.85561131       -1.06349016
 C           -1.35103183        0.53912067       -2.45456845
 C           -0.19886120       -1.57870349       -2.10193138
 C           -0.22018966       -2.82372974       -1.47673002
 C           -1.34326758       -3.16311494       -0.63160461
 C           -1.38853299       -0.83371653       -2.17608168
 C           -2.57082486       -2.59613781       -0.91551857
 C           -2.59481763       -1.42728754       -1.78296595
 C           -2.82377904       -2.00881951        1.48816907
 C           -3.44418555       -2.31273874        0.20841757
 C           -2.64270543        0.30121862        2.37358369
 C           -3.47003525       -0.82880664        2.01750263
 C           -2.46250766        2.46538674        1.15375859
 C           -3.28516487        1.48916381        1.84265763
 C           -2.08336267        2.57092083       -1.29228621
 C           -2.40065862        1.36073923       -2.03857255
 C           -3.00753946        2.64725962       -0.17494207
 C           -3.71112364       -0.59522677       -1.35973226
 C           -4.28076340       -1.18817903       -0.15691723
 C           -4.44773674       -0.37758617        1.03583076
 C           -4.32903201        1.06148725        0.92400074
 C           -3.60712953        0.78458429       -1.47113354
 C           -4.03612290        1.64269088       -0.37449798




