%chk=001149.chk
%mem=8GB
%Nproc=32
#p B3LYP/6-31G* opt pop=NPA

Template file

0 1
 C            4.38836623        0.01475850       -0.09919972
 C            3.98438733       -1.06795272       -0.97557575
 C            3.45781781       -2.12994806       -0.13392676
 C            4.03336701       -0.36822006        1.26065094
 C            3.22639603       -1.56850593        1.17486705
 C            3.47777617        0.79243819        1.91519196
 C            3.86074591        1.34736180       -0.32880639
 C            3.51368764        1.89473156        0.96679644
 C            3.01537560        1.58332710       -1.40911676
 C            3.00705880       -0.81170944       -2.02022732
 C            2.56699595        0.48229509       -2.25641478
 C            2.32152575       -2.70791840       -0.81494711
 C            2.03632391       -1.88992060       -1.98446308
 C            1.23312542       -3.13369035       -0.06422250
 C            1.91793430       -1.57525250        1.65655332
 C            1.05543856       -2.58661879        1.22132065
 C            2.12705374        0.71690140        2.43682773
 C            1.36894239       -0.43133894        2.25863151
 C            2.26954143        2.62603354        1.10892262
 C            1.50122475        1.99278249        2.17178837
 C            1.90187549        2.51266327       -1.26921456
 C            1.58792663        3.06697028       -0.02324290
 C            1.16569254        0.70312059       -2.57496504
 C            0.82722450        2.04109012       -2.13579195
 C            0.69714939       -1.64756178       -2.30001440
 C            0.24228254       -0.32575900       -2.40373469
 C            0.11346053       -3.47996961       -0.80955246
 C           -0.20626812       -2.64636768       -1.95678371
 C           -1.11827213       -3.82540116       -0.13789876
 C           -0.17734984       -2.69995761        1.86480385
 C           -1.25050598       -3.46069868        1.25239239
 C           -0.01365409       -0.33075267        2.40295223
 C           -0.75500146       -1.50253969        2.44935508
 C            0.11381353        2.07581366        2.10142954
 C           -0.65198225        0.89574131        2.16389736
 C            0.29708830        3.54649012        0.17328332
 C           -0.38284219        3.16545757        1.39982346
 C           -0.48254951        2.32991089       -1.78863341
 C           -0.67936164        3.36693276       -0.88123980
 C           -1.09331542       -0.00531113       -2.10982967
 C           -1.46574174        1.34272294       -1.93732915
 C           -1.61953694       -2.34784898       -1.89898921
 C           -2.20432627       -3.20132208       -0.87328951
 C           -2.04756162       -1.02980529       -1.98936592
 C           -2.47894119       -2.69845867        1.39845541
 C           -2.16480126       -1.46959228        2.11463860
 C           -3.11144636       -2.60507304        0.09154299
 C           -2.02351828        0.92131610        1.84077391
 C           -2.73275014       -0.27774021        1.68013885
 C           -1.80210573        3.26525553        1.15696780
 C           -1.97613424        3.54863789       -0.26200174
 C           -2.63047871        2.12328803        1.46629310
 C           -2.79563416        1.67538922       -1.67173498
 C           -3.07851699        2.74004235       -0.72906687
 C           -3.65698875        2.10721040        0.44373301
 C           -3.30871650       -0.74641142       -1.47523146
 C           -3.72275033       -1.40885103       -0.24895422
 C           -3.76633473       -0.35497270        0.74305448
 C           -3.74153186        0.62783537       -1.36557837
 C           -4.17067974        0.82895244        0.01425700




