%chk=000785.chk
%mem=8GB
%Nproc=32
#p B3LYP/6-31G* opt pop=NPA

Template file

0 1
 C            4.22349458       -1.31945863       -0.44951124
 C            4.22988380        0.13122529       -0.47480647
 C            3.74688214        0.61328484        0.80761503
 C            3.69460851       -1.73776971        0.83503060
 C            3.38005664       -0.54830321        1.60706903
 C            2.63633666       -2.69448024        0.58570915
 C            3.29459334       -1.77015885       -1.47094502
 C            2.32391169       -2.64406638       -0.83573156
 C            3.53005825        0.55548873       -1.67057245
 C            2.80470073       -0.60015404       -2.17598304
 C            2.87897523        1.77637980       -1.63485864
 C            2.92777809        1.74056909        0.82960844
 C            2.74410144        2.45867220       -0.35478866
 C            2.02146186        1.88642221        1.88085834
 C            2.20313271       -0.51621506        2.35249145
 C            1.64643622        0.71920446        2.66468020
 C            1.58586962       -2.74986083        1.48800436
 C            1.41914950       -1.66707097        2.45109326
 C            0.26411310       -3.09679397        0.99870430
 C            0.98945536       -2.55402231       -1.22583401
 C            0.00561748       -3.05229487       -0.36591168
 C            1.43547198       -0.50170641       -2.41368034
 C            0.63710612       -1.62653895       -2.21474197
 C            1.59664546        1.89904034       -2.30083981
 C            0.83229189        0.75633741       -2.51927522
 C            1.62285839        3.37301170       -0.48404618
 C            0.95424621        3.06538137       -1.74042679
 C            0.83970891        2.72836129        1.73849533
 C            0.61573511        3.41306225        0.55870011
 C            0.22962294        0.82529570        2.98039977
 C           -0.27089796        2.05703754        2.38732832
 C           -0.00332233       -1.55795984        2.74677803
 C           -0.70623543       -2.52566158        1.91531081
 C           -0.57746680       -0.31027524        2.97594695
 C           -1.98249126       -2.22170299        1.45115645
 C           -1.32121837       -3.04870861       -0.77758834
 C           -2.35114455       -2.63204735        0.16606689
 C           -0.66897087       -1.59437518       -2.68152860
 C           -1.64192402       -2.47442197       -2.06814711
 C           -0.56623776        0.85094738       -2.57300854
 C           -1.29633344       -0.29847926       -2.87739170
 C           -0.46560136        3.00040212       -1.48191644
 C           -0.68441605        3.31540671       -0.07857498
 C           -1.22053327        1.97828504       -2.04810207
 C           -1.53951714        2.06094262        1.81099457
 C           -1.75065674        2.69443376        0.57202461
 C           -1.94739566       -0.15609930        2.77504952
 C           -2.68684029       -1.20243180        2.08576209
 C           -2.45015820        1.11892076        2.28956414
 C           -3.81774507       -0.57856530        1.42157084
 C           -3.68903501        0.86229555        1.58206554
 C           -3.37265045       -1.90808104       -0.58194446
 C           -2.89319201       -1.74955299       -1.94491179
 C           -2.68885658       -0.41151149       -2.47369460
 C           -4.05199514       -0.85647082        0.01821306
 C           -2.53092526        1.86444139       -1.59157779
 C           -2.81959560        2.30645563       -0.23721532
 C           -3.88014730        1.47476294        0.29033428
 C           -3.29961593        0.66009841       -1.84261628
 C           -4.13918411        0.41907267       -0.67645435




