%chk=000498.chk
%mem=8GB
%Nproc=32
#p B3LYP/6-31G* opt pop=NPA

Template file

0 1
 C            4.28006139        1.66830213        0.47921763
 C            4.36305685        0.32094655        1.00512460
 C            4.59296731       -0.54593062       -0.12984596
 C            3.97053151        1.55917492       -0.93929756
 C            4.19383988        0.18867847       -1.32622449
 C            2.65291538        2.12643742       -1.13975281
 C            3.15121793        2.31450982        1.11836459
 C            2.31352956        2.85179527        0.06923541
 C            3.18843266        0.09308295        1.83979680
 C            2.53377133        1.37384980        2.03331291
 C            2.40532495       -1.04387183        1.64163278
 C            3.90013665       -1.81245752       -0.16139405
 C            2.88422885       -2.08073486        0.84308897
 C            3.10380413       -0.54656260       -1.94091448
 C            3.23157249       -1.89574438       -1.44850206
 C            1.64177067        1.38636266       -1.76498424
 C            1.82269047        0.01613282       -2.01525388
 C            0.34403005        1.89129568       -1.67284845
 C            0.96626784        2.98656310        0.34230254
 C            0.10491091        2.90664634       -0.73901903
 C            1.14828820        1.41338410        2.13264081
 C            0.49314848        2.50384700        1.56260086
 C            1.03859513       -0.99864726        1.93418808
 C            0.43693738        0.22091135        2.28871906
 C            0.24704176       -2.12831630        1.68708542
 C            1.92594892       -2.93939794        0.18625026
 C            2.01742489       -2.63730799       -1.23400654
 C            0.64621103       -3.05239111        0.70959288
 C            0.70171352       -0.83394417       -2.10779536
 C            0.85345946       -2.21034035       -1.85570139
 C           -0.72230524        1.12053841       -2.13374221
 C           -0.58511724       -0.27321410       -2.18802825
 C           -1.98298202        1.71027812       -2.20841074
 C           -1.18832158        3.36118008       -0.53290196
 C           -2.24647239        2.87996469       -1.39447554
 C           -0.85992546        2.66282732        1.83102370
 C           -1.67864297        3.33689241        0.83287295
 C           -0.94865207        0.29077542        2.48520941
 C           -1.60657860        1.50877827        2.30386160
 C           -1.07277513       -2.13489979        2.13783832
 C           -1.70817578       -0.87446332        2.47100534
 C           -2.06363342       -2.95781041        1.46022868
 C           -0.30908784       -3.51196601       -0.18967682
 C           -0.26737043       -2.95688588       -1.53089653
 C           -1.69077868       -3.59805082        0.22058637
 C           -1.72218655       -1.10148529       -2.15537094
 C           -1.57978395       -2.43948844       -1.82091731
 C           -2.49241960       -3.01888991       -0.84480803
 C           -3.16263410        0.87989434       -2.13709205
 C           -2.98795328       -0.54592756       -1.99681275
 C           -3.40180421        2.59180287       -0.55695622
 C           -2.98758509        2.71284690        0.82465455
 C           -2.90800979        1.51886141        1.64919719
 C           -3.95298182        1.33146158       -0.99935364
 C           -3.02385371       -0.85243746        1.84241502
 C           -3.23152376       -2.13480176        1.19494545
 C           -3.49291400       -2.16273250       -0.23406369
 C           -3.80514845       -0.97004788       -0.86856802
 C           -3.44577230        0.31179668        1.20592905
 C           -4.02844015        0.21892917       -0.06530627




