%chk=001655.chk
%mem=8GB
%Nproc=32
#p B3LYP/6-31G* opt pop=NPA

Template file

0 1
 C            3.44504528       -2.10383550        0.09083122
 C            3.71583393       -1.14387787        1.13398574
 C            4.01434960        0.12661020        0.49699181
 C            3.48334880       -1.39781976       -1.18431733
 C            3.65010733        0.00840751       -0.90376359
 C            2.32846108       -1.81797212       -1.94208538
 C            2.19753492       -2.84289997        0.13157205
 C            1.77236837       -2.96785954       -1.24756179
 C            1.23971888       -2.55635398        1.10810704
 C            2.69412862       -0.90037246        2.12759090
 C            1.55584096       -1.70043278        2.18311920
 C            3.38911571        1.18025006        1.28010296
 C            2.53057978        0.53865061        2.26508299
 C            2.90650802        2.28715263        0.60318751
 C            2.74956259        0.93221001       -1.42553466
 C            2.76323608        2.19541213       -0.84204483
 C            1.45962286       -0.86118098       -2.46504480
 C            1.58226343        0.48335127       -2.07527397
 C            0.25142102       -1.31724811       -2.98926234
 C            0.45842826       -3.31259424       -1.50592889
 C           -0.21086255       -2.64147095       -2.60468368
 C           -0.08601979       -2.96300779        0.88064211
 C           -0.48013626       -3.36707011       -0.39498835
 C           -1.08401956       -2.66156731        1.80088641
 C            0.54377021       -1.25041506        3.02115144
 C           -0.75501687       -1.87621736        2.96676609
 C            1.25109876        1.03880533        2.52385320
 C            0.34908858        0.18718990        3.15342631
 C            1.69266305        2.91323864        1.08198045
 C            0.77524929        2.14095176        1.79968759
 C            1.77316698        3.17093191       -1.23334011
 C            1.24258253        3.75325755       -0.00863387
 C            0.49918657        1.35980348       -2.26560090
 C            0.64606064        2.72069066       -2.01489907
 C           -0.90470329       -0.43956328       -3.00849918
 C           -0.77919179        0.85016634       -2.50955492
 C           -1.61987286       -2.54759518       -2.27513888
 C           -1.78605477       -2.95803949       -0.89175607
 C           -2.07742182       -1.23034672       -2.66465275
 C           -2.38147608       -2.21548610        1.31299873
 C           -2.62747112       -2.21749397       -0.06280730
 C           -1.75468036       -0.83137870        3.10350256
 C           -1.07066188        0.44999113        3.05582797
 C           -2.80775654       -1.09225596        2.14216831
 C           -0.60939702        2.32933268        1.62010400
 C           -1.52037845        1.42276103        2.17257757
 C           -0.17396048        3.93784286       -0.19829513
 C           -0.50004232        3.46245390       -1.53547000
 C           -1.08567916        3.27833342        0.71226682
 C           -1.91456535        1.52460677       -2.03771613
 C           -1.77150544        2.77467986       -1.44164632
 C           -2.25369452        2.95662823       -0.07997380
 C           -3.07778383       -0.64050706       -1.91129350
 C           -3.44005008       -1.23071254       -0.62775323
 C           -3.06535581        0.79960624       -1.73730547
 C           -3.43572537       -0.00877529        1.54887163
 C           -2.80500361        1.30320548        1.63020008
 C           -3.15950633        2.03867467        0.42607285
 C           -3.96019803       -0.16314680        0.20820660
 C           -3.76215087        1.09230073       -0.49693586




