%chk=000421.chk
%mem=8GB
%Nproc=32
#p B3LYP/6-31G* opt pop=NPA

Template file

0 1
 C            4.45327529        0.54566464        1.12605534
 C            4.46071118        0.83730214       -0.29807613
 C            4.30644029       -0.41810406       -1.00765027
 C            4.08994219       -0.85049748        1.28958810
 C            4.13861109       -1.46876329       -0.01510195
 C            2.83987465       -0.91004966        2.03050991
 C            3.40657388        1.34528826        1.73405728
 C            2.45486180        0.44919462        2.36532825
 C            3.50098159        1.89846853       -0.54157516
 C            2.90387041        2.26839921        0.73357961
 C            2.68482088        1.83193111       -1.66493956
 C            3.23570322       -0.55164724       -1.98538989
 C            2.51229460        0.56580579       -2.37169886
 C            3.00721610       -2.27251751       -0.41741603
 C            2.52361370       -1.78195798       -1.69568513
 C            1.84081196       -1.79563945        1.63163197
 C            2.05316737       -2.63574412        0.52379018
 C            0.53177810       -1.53625844        2.05481401
 C            1.10854518        0.79297645        2.30606713
 C            0.14041639       -0.21621800        2.30269811
 C            1.55026209        2.58997131        0.77011294
 C            0.77214708        2.04505053        1.79781788
 C            1.38761705        2.47915360       -1.61875566
 C            0.92400771        2.99514352       -0.41291383
 C            1.09931235        0.41645168       -2.67989966
 C            0.47169192        1.69817429       -2.43357683
 C            1.15366418       -1.88878071       -1.94978816
 C            0.42359088       -0.74940939       -2.32192754
 C            0.96516231       -3.32782107        0.01320058
 C            0.49135157       -2.92887087       -1.30623793
 C           -0.43276718       -2.51854352        1.87832573
 C           -0.19400305       -3.51072256        0.85587117
 C           -1.83340956       -2.14428640        1.80151353
 C           -1.21560186        0.14341066        2.26867345
 C           -2.20239187       -0.81498392        2.00506979
 C           -0.53381409        2.48130609        1.94982866
 C           -1.55341596        1.49803204        2.27706690
 C           -0.41144685        3.37667338       -0.35790097
 C           -1.07636275        3.35276318        0.92899915
 C           -0.87746666        1.73569638       -2.11690291
 C           -1.32796221        2.79062627       -1.32462456
 C           -0.96371405       -0.69004845       -2.10421201
 C           -1.62052811        0.55539165       -2.16075989
 C           -0.95399439       -2.95229962       -1.28277782
 C           -1.35224400       -3.53063489       -0.01282830
 C           -2.43647607       -2.89286115        0.70054383
 C           -1.66583988       -1.85512722       -1.75053890
 C           -3.40242610       -2.25784547       -0.06174779
 C           -3.00859236       -1.77447636       -1.38241733
 C           -3.47375345       -0.40957483        1.58809401
 C           -4.14876856       -1.19257821        0.56809611
 C           -2.79767590        1.93930285        1.66851840
 C           -2.46288565        2.98331005        0.71300703
 C           -2.64174189        2.71997911       -0.70703045
 C           -3.73706842        0.99018760        1.29969835
 C           -2.99377065        0.64129607       -1.94165662
 C           -3.74322183       -0.55927408       -1.64608830
 C           -4.57634006       -0.29135505       -0.48487895
 C           -3.50419634        1.70032288       -1.08318394
 C           -4.29043727        1.05961711       -0.04437608




