%chk=000472.chk
%mem=8GB
%Nproc=32
#p B3LYP/6-31G* opt pop=NPA

Template file

0 1
 C            4.14886876       -1.91732357       -0.71039626
 C            4.31254164       -1.29716883        0.59180413
 C            4.69199003        0.07908664        0.35561087
 C            3.99488751       -0.84905386       -1.68316734
 C            4.39114634        0.38194121       -1.03835271
 C            2.65523305       -0.94492038       -2.23513128
 C            2.90521582       -2.66113944       -0.68501367
 C            2.07456052       -2.19135002       -1.78089266
 C            3.11444772       -1.57714804        1.37353718
 C            2.34894959       -2.57582287        0.65418578
 C            2.43047210       -0.54018389        2.00626754
 C            4.07314454        1.10607589        1.16613615
 C            2.99855792        0.73758810        2.07063908
 C            3.46591623        1.49707130       -1.04811941
 C            3.52565455        2.10540744        0.26306745
 C            1.83079354        0.17392446       -2.27713818
 C            2.21488728        1.36795794       -1.64521135
 C            0.47506605       -0.03245066       -2.54271699
 C            0.69825984       -2.23557747       -1.58827232
 C           -0.10901268       -1.25240401       -2.17535977
 C            0.96517278       -2.55143339        0.75154874
 C            0.25021593       -2.81908052       -0.40902019
 C            1.07037096       -0.69913097        2.29863007
 C            0.35175702       -1.75844758        1.72694521
 C            0.38202411        0.36697247        2.86523039
 C            2.12475390        1.89349326        2.12230070
 C            2.28392293        2.58182991        0.85160680
 C            0.84381559        1.72089401        2.61329988
 C            1.22414357        2.28040654       -1.28883109
 C            1.16196190        2.73376968        0.03766525
 C           -0.32487121        1.08639003       -2.72290330
 C            0.08247418        2.32008806       -2.07553830
 C           -1.76311240        0.96936892       -2.60038929
 C           -1.49856837       -1.35221330       -1.99010452
 C           -2.32534029       -0.23088251       -2.18060152
 C           -1.10250872       -3.04483720       -0.28214479
 C           -1.96905345       -2.46330135       -1.28310585
 C           -1.05137613       -1.80193546        1.81469679
 C           -1.70856855       -2.72361591        0.99154775
 C           -1.06360283        0.39454118        2.80678776
 C           -1.76117418       -0.72292146        2.37348527
 C           -0.25028537        2.41698253        1.95859047
 C           -0.08295062        2.88457612        0.65925191
 C           -1.46428623        1.70074342        2.30210797
 C           -1.10316760        2.96103348       -1.55088684
 C           -2.25107340        2.20543037       -2.01311927
 C           -1.21366969        3.11252279       -0.11598750
 C           -2.57531026        1.78131012        1.46654762
 C           -3.19397750        2.11674437       -0.91650618
 C           -2.49367978        2.54431201        0.29379435
 C           -3.60694421       -0.18178222       -1.61788432
 C           -4.00638847        0.99674534       -0.85898126
 C           -3.29772643       -2.46906182       -0.70451501
 C           -3.13219612       -2.61453530        0.73823600
 C           -4.15851774       -1.33787671       -0.94091664
 C           -3.11075618       -0.52891273        2.07373837
 C           -3.52940991        0.76938801        1.56352674
 C           -4.42097326        0.53315928        0.44545629
 C           -3.86271819       -1.54921358        1.37472006
 C           -4.65998609       -0.89602983        0.35024522




