%chk=001329.chk
%mem=8GB
%Nproc=32
#p B3LYP/6-31G* opt pop=NPA

Template file

0 1
 C            3.56568337       -1.92250435        0.95435225
 C            3.32678770       -2.43828614       -0.37587498
 C            3.58997651       -1.36696958       -1.32501660
 C            4.09575222       -0.57646044        0.80975392
 C            3.85931147       -0.16058523       -0.56001389
 C            3.54336274        0.22109907        1.87909296
 C            2.44859130       -1.85310286        1.88135158
 C            2.58613146       -0.60465512        2.60198171
 C            1.17975922       -2.25615983        1.46022589
 C            2.01574708       -2.97106688       -0.67648412
 C            1.06171310       -3.07770078        0.33197938
 C            2.50981545       -1.35598374       -2.30040157
 C            1.58857613       -2.42312395       -1.95099095
 C            1.99865653       -0.13757445       -2.71347415
 C            3.10730995        0.98593913       -0.82333413
 C            2.45173488        1.07478735       -2.05280864
 C            2.87195700        1.45900269        1.54257962
 C            2.78091063        1.87594082        0.21410517
 C            1.40169266        0.19810553        2.82800262
 C            1.68707258        1.54619719        2.37889690
 C            0.04394922       -1.60536707        1.96813218
 C            0.15587397       -0.33033164        2.53855434
 C           -1.22757943       -2.11562031        1.68815653
 C           -0.20767406       -3.46600038       -0.07546347
 C           -1.34745707       -3.14744901        0.75817903
 C            0.21825822       -2.26780122       -2.14817763
 C           -0.59166408       -3.15133842       -1.44407929
 C            0.56628271       -0.00597650       -2.92136712
 C           -0.29105156       -0.99816120       -2.46462251
 C            1.42790228        2.07648020       -2.25983812
 C            0.21918595        1.38425025       -2.69508192
 C            1.93978600        2.95825600       -0.04242547
 C            1.32027574        3.11145573       -1.34986985
 C            0.63560699        2.34654262        1.94017024
 C            0.92997329        3.28636017        0.95118884
 C           -0.91485112        0.54997492        2.45298893
 C           -0.68258141        1.88490017        2.09169306
 C           -2.35616310       -1.38228261        2.06819493
 C           -2.20065547        0.02115025        2.41620386
 C           -3.59555383       -1.50595597        1.31693321
 C           -2.50600440       -3.21059218       -0.11847423
 C           -2.02406455       -2.96043502       -1.46601758
 C           -3.61059734       -2.30716612        0.11193394
 C           -1.59754097       -0.64915882       -2.09875519
 C           -2.52172885       -1.66275635       -1.86101355
 C           -3.66741862       -1.39277545       -1.02328048
 C           -1.00565576        1.70752189       -2.11233022
 C           -1.90528669        0.68300552       -1.76583163
 C            0.01733322        3.72005401       -1.15293792
 C           -0.13747651        3.98621990        0.26811124
 C           -1.16155386        2.99028116       -1.58519758
 C           -1.74639278        2.66195868        1.63053676
 C           -1.50404621        3.67620294        0.62266874
 C           -2.17852992        3.23249309       -0.58870535
 C           -3.27358189        0.76824397        1.77507812
 C           -4.00187551       -0.16816317        0.93731727
 C           -3.83511587       -0.05695408       -0.50177003
 C           -3.03699243        0.97732478       -0.97903863
 C           -2.97436059        2.00606250        1.23057416
 C           -3.04151568        2.13864834       -0.21626061




