%chk=000316.chk
%mem=8GB
%Nproc=32
#p B3LYP/6-31G* opt pop=NPA

Template file

0 1
 C            4.78469927       -0.76366544       -0.46084045
 C            3.98545644       -1.93413031       -0.14988353
 C            3.63945895       -1.87189221        1.25074324
 C            4.71804022        0.13193742        0.68418637
 C            3.98087402       -0.54196596        1.73234828
 C            4.23388525        1.41092666        0.21228239
 C            4.16113713       -0.08814922       -1.58691583
 C            4.00826344        1.29886746       -1.22274907
 C            2.90390809       -2.00573004       -1.11229319
 C            2.97161165       -0.83332456       -1.96542035
 C            1.64524860       -2.41712958       -0.69919286
 C            2.25950422       -2.12196387        1.61761534
 C            1.36501008       -2.59030723        0.66576393
 C            2.75824440        0.05706252        2.24723435
 C            1.81626577       -1.02908378        2.45287303
 C            3.02645658        1.98021061        0.79459231
 C            2.28289849        1.26933403        1.73769392
 C            2.73886518        1.93190528       -1.50145578
 C            2.32192036        2.62287975       -0.29515927
 C            1.78021050       -0.15331423       -2.25411122
 C            1.76316992        1.25180268       -2.22699467
 C            0.58180379       -2.12267334       -1.54385933
 C            0.57163675       -0.86968906       -2.16868815
 C           -0.61493538       -2.77103568       -1.28386521
 C            0.02332374       -2.63597322        1.03596367
 C           -0.84880318       -3.15583237        0.09214809
 C            0.46106199       -0.72878276        2.45431858
 C           -0.44663857       -1.65923022        1.93191683
 C            0.91956301        1.55183834        1.85943053
 C            0.09409526        0.60966342        2.48406744
 C            0.96748474        2.88648387       -0.15087318
 C            0.35093555        2.55016275        1.05416303
 C            0.54689379        1.90877844       -2.34748678
 C            0.19941002        2.86987250       -1.31203714
 C           -0.64696909       -0.22248073       -2.42055250
 C           -0.64974951        1.15044549       -2.63495478
 C           -1.85011847       -2.20906279       -1.78108208
 C           -1.86191353       -0.87657381       -2.18171698
 C           -2.27014768       -3.09573852        0.33623507
 C           -2.90229707       -2.72227718       -0.91729768
 C           -1.81987972       -1.36956341        2.00730791
 C           -2.74393115       -2.17960044        1.34747810
 C           -1.23691077        0.91196156        2.72140803
 C           -2.23066755       -0.12309066        2.48821786
 C           -0.99296032        2.87583464        1.22096567
 C           -1.76443674        2.16217229        2.21783367
 C           -1.24873257        2.91418512       -1.21464384
 C           -1.77259528        1.94439557       -2.16515931
 C           -1.83102318        3.03381043        0.04072643
 C           -3.04448124       -0.13306504       -2.09805249
 C           -2.97183929        1.30287652       -1.90138461
 C           -4.02928978       -1.87300053       -0.59495206
 C           -3.97052003       -1.59209627        0.83337277
 C           -4.15471306       -0.60907301       -1.28823197
 C           -3.41885150        0.51755773        1.93688932
 C           -3.08687687        1.90729944        1.67322736
 C           -3.10992515        2.39328929        0.30396086
 C           -3.70637597        1.61291324       -0.68156299
 C           -4.20137363       -0.17181637        1.01979719
 C           -4.43438092        0.41284483       -0.29334424




