%chk=001000.chk
%mem=8GB
%Nproc=32
#p B3LYP/6-31G* opt pop=NPA

Template file

0 1
 C            4.01219437        1.74631412        0.51263539
 C            3.10778630        2.04592969        1.60595129
 C            2.63763534        0.79086994        2.16833950
 C            4.17481981        0.30721165        0.45998919
 C            3.34526256       -0.28441175        1.49507669
 C            3.94391673       -0.10519726       -0.90864602
 C            3.35387868        2.15448341       -0.71759721
 C            3.21316193        0.98112607       -1.55286524
 C            2.11890741        2.97337137        1.10067921
 C            2.16034808        2.88403551       -0.35115033
 C            0.87303617        2.96966033        1.70500430
 C            1.27578022        0.65061817        2.43798525
 C            0.48561601        1.80086676        2.48803356
 C            0.66396911       -0.59485082        2.25856112
 C            2.65636210       -1.45206452        1.19648968
 C            1.42742391       -1.68425488        1.80967045
 C            3.50790430       -1.40414949       -1.11827631
 C            2.97013678       -2.13971079        0.01900936
 C            2.61516301       -1.64827898       -2.23388106
 C            1.98242599        0.71335910       -2.15446558
 C            1.77076694       -0.55827683       -2.68518208
 C            0.97098023        2.63378014       -1.02900067
 C            0.87694502        1.54119675       -1.90739080
 C           -0.27931946        3.31672818        0.89616765
 C           -0.19969179        3.16483446       -0.48902240
 C           -0.96262610        1.68545004        2.40515194
 C           -1.43780997        2.79930834        1.60246745
 C           -0.72979329       -0.70439525        2.37177616
 C           -1.53482179        0.43129060        2.23450887
 C           -1.32509921       -1.95983250        2.41263300
 C            0.81987697       -2.91543790        1.59160180
 C           -0.56195185       -3.11004488        1.98148441
 C            2.04157326       -3.13116710       -0.50496272
 C            1.75488491       -2.76463257       -1.88037502
 C            0.98570555       -3.54220298        0.29342892
 C            0.41581704       -1.07114106       -2.79674428
 C            0.39014380       -2.41161178       -2.23734061
 C           -0.38455620        1.13819422       -2.35586901
 C           -0.64362147       -0.22176203       -2.53129587
 C           -1.37837010        3.05077630       -1.21540660
 C           -1.45519580        2.01559209       -2.22980431
 C           -2.62740976        2.66612808        0.90673201
 C           -2.63843589        3.05210027       -0.49287025
 C           -2.82031251        0.32818117        1.68222608
 C           -3.37635525        1.42516050        1.02291357
 C           -2.65125491       -2.11301184        1.85529791
 C           -3.32752665       -0.92975711        1.36273746
 C           -1.25453799       -3.68331655        0.83523334
 C           -0.34353273       -3.59469494       -0.28830201
 C           -0.64447680       -2.76331611       -1.37257780
 C           -2.54082287       -3.03546303        0.73522653
 C           -1.83607474       -0.76711957       -2.05371713
 C           -3.70174860       -1.19658930       -0.01945135
 C           -1.81018495       -1.98361166       -1.36044131
 C           -2.83613350       -2.27151482       -0.45863082
 C           -2.80178640        1.47110686       -2.21338785
 C           -3.55885649        2.17934698       -1.19686589
 C           -4.03891968        1.19167957       -0.24951397
 C           -2.96488690        0.04722228       -1.97884927
 C           -3.88630889       -0.11410465       -0.86312831




