%chk=000720.chk
%mem=8GB
%Nproc=32
#p B3LYP/6-31G* opt pop=NPA

Template file

0 1
 C            4.11147700        1.52459432        0.91806091
 C            4.32922155        0.69793784       -0.25471898
 C            4.13069707       -0.68845355        0.13429609
 C            3.56243206        0.67704485        1.96185842
 C            3.65584978       -0.69869610        1.51346370
 C            2.25626028        1.20208165        2.33284039
 C            3.10172686        2.50852689        0.58042314
 C            2.03864984        2.41479986        1.56412180
 C            3.53780914        1.24488131       -1.34709037
 C            2.74166684        2.33818468       -0.81547855
 C            2.96383496        0.37245828       -2.25938510
 C            3.58501979       -1.56958808       -0.79430799
 C            3.16816766       -1.05758807       -2.09078201
 C            2.60153845       -2.55425461       -0.36978366
 C            2.64656782       -1.57427442        1.88562431
 C            2.20924390       -2.60662702        0.96095369
 C            1.19074201        0.31504809        2.51282344
 C            1.45954074       -1.04825706        2.54951921
 C           -0.11842945        0.75743703        2.27148108
 C            0.74777435        2.68387944        1.14386433
 C           -0.29658742        2.06990099        1.82674911
 C            1.39260822        2.44504496       -1.14353567
 C            0.54814855        3.01977773       -0.19597530
 C            1.58427516        0.57799428       -2.67059928
 C            0.82707147        1.59622843       -2.10302599
 C            1.93831983       -1.73162974       -2.46719481
 C            1.58857248       -2.66258824       -1.40997667
 C            0.96513587       -0.72191136       -2.84205998
 C            0.24882249       -2.77669582       -1.04798288
 C            0.82466916       -2.90502138        1.27480755
 C            0.38842082       -1.98753574        2.31547457
 C           -0.06996443       -3.19273698        0.25081213
 C           -1.18261485       -0.16351767        2.19036682
 C           -0.92626974       -1.54472262        2.27293474
 C           -2.48675455        0.29686424        1.92221467
 C           -1.57382012        2.55644113        1.60228539
 C           -2.70269651        1.65193126        1.68265615
 C           -0.73991170        3.34544925       -0.59321085
 C           -1.76091085        3.39844113        0.43448043
 C           -0.56527314        1.50691373       -2.17405007
 C           -1.29581292        2.59226519       -1.70201738
 C           -0.35026008       -0.88893082       -2.42585569
 C           -0.70596305       -2.08400999       -1.80443329
 C           -1.16330666        0.23635954       -2.25425687
 C           -2.05053791       -2.33904424       -1.58815904
 C           -1.41000858       -3.26510143        0.61177546
 C           -1.84208748       -2.44319888        1.73407618
 C           -2.40674180       -3.12448727       -0.42597059
 C           -3.46990813       -0.59516030        1.48206389
 C           -3.19489010       -2.01305995        1.47923106
 C           -3.58574348       -2.53682308        0.18006622
 C           -2.52196312        0.05270985       -1.94364242
 C           -2.99354586       -1.23654035       -1.68862137
 C           -4.20603216       -0.29408388        0.25827640
 C           -3.98146685       -1.40759244       -0.63737092
 C           -3.63507127        2.02040531        0.62903057
 C           -3.02129262        3.04898083       -0.18618945
 C           -2.71818463        2.45461609       -1.47817583
 C           -4.07644954        0.97735278       -0.27015042
 C           -3.29176515        1.12758013       -1.49263040




