%chk=001024.chk
%mem=8GB
%Nproc=32
#p B3LYP/6-31G* opt pop=NPA

Template file

0 1
 C            4.14066260       -1.10682377       -1.02719167
 C            3.23075610       -2.22640295       -1.17106091
 C            2.16249272       -1.83189351       -2.07395854
 C            3.57770598        0.01327158       -1.75812460
 C            2.32747112       -0.41673339       -2.35360066
 C            3.54702192        1.15192109       -0.86200561
 C            4.16178967       -0.74141780        0.37793624
 C            3.96608781        0.69000065        0.45931227
 C            2.86419285       -2.67378516        0.15930729
 C            3.22358195       -1.60241173        1.07703279
 C            1.62943174       -3.28016074        0.30655547
 C            0.88388264       -2.31546476       -1.82166327
 C            0.73506624       -3.29433781       -0.83813832
 C           -0.21646650       -1.52032324       -2.14992852
 C            1.22445689        0.42085977       -2.24305619
 C           -0.05967483       -0.13283127       -2.24426800
 C            2.47806868        2.04155132       -0.95321456
 C            1.40917183        1.73554065       -1.80715910
 C            2.26309020        2.91004612        0.11427029
 C            3.30306843        1.18956896        1.57050188
 C            2.64920096        2.47625685        1.44225086
 C            2.24021235       -1.01999908        1.88458805
 C            2.39208772        0.30726748        2.29483496
 C            0.80433531       -2.89543219        1.43154061
 C            0.98670947       -1.63436035        1.99620013
 C           -0.59027538       -3.58164993       -0.32059663
 C           -0.53891892       -3.35342307        1.12277023
 C           -1.49051734       -2.05868206       -2.00041556
 C           -1.68814632       -3.13820788       -1.04483964
 C           -2.63925402       -1.17621355       -1.92518237
 C           -1.17465335        0.71404535       -2.23214080
 C           -2.45186163        0.20106833       -1.95982113
 C            0.34121022        2.62120667       -1.90657345
 C           -0.96764721        2.09474114       -2.26089752
 C            0.98060156        3.56989667        0.24546188
 C            0.14898290        3.61860209       -0.86187026
 C            1.44452149        2.44795101        2.25225349
 C            1.20772733        1.07711865        2.63627704
 C            0.40918833        3.13671538        1.51518343
 C           -0.13372617       -0.87035347        2.34845193
 C           -0.03801013        0.51513696        2.39762210
 C           -1.60959932       -2.74254814        1.75954748
 C           -1.39264518       -1.45426609        2.39662939
 C           -2.93652871       -2.89729456       -0.34627017
 C           -3.55986392       -1.72911909       -0.94075859
 C           -2.89682222       -2.69936264        1.08992350
 C           -2.55631339       -0.62216833        2.14699096
 C           -4.02604852       -0.87138379        0.13692266
 C           -3.50841540       -1.41449819        1.38128495
 C           -3.39263105        0.98998432       -1.29578495
 C           -3.95280260        0.49894945       -0.05167434
 C           -1.95117736        2.97969121       -1.66992495
 C           -1.27749784        3.72202558       -0.62232667
 C           -3.13441963        2.39756874       -1.07927362
 C           -0.88700544        2.62836926        1.51984829
 C           -1.11069475        1.30632185        1.95139412
 C           -2.38218215        0.72236628        1.81684055
 C           -3.33214230        1.30919246        0.98167569
 C           -1.78670154        3.22688320        0.64316910
 C           -3.05013391        2.58742945        0.36514297




