%chk=000534.chk
%mem=8GB
%Nproc=32
#p B3LYP/6-31G* opt pop=NPA

Template file

0 1
 C            4.55481240       -0.96259803        0.42186136
 C            3.78957789       -1.24710939        1.62604628
 C            3.46226949        0.01649834        2.24137308
 C            4.44132884        0.46046903        0.15818919
 C            3.92567031        1.07727499        1.35562126
 C            3.69823944        0.63335429       -1.07683257
 C            3.91756340       -1.66812312       -0.67457979
 C            3.42689663       -0.68882715       -1.62695805
 C            2.70648357       -2.13783359        1.25712308
 C            2.96271611       -2.58901350       -0.10048260
 C            1.39016869       -1.84507706        1.63053432
 C            2.07438066        0.29554569        2.55877213
 C            1.08051526       -0.62740831        2.25242654
 C            2.83773103        2.02090299        1.21853651
 C            1.84082183        1.68139712        2.21913188
 C            2.70790930        1.61240717       -1.16669466
 C            2.39204549        2.40466512       -0.04679194
 C            1.79885272        1.49640799       -2.21714617
 C            2.20360539       -0.92062309       -2.25928535
 C            1.48358701        0.17425677       -2.73174499
 C            1.87212848       -2.94217876       -0.87192671
 C            1.54052468       -2.13143589       -2.04122859
 C            0.36013766       -2.56768602        1.02097532
 C            0.61896803       -3.20112076       -0.19644083
 C           -0.96967226       -2.29648325        1.35636022
 C           -0.23680030       -0.18083876        2.22976805
 C           -1.25547109       -1.10643146        2.03773600
 C            0.53765307        2.10664705        1.99290185
 C           -0.51442057        1.19371931        2.15438922
 C            1.24984370        3.20318589       -0.06770498
 C            0.37879149        3.15675014        1.09541281
 C            0.58009019        2.27972549       -2.22617408
 C            0.39300194        3.23077508       -1.24034122
 C            0.03646495        0.08968079       -2.88439133
 C           -0.52051963        1.39499045       -2.59368455
 C            0.09318545       -2.20907656       -2.21390593
 C           -0.39268790       -3.16349930       -1.23079482
 C           -0.63690266       -1.04541316       -2.45550073
 C           -1.96032991       -2.91038259        0.58554249
 C           -1.70978753       -3.08028241       -0.83012026
 C           -3.33937582       -2.47878083        0.69224722
 C           -2.56953724       -0.69635597        2.24211220
 C           -3.66096356       -1.44185301        1.64262043
 C           -1.83318709        1.62206426        1.94381637
 C           -2.87848184        0.71793940        2.12478503
 C           -0.94949540        3.52471747        0.66552416
 C           -0.95719623        3.51537413       -0.79052524
 C           -2.06623448        2.71494152        1.10602664
 C           -1.73827936        1.48125175       -1.92488178
 C           -2.03681504        2.63472643       -1.20050973
 C           -2.92091723        2.53561647       -0.05591903
 C           -1.94982795       -0.94081085       -1.97814447
 C           -2.55241295       -2.09553348       -1.47135257
 C           -3.73004522       -2.00293224       -0.63144532
 C           -2.50355138        0.32789219       -1.71782475
 C           -4.52596625       -0.49780882        0.96001943
 C           -4.03116429        0.83447556        1.24579259
 C           -3.84063550        1.50456687       -0.02486623
 C           -4.36457949       -0.71906589       -0.46846304
 C           -3.71070692        0.45236352       -1.01898335




