%chk=001660.chk
%mem=8GB
%Nproc=32
#p B3LYP/6-31G* opt pop=NPA

Template file

0 1
 C            3.10172317       -2.40729865        0.84093126
 C            3.67777384       -1.14536005        1.23822943
 C            4.05690358       -0.43994079        0.02578315
 C            3.03102334       -2.42398278       -0.61513026
 C            3.39531743       -1.10831678       -1.08154081
 C            1.73355570       -2.94656147       -0.97161374
 C            1.78195182       -2.75457802        1.32728660
 C            1.15576993       -3.48673318        0.24789488
 C            1.01881351       -1.81781040        2.02655935
 C            2.87451080       -0.23495698        2.02484923
 C            1.55578479       -0.55826308        2.35249716
 C            3.79090507        0.97325786        0.23661864
 C            3.17307311        1.10442860        1.54992549
 C            3.28610587        1.70699582       -0.82965255
 C            2.50291482       -0.37620196       -1.86123420
 C            2.75210225        0.98799908       -1.97673691
 C            0.91326590       -2.22642633       -1.83750599
 C            1.21369068       -0.88345883       -2.12793387
 C           -0.38925490       -2.69157471       -1.99608854
 C           -0.21410664       -3.67381623        0.28859209
 C           -0.94500153       -3.54554562       -0.95816435
 C           -0.35870224       -2.04109219        2.14101515
 C           -0.98163352       -2.97607717        1.31096331
 C           -1.15584808       -1.10991003        2.79640170
 C            0.71615757        0.46232752        2.80369122
 C           -0.57928054        0.15698368        3.19934679
 C            2.24087148        2.10786566        1.77610557
 C            1.04446198        1.79393084        2.53955745
 C            2.39904908        2.82935353       -0.57422874
 C            1.84317753        2.99224356        0.68837301
 C            1.78420704        1.84253468       -2.61744050
 C            1.55234305        2.98482182       -1.74268040
 C            0.22136129       -0.05112025       -2.68441767
 C            0.49509679        1.28832475       -2.95823282
 C           -1.43534798       -1.78316796       -2.41809908
 C           -1.11463449       -0.46213202       -2.70244433
 C           -2.27606972       -3.06348603       -0.64379225
 C           -2.28898831       -2.66355346        0.75103568
 C           -2.63648056       -2.08429907       -1.64409685
 C           -2.49829951       -0.85178415        2.29373567
 C           -2.90836285       -1.46948474        1.11420817
 C           -1.61029558        1.17457267        3.07777849
 C           -2.79307047        0.55192013        2.51032276
 C            0.00598807        2.71788985        2.11086147
 C            0.41266651        3.24159099        0.81997928
 C           -1.32013726        2.37263594        2.31093701
 C            0.11532683        3.10755712       -1.56785900
 C           -0.49136380        2.29054208       -2.60126271
 C           -0.42888601        3.09338848       -0.28352674
 C           -2.13012092        0.49577137       -2.69600999
 C           -1.80104711        1.88465852       -2.43396867
 C           -3.46888418       -1.04272194       -1.26515921
 C           -3.62227578       -0.73780750        0.15426759
 C           -3.35936034        0.21406385       -1.97764024
 C           -3.22606939        1.35383518        1.38531548
 C           -2.23460147        2.40412684        1.18109637
 C           -1.74993978        2.66692967       -0.10356048
 C           -2.49189403        2.25322999       -1.21026966
 C           -3.76748977        0.70910045        0.28366878
 C           -3.56844606        1.29458185       -1.02753766




