%chk=000733.chk
%mem=8GB
%Nproc=32
#p B3LYP/6-31G* opt pop=NPA

Template file

0 1
 C            4.17861843       -1.42655656       -0.79116483
 C            4.35565190       -0.07478925       -0.29906722
 C            3.91665203       -0.03419033        1.08865390
 C            3.58876162       -2.20576288        0.27989405
 C            3.26515845       -1.30110261        1.36967194
 C            2.50694395       -2.97385610       -0.29812084
 C            3.20468465       -1.37441757       -1.86902751
 C            2.17459484       -2.34399814       -1.56797938
 C            3.71943990        0.81948743       -1.24946150
 C            2.81245459        0.00814614       -2.04685167
 C            3.26706190        2.04042642       -0.77851981
 C            3.33418535        1.13519118        1.55204554
 C            3.30990830        2.27851362        0.65763244
 C            2.02669886        1.06382537        2.19045062
 C            1.96601425       -1.32168635        1.88051441
 C            1.29695753       -0.11592202        2.12259808
 C            1.45233895       -3.31020918        0.53464333
 C            1.22671958       -2.48913053        1.72032849
 C            0.14910541       -3.50505947       -0.06841901
 C            0.84343058       -2.01473425       -1.80269467
 C           -0.12559870       -2.86519357       -1.27564494
 C            1.45536115        0.32982165       -2.07261317
 C            0.49195340       -0.68620430       -2.09608902
 C            1.98276445        2.53340153       -1.24299289
 C            1.06559163        1.64578665       -1.81736921
 C            2.15244861        3.07757126        1.00347009
 C            1.35335041        2.32745651        1.96071133
 C            1.51987776        3.47578040       -0.23913780
 C           -0.02918491        2.35554952        1.80525950
 C           -0.10421202       -0.06411128        2.09984161
 C           -0.76864819        1.16859625        1.94080843
 C           -0.20279826       -2.46599142        1.96495677
 C           -0.80446220       -3.39202360        1.01737232
 C           -0.83423827       -1.25227000        2.21792947
 C           -2.14479835       -3.24186891        0.70101380
 C           -1.45039355       -2.65736491       -1.62923547
 C           -2.49296720       -3.06384796       -0.69932841
 C           -0.85973524       -0.34457753       -2.19366685
 C           -1.81789596       -1.36205772       -2.16994324
 C           -0.29035912        1.98571805       -1.82328176
 C           -1.25541063        0.98925743       -2.03878014
 C            0.16712266        3.74203905       -0.19383801
 C           -0.54275418        3.38754822        1.02191492
 C           -0.65873040        3.20837475       -1.25330010
 C           -1.94433306        3.38340487        0.67221812
 C           -2.01281930        3.41025203       -0.78495392
 C           -2.16417234        1.20080624        1.77039327
 C           -2.75963625        2.27771345        1.11261409
 C           -2.22229222       -1.22037894        2.16901693
 C           -2.92286866       -2.28681414        1.46919756
 C           -2.89811635        0.02173906        1.86351124
 C           -3.56711017       -2.09162886       -0.77864137
 C           -3.17942589       -1.07501741       -1.74401777
 C           -3.88881125       -1.67705154        0.57316439
 C           -3.92142997       -0.25815724        0.85999747
 C           -2.61639216        1.28838685       -1.91559747
 C           -3.02771134        2.46960133       -1.18956945
 C           -3.67584216        2.00214047        0.02275445
 C           -3.53806848        0.24417268       -1.51191453
 C           -4.06263433        0.62526617       -0.20135667




