%chk=001772.chk
%mem=8GB
%Nproc=32
#p B3LYP/6-31G* opt pop=NPA

Template file

0 1
 C            4.00584242        0.68789445        0.38341377
 C            3.74049972       -0.58869657        1.02780720
 C            2.89782876       -0.33079976        2.18741560
 C            3.37544694        1.72594071        1.18008932
 C            2.54471451        1.07907317        2.17804951
 C            2.74585954        2.66233439        0.27285127
 C            3.60540415        0.88358328       -1.00189760
 C            2.72324708        2.03760910       -1.04425717
 C            3.30634111       -0.22472084       -1.78004738
 C            3.50569026       -1.70670794        0.23522983
 C            3.47954298       -1.55189440       -1.21027279
 C            2.45750593       -2.64799412        0.60121429
 C            1.93903600       -1.25661319        2.56559969
 C            1.74429931       -2.46549306        1.77632565
 C            0.62576492       -0.77719517        2.95528735
 C            1.20722446        1.46603645        2.29199087
 C            0.23033278        0.51057608        2.59335642
 C            1.60107433        3.31166281        0.70561126
 C            0.82658816        2.70719546        1.78676045
 C            0.65733576        3.74312688       -0.30348812
 C            1.51897249        1.97617730       -1.75185652
 C            0.57649120        2.97585333       -1.53347618
 C            2.07306668       -0.23342143       -2.54953463
 C            1.12571328        0.77381744       -2.34866727
 C            2.42498662       -2.40190500       -1.73245293
 C            1.74275446       -3.02106096       -0.60807944
 C            1.64346569       -1.61778922       -2.67034013
 C            0.34850566       -3.05863367       -0.60720124
 C            0.32480355       -2.77338960        1.79683686
 C           -0.28994006       -1.88456591        2.77168816
 C           -0.34850566       -3.05863367        0.60720124
 C           -1.64346569       -1.61778922        2.67034013
 C           -1.12571328        0.77381744        2.34866727
 C           -2.07306668       -0.23342143        2.54953463
 C           -0.57649120        2.97585333        1.53347618
 C           -0.65733576        3.74312688        0.30348812
 C           -1.51897249        1.97617730        1.75185652
 C           -0.82658816        2.70719546       -1.78676045
 C           -1.60107433        3.31166281       -0.70561126
 C           -0.23033278        0.51057608       -2.59335642
 C           -1.20722446        1.46603645       -2.29199087
 C            0.28994006       -1.88456591       -2.77168816
 C           -0.32480355       -2.77338960       -1.79683686
 C           -0.62576492       -0.77719517       -2.95528735
 C           -1.74429931       -2.46549306       -1.77632565
 C           -1.93903600       -1.25661319       -2.56559969
 C           -1.74275446       -3.02106096        0.60807944
 C           -2.42498662       -2.40190500        1.73245293
 C           -2.45750593       -2.64799412       -0.60121429
 C           -3.30634111       -0.22472084        1.78004738
 C           -3.47954298       -1.55189440        1.21027279
 C           -3.50569026       -1.70670794       -0.23522983
 C           -2.72324708        2.03760910        1.04425717
 C           -2.74585954        2.66233439       -0.27285127
 C           -3.60540415        0.88358328        1.00189760
 C           -2.54471451        1.07907317       -2.17804951
 C           -2.89782876       -0.33079976       -2.18741560
 C           -3.74049972       -0.58869657       -1.02780720
 C           -3.37544694        1.72594071       -1.18008932
 C           -4.00584242        0.68789445       -0.38341377




