%chk=001129.chk
%mem=8GB
%Nproc=32
#p B3LYP/6-31G* opt pop=NPA

Template file

0 1
 C            4.39482634       -0.96810478        0.63127206
 C            3.56427360       -1.58255028        1.65176365
 C            2.99862881       -0.51357087        2.45942703
 C            4.41919972        0.46029769        0.89696978
 C            3.34037471        0.74401525        1.83148058
 C            4.43763549        1.14019085       -0.38154971
 C            4.04820204       -1.14566818       -0.76978964
 C            4.13464742        0.15483395       -1.41112273
 C            2.99922677       -1.98828918       -1.11686202
 C            2.47056643       -2.44926838        1.24857764
 C            2.30348330       -2.75893529       -0.09253395
 C            1.60160442       -0.81507634        2.66765904
 C            1.30183484       -2.08412876        2.03496226
 C            0.66444614        0.19260252        2.54208137
 C            2.31512741        1.62102822        1.46704026
 C            1.00622252        1.40205469        1.91783174
 C            3.53786905        2.25717636       -0.57435059
 C            2.52348538        2.52806144        0.43174549
 C            2.99362094        0.64538665       -2.17297173
 C            2.83547475        2.03650164       -1.82736551
 C            1.99611488       -1.51883775       -2.06167718
 C            1.85849110       -0.15831912       -2.29865490
 C            0.96241217       -3.00346262       -0.58212632
 C            0.81809885       -2.32272357       -1.85863648
 C            0.02155941       -2.26612173        1.50139766
 C           -0.11762746       -2.96565780        0.29625465
 C           -0.66444614       -0.19260252        2.54208137
 C           -1.00622252       -1.40205469        1.91783174
 C           -1.60160442        0.81507634        2.66765904
 C           -0.02155941        2.26612173        1.50139766
 C           -1.30183484        2.08412876        2.03496226
 C            1.37500502        3.03045895       -0.29136749
 C            1.49563510        2.53449854       -1.65377603
 C            0.11762746        2.96565780        0.29625465
 C            0.57189293        0.41587495       -2.32249303
 C            0.42966757        1.80651644       -2.16318590
 C           -0.42966757       -1.80651644       -2.16318590
 C           -0.57189293       -0.41587495       -2.32249303
 C           -1.37500502       -3.03045895       -0.29136749
 C           -1.49563510       -2.53449854       -1.65377603
 C           -2.31512741       -1.62102822        1.46704026
 C           -2.52348538       -2.52806144        0.43174549
 C           -2.99862881        0.51357087        2.45942703
 C           -3.34037471       -0.74401525        1.83148058
 C           -2.47056643        2.44926838        1.24857764
 C           -3.56427360        1.58255028        1.65176365
 C           -0.96241217        3.00346262       -0.58212632
 C           -0.81809885        2.32272357       -1.85863648
 C           -2.30348330        2.75893529       -0.09253395
 C           -1.85849110        0.15831912       -2.29865490
 C           -1.99611488        1.51883775       -2.06167718
 C           -2.99922677        1.98828918       -1.11686202
 C           -2.83547475       -2.03650164       -1.82736551
 C           -3.53786905       -2.25717636       -0.57435059
 C           -2.99362094       -0.64538665       -2.17297173
 C           -4.41919972       -0.46029769        0.89696978
 C           -4.39482634        0.96810478        0.63127206
 C           -4.04820204        1.14566818       -0.76978964
 C           -4.43763549       -1.14019085       -0.38154971
 C           -4.13464742       -0.15483395       -1.41112273




