%chk=000290.chk
%mem=8GB
%Nproc=32
#p B3LYP/6-31G* opt pop=NPA

Template file

0 1
 C            4.95842759       -0.46515103       -0.66162751
 C            4.63364963        0.94324991       -0.53399980
 C            4.35068028        1.20735377        0.86397539
 C            4.68370174       -1.10022651        0.61833323
 C            4.26032581       -0.07264078        1.54772287
 C            3.79504413       -2.21355586        0.36932325
 C            4.05197446       -1.04063147       -1.64200830
 C            3.48220802       -2.22844565       -1.05407089
 C            3.61083975        1.25691488       -1.51705413
 C            3.14964081        0.00395947       -2.09269372
 C            2.66334808        2.22140075       -1.20836034
 C            3.15696803        1.96579190        1.19189965
 C            2.49356307        2.64583064        0.17953153
 C            2.93865946       -0.15447997        2.15405594
 C            2.36722278        1.17827366        2.12713242
 C            2.52848387       -2.28950447        1.07996351
 C            2.10411362       -1.24487322        1.90736568
 C            2.05202847       -2.42984341       -1.16849079
 C            1.57794736       -2.84023004        0.13348012
 C            1.77372638       -0.24373085       -2.16680402
 C            1.26799951       -1.52005717       -1.87202982
 C            1.33300982        2.09081528       -1.77595178
 C            0.89438125        0.84699359       -2.22111101
 C            1.08623360        2.94272022        0.36455721
 C            0.44976224        2.87265062       -0.93930707
 C            0.98078388        1.30796257        2.11562825
 C            0.41126381        2.39832356        1.45316414
 C            0.73023394       -1.09872437        2.11600155
 C            0.19794578        0.17513254        2.35961713
 C            0.23079410       -2.66237072        0.39570540
 C           -0.11078077       -2.08912913        1.61063262
 C           -0.11128441       -1.67006735       -1.75625201
 C           -0.61480522       -2.41513045       -0.68304442
 C           -0.48222737        0.61850681       -2.29335423
 C           -0.92447231       -0.70436853       -2.32717604
 C           -0.90861165        2.59797119       -0.97973792
 C           -1.36177598        1.63304466       -1.88001465
 C           -0.97073056        2.53049936        1.46030444
 C           -1.63050149        2.79873293        0.19272430
 C           -1.18658102        0.31841028        2.49175294
 C           -1.77140315        1.53653588        2.14836104
 C           -1.45770433       -2.03992100        1.92740004
 C           -1.97297012       -0.83063193        2.53768057
 C           -1.98984827       -2.39969875       -0.43735833
 C           -2.40977745       -2.41929103        0.89742523
 C           -2.28452933       -0.96949420       -2.39757271
 C           -2.83401773       -1.90854734       -1.43603233
 C           -2.73531814        1.42678213       -1.98791190
 C           -3.19677086        0.14894727       -2.48447586
 C           -2.98978537        2.29890316        0.28390135
 C           -3.09854850        1.57259444        1.54548908
 C           -3.58668283        1.79278282       -0.86415530
 C           -3.39192141       -0.75888950        2.21537340
 C           -3.68441623       -1.84206836        1.28842613
 C           -3.92762136        0.46138912        1.64553934
 C           -4.18858075       -1.48111837       -1.11925315
 C           -4.41478163       -0.20497740       -1.77572511
 C           -4.62802277        0.78944950       -0.73854901
 C           -4.57506696       -1.33164259        0.26810939
 C           -4.77542327        0.08751853        0.52354504




