%chk=000058.chk
%mem=8GB
%Nproc=32
#p B3LYP/6-31G* opt pop=NPA

Template file

0 1
 C            5.01863389        0.67200263       -0.06610969
 C            4.84264099       -0.57731917       -0.77887068
 C            4.20673972       -1.51375533        0.13045777
 C            4.45757763        0.50452693        1.26576003
 C            3.79942899       -0.78653897        1.31228612
 C            3.67243956        1.68252004        1.54223926
 C            4.21370302        1.67539872       -0.73949246
 C            3.55519811        2.43454320        0.29697493
 C            3.90466094       -0.34058743       -1.86422083
 C            3.38667608        1.00162183       -1.72904592
 C            3.16931316       -2.18540714       -0.61804631
 C            2.95473290       -1.42547461       -1.84414946
 C            2.03055761       -2.60833376        0.05849505
 C            2.45966346       -0.87797308        1.69512418
 C            1.72941076       -2.00091679        1.28839258
 C            2.32708722        1.51540719        2.06205107
 C            1.77242507        0.24686619        2.18808618
 C            2.15121166        2.73492358        0.12962733
 C            1.52712343        2.52594253        1.41794209
 C            1.99967940        1.18405551       -1.70552298
 C            1.46467441        2.26336985       -0.98985385
 C            1.63584512       -1.17342693       -2.20625479
 C            1.14841417        0.14331021       -2.12476477
 C            0.97651409       -2.99708353       -0.75749565
 C            0.75609974       -2.21558671       -1.96208594
 C           -0.31648020       -3.28866550       -0.17566428
 C            0.48341238       -2.21595406        1.87223769
 C           -0.52795273       -2.97875405        1.15887657
 C            0.38808395        0.16705873        2.37665466
 C           -0.18180865       -1.08988968        2.50231392
 C            0.15515034        2.36425149        1.39773656
 C           -0.42140911        1.26821524        2.04806189
 C            0.08164386        2.42205564       -0.96408008
 C           -0.47894122        2.81127027        0.25406627
 C           -0.23621480        0.38130555       -2.16924363
 C           -0.69516323        1.65555612       -1.83149008
 C           -0.66290169       -1.99280665       -2.08202865
 C           -1.31326583       -2.91051207       -1.16437866
 C           -1.14072156       -0.69367038       -2.18634813
 C           -2.60081302       -2.61306705       -0.75093266
 C           -1.82837086       -2.48183325        1.57222722
 C           -1.61001270       -1.25323391        2.32472286
 C           -2.88859047       -2.53729185        0.67639787
 C           -1.81814569        1.12457847        1.94075748
 C           -2.41121776       -0.14421353        2.06752080
 C           -1.84581624        2.96928910        0.33183798
 C           -2.52611695        2.17526697        1.33729450
 C           -2.05951380        1.93229054       -1.89559032
 C           -2.59914913        2.82956584       -0.89215035
 C           -2.50048077       -0.47021339       -1.95285500
 C           -3.27118791       -1.48567999       -1.37171408
 C           -2.99375277        0.82884611       -2.02221384
 C           -3.97049565       -1.58332241        0.84159939
 C           -3.71206100       -0.37913981        1.60825406
 C           -4.37103658       -1.15186642       -0.48650311
 C           -3.88671224        1.98771972        0.87300507
 C           -3.92871057        2.38006479       -0.52856418
 C           -4.20893939        1.18651719       -1.30011804
 C           -4.47420323        0.67539502        0.97081732
 C           -4.78855590        0.22878229       -0.38203029




