%chk=000756.chk
%mem=8GB
%Nproc=32
#p B3LYP/6-31G* opt pop=NPA

Template file

0 1
 C            3.49912184       -2.32072047       -0.99031897
 C            4.09943955       -1.14059489       -0.40027611
 C            3.70579884       -1.08664670        0.99901531
 C            2.63917136       -2.92327698        0.01216552
 C            2.68310305       -2.09886594        1.20328024
 C            1.34690321       -3.14871308       -0.60199806
 C            2.64959277       -1.88167637       -2.08449262
 C            1.34020028       -2.45704081       -1.87790778
 C            3.78509287       -0.00911665       -1.25555554
 C            2.75144286       -0.44169751       -2.18525967
 C            3.67298071        1.24249575       -0.66787514
 C            3.54729275        0.15752574        1.58966918
 C            3.77888774        1.34389585        0.78041684
 C            2.36967647        0.41081134        2.40426414
 C            1.47218861       -1.75526839        1.79982409
 C            1.32263405       -0.51134282        2.42708936
 C            0.20844821       -3.02417301        0.18416076
 C            0.33635727       -2.49919380        1.47650557
 C           -1.00674528       -2.86202919       -0.47806600
 C            0.21453808       -1.70307392       -2.18162780
 C           -1.00355511       -2.16426526       -1.69467799
 C            1.58377006        0.31021834       -2.30360088
 C            0.34562023       -0.33592755       -2.47330561
 C            2.59793748        2.12453715       -1.08842202
 C            1.62511923        1.66704880       -1.97469113
 C            2.86089497        2.37610724        1.22891019
 C            2.06644842        1.83023195        2.30935477
 C            2.17582586        2.90497570        0.06456785
 C            0.74746139        2.23834845        2.42194876
 C            0.05354330       -0.08962454        2.84188437
 C           -0.25796536        1.26931868        2.82035125
 C           -0.81167209       -2.29711866        2.23233971
 C           -0.99913889       -1.00006496        2.85462219
 C           -2.17299728       -2.99113103        0.27030527
 C           -2.09447853       -2.71476470        1.68911658
 C           -3.41610974       -2.42181506       -0.20844894
 C           -2.15663772       -1.55997501       -2.17505334
 C           -3.41384218       -1.72102646       -1.47307431
 C           -0.81053540        0.42785085       -2.69238064
 C           -2.06787310       -0.18484548       -2.62793544
 C            0.47708094        2.43359515       -2.11344003
 C           -0.73416246        1.81616731       -2.61378170
 C            0.83282837        3.25866531        0.16266563
 C            0.16110802        3.07117749        1.37767210
 C            0.10327957        3.32050470       -1.02130594
 C           -1.53245150        1.69481611        2.26022711
 C           -1.27956149        2.83831917        1.40102018
 C           -2.32766588       -0.53298697        2.48831469
 C           -3.06369105       -1.67120388        1.98218277
 C           -3.88963300       -1.49541525        0.81056883
 C           -2.45924735        0.72171602        1.89217689
 C           -3.94890677       -0.39295597       -1.23546661
 C           -3.19966870        0.53950696       -2.05463323
 C           -3.96102755       -0.18311486        0.20053616
 C           -3.22551032        0.88418733        0.72362991
 C           -1.85237980        2.55586042       -2.05518641
 C           -1.34430495        3.38345291       -0.97510982
 C           -2.02307630        2.99433169        0.24447352
 C           -2.98333111        1.81021060       -1.54810449
 C           -3.01761948        1.99378918       -0.10126350




