%chk=001223.chk
%mem=8GB
%Nproc=32
#p B3LYP/6-31G* opt pop=NPA

Template file

0 1
 C            4.41724638        0.51250498        0.39278995
 C            4.42468743       -0.90562333        0.11671305
 C            3.85345025       -1.08684314       -1.21518664
 C            4.09814769        1.18130027       -0.85552743
 C            3.40481952        0.20750580       -1.67602925
 C            3.40150512        2.39878126       -0.50495369
 C            3.47907852        1.02216451        1.37789628
 C            3.14259127        2.35247953        0.92860711
 C            2.46672499        0.18657077        1.86399299
 C            3.69574651       -1.77198673        1.01885227
 C            2.69078550       -1.18845594        1.89575474
 C            2.89064664       -2.15947120       -1.13240825
 C            3.01437648       -2.74254103        0.19119120
 C            1.60816440       -1.98100576       -1.64462067
 C            2.05176985        0.40279062       -1.95964832
 C            1.17233262       -0.69674702       -2.01360871
 C            2.13087241        2.67274316       -1.14427738
 C            1.54427552        1.70949584       -1.95848276
 C            1.79290912        2.81873989        1.13309007
 C            1.30358076        3.31308845       -0.14195550
 C            1.16354223        0.68451010        2.04260011
 C            0.92318683        2.06214016        1.90399467
 C            0.08429985       -0.20738653        2.20952862
 C            1.55996823       -2.09614462        1.90273500
 C            1.79148863       -3.10496346        0.87531121
 C            0.27395808       -1.58728983        2.05484571
 C            0.66025025       -2.92674512       -1.27053329
 C            0.71501952       -3.46523124        0.08393319
 C           -0.73451520       -2.71197017       -1.59625381
 C           -0.17604511       -0.48879465       -2.34709045
 C           -1.12592213       -1.50053783       -2.15196629
 C            0.22774087        1.92613140       -2.33154861
 C           -0.60363504        0.79386976       -2.67767775
 C           -0.07490133        3.34239954       -0.33337125
 C           -0.58258933        2.84402282       -1.53836420
 C           -0.37941883        2.53148871        1.95434369
 C           -0.86726569        3.29164351        0.81209815
 C           -1.21185266        0.28289459        2.42024704
 C           -1.44242641        1.65192932        2.37770393
 C           -2.30467254       -0.58131951        2.32534189
 C           -0.80117507       -2.38816193        1.66459514
 C           -0.61242297       -3.30534440        0.63437615
 C           -1.51132779       -3.27518020       -0.50209317
 C           -2.09305315       -1.96119830        1.93505351
 C           -2.80884169       -2.82993480       -0.30168682
 C           -3.16186453       -2.33714114        1.01968997
 C           -2.48742911       -1.19222174       -2.16360376
 C           -3.38218612       -1.92016576       -1.27793977
 C           -1.98276722        1.18161945       -2.43529711
 C           -1.96787380        2.39910819       -1.63633050
 C           -2.91856223        0.19381491       -2.17284749
 C           -2.29227568        3.05457708        0.69833328
 C           -2.66678431        2.14580644        1.76905534
 C           -2.81702074        2.52201175       -0.54201760
 C           -3.53762927       -0.12196538        1.69434060
 C           -4.04051478       -1.19313857        0.85546456
 C           -4.19586222       -0.94809649       -0.56573979
 C           -3.87326084        0.36947239       -1.08738105
 C           -3.60661701        1.18457528        1.23037408
 C           -3.72245268        1.43542534       -0.20441217




