%chk=000258.chk
%mem=8GB
%Nproc=32
#p B3LYP/6-31G* opt pop=NPA

Template file

0 1
 C            4.46505887        1.22784004       -0.36547158
 C            4.32101988        1.15418272        1.07743716
 C            3.92802566       -0.20073171        1.41633657
 C            4.16959687       -0.08599296       -0.90954308
 C            3.83141332       -0.96758658        0.18730271
 C            3.19137084        0.08349772       -1.96307357
 C            3.45459645        2.14271285       -0.86940517
 C            2.73693120        1.46932168       -1.92847058
 C            3.22469819        2.02458237        1.45805096
 C            2.68924976        2.63465632        0.25268039
 C            2.74979614       -0.12549331        2.26478335
 C            2.31089886        1.25875804        2.29459246
 C            1.78100866       -1.10944283        2.12645859
 C            2.73598751       -1.80851082        0.03842995
 C            1.98348873       -2.10865855        1.17233072
 C            2.23771738       -0.91214436       -2.15612050
 C            2.14264750       -1.95272143       -1.22183274
 C            1.11337509       -0.56637985       -2.89994618
 C            1.37488396        1.71608106       -2.08409932
 C            0.67070299        0.81841951       -2.87074660
 C            1.30763074        2.69892789        0.13603180
 C            0.68462259        2.43056575       -1.09281079
 C            0.94804669        1.52262996        2.17683337
 C            0.56568742        2.53126804        1.29757880
 C            0.47762680       -0.81566531        2.52485352
 C            0.02749073        0.50682990        2.46391879
 C           -0.44260790       -1.85133181        2.57836909
 C            1.08655456       -3.16587171        1.10755920
 C           -0.11212326       -3.10742931        1.92311952
 C            1.14012138       -2.91131080       -1.37288291
 C            0.70670172       -3.65891635       -0.20376580
 C           -0.06428125       -1.41759623       -2.88648645
 C           -0.04917430       -2.58469900       -2.14378954
 C           -0.77346906        0.82603056       -2.84311000
 C           -1.23031333       -0.55462564       -2.82885968
 C           -0.71525417        2.54494411       -1.15312335
 C           -1.44691211        1.75078680       -2.05678122
 C           -0.76245940        2.89885178        1.26147027
 C           -1.35277463        3.11145261       -0.04319352
 C           -1.34336310        0.78847594        2.34312411
 C           -1.70759627        2.09608704        2.00719172
 C           -1.83623348       -1.57242229        2.30564307
 C           -2.27991671       -0.25621692        2.24009817
 C           -1.23911307       -3.48848121        1.08704070
 C           -0.74384210       -3.75316211       -0.24419651
 C           -1.21193236       -2.92001651       -1.33773154
 C           -2.25567247       -2.47448206        1.24661821
 C           -2.31356401       -0.88389337       -2.01817603
 C           -2.19678849       -1.95177841       -1.11049731
 C           -2.86873636       -1.91913851        0.12865131
 C           -2.80410676        1.50202178       -1.84382040
 C           -3.25417895        0.11704264       -1.79778270
 C           -2.78717421        2.99434379        0.13267716
 C           -3.01129332        2.37974723        1.43668657
 C           -3.53813446        2.24650231       -0.84347862
 C           -3.47989987       -0.05131707        1.55403142
 C           -3.75814594       -0.88620701        0.39495221
 C           -4.15630294       -0.01350984       -0.68107541
 C           -3.93755248        1.28939972        1.25928271
 C           -4.38403372        1.30977372       -0.12386347




