%chk=001685.chk
%mem=8GB
%Nproc=32
#p B3LYP/6-31G* opt pop=NPA

Template file

0 1
 C            3.14939950       -2.43270189        0.27235053
 C            3.61165231       -1.32705861        1.07607704
 C            3.97443406       -0.25119393        0.17088323
 C            3.12393337       -1.99513568       -1.11690777
 C            3.45903624       -0.59227000       -1.14431800
 C            1.86414771       -2.40982996       -1.68340546
 C            1.85362814       -3.00796316        0.56770752
 C            1.18906050       -3.24308350       -0.70196457
 C            1.09668811       -2.54047060        1.64078524
 C            2.71715942       -0.77483024        2.07184813
 C            1.50127550       -1.39807215        2.35545875
 C            3.54882721        1.00065138        0.77153318
 C            2.74907794        0.67571465        1.94304245
 C            3.10960529        2.00454567       -0.07303619
 C            2.60982414        0.31310811       -1.77747993
 C            2.77655927        1.65568499       -1.44641895
 C            1.10596433       -1.50713300       -2.41479631
 C            1.39164124       -0.12677996       -2.33990291
 C           -0.16855215       -1.93631942       -2.76247433
 C           -0.20241794       -3.31684450       -0.72687088
 C           -0.87292113       -2.83087915       -1.85469497
 C           -0.22597749       -2.97431848        1.70988773
 C           -0.87820598       -3.43071870        0.48920475
 C           -1.20447821       -2.23956477        2.49272586
 C            0.56785977       -0.66244186        3.08213602
 C           -0.82817481       -1.05741606        3.10386739
 C            1.58934223        1.40006572        2.22625783
 C            0.62250980        0.79070391        3.02516475
 C            2.07338735        2.90350783        0.39181046
 C            1.25670984        2.52435775        1.45689845
 C            1.82917192        2.63390352       -1.92233396
 C            1.46390862        3.47705143       -0.79458546
 C            0.46349552        0.81539312       -2.83492444
 C            0.61256208        2.16429657       -2.53622467
 C           -1.12096066       -0.99436686       -3.29386501
 C           -0.81622911        0.41089395       -3.19304750
 C           -2.25298303       -2.36851996       -1.76020050
 C           -2.39830550       -1.22493500       -2.63799627
 C           -2.28053250       -3.06691085        0.57392600
 C           -2.46886667       -2.28654888        1.78516013
 C           -2.88296341       -2.34331284       -0.52680232
 C           -3.11489003       -1.03930281        1.41966167
 C           -3.39655545       -1.08069653       -0.00771983
 C           -1.63413182        0.14260078        2.91531196
 C           -0.74113137        1.28853553        3.03818771
 C           -2.67945149        0.15492071        1.98490357
 C           -0.00974483        3.10492948        1.57050528
 C           -1.03835147        2.46545235        2.37333565
 C            0.02576571        3.65887173       -0.81680896
 C           -0.50354546        2.87070254       -1.92448319
 C           -0.65358308        3.67158927        0.39067664
 C           -1.95444452        1.07486019       -2.57566328
 C           -2.84638891        0.03815275       -2.07881456
 C           -3.28996361        0.09319923       -0.75909263
 C           -1.73360114        2.21576775       -1.80691076
 C           -3.01514774        1.34058242        1.33994207
 C           -2.29107725        2.55947969        1.65016277
 C           -2.04116048        3.26040179        0.40225057
 C           -3.25802768        1.31655961       -0.09464786
 C           -2.53386217        2.43313494       -0.68527187




