%chk=001532.chk
%mem=8GB
%Nproc=32
#p B3LYP/6-31G* opt pop=NPA

Template file

0 1
 C            2.93276922       -2.90192207       -0.18562046
 C            3.74558631       -1.79092617       -0.64095815
 C            4.02131144       -0.95641202        0.51573937
 C            2.62681360       -2.67408061        1.21933738
 C            3.11410352       -1.36032178        1.57306883
 C            1.22742100       -2.95543141        1.41371444
 C            1.68250348       -3.19017616       -0.86684535
 C            0.67496105       -3.42063846        0.15203589
 C            1.33703691       -2.47432503       -2.00221852
 C            3.23949032       -0.92759562       -1.69363055
 C            2.08971906       -1.28327566       -2.38409118
 C            3.98408748        0.42354907        0.08557785
 C            3.40301131        0.44700192       -1.25265253
 C            3.54182437        1.36646414        0.99890559
 C            2.23097946       -0.41264234        2.09745468
 C            2.60168746        0.93490230        2.03187577
 C            0.45844512       -2.08775102        2.17326906
 C            0.88260100       -0.75266536        2.32193900
 C           -0.89805839       -2.37822101        2.20431040
 C           -0.66939814       -3.14817414       -0.10859838
 C           -1.49069169       -2.94711139        1.00315900
 C           -0.06380208       -2.20703985       -2.25983250
 C           -1.04329304       -2.61627473       -1.35336060
 C            1.13378148       -0.24963136       -2.74157524
 C           -0.16516016       -0.88135599       -2.85251264
 C            2.42905745        1.40499222       -1.55008184
 C            1.22700540        1.01048922       -2.16284156
 C            3.05369299        2.62283740        0.46990290
 C            2.50043269        2.61920426       -0.87142502
 C            1.58246558        1.96227142        2.15218971
 C            2.01277342        3.09594418        1.36015958
 C           -0.06346314        0.27227063        2.50635294
 C            0.24873896        1.57575035        2.13815539
 C           -1.81771844       -1.40504151        2.74023541
 C           -1.38788950       -0.02851054        2.79059593
 C           -2.81770853       -2.38330932        0.84896625
 C           -3.04045370       -1.46918735        1.95893981
 C           -2.32393127       -2.09372129       -1.53045846
 C           -3.25597638       -2.03127927       -0.41673407
 C           -1.31462363       -0.14043749       -2.61284599
 C           -2.46463074       -0.86011675       -2.28756421
 C            0.06627464        1.78900943       -2.05111348
 C           -1.19803625        1.20967156       -2.24473459
 C            1.35591929        3.50022020       -0.85428728
 C            1.03505077        3.77491329        0.54259522
 C            0.13179628        3.06394256       -1.49060916
 C           -0.73641043        2.39261511        1.55750442
 C           -0.36372764        3.44271828        0.71651966
 C           -0.93848238        3.48754375       -0.60979687
 C           -2.42473295        0.78834736        2.18603033
 C           -3.46185435       -0.10725283        1.68305987
 C           -2.04798717        1.91385044        1.45278061
 C           -4.06679254       -0.83284523       -0.58118124
 C           -3.64904091       -0.17880607       -1.81053839
 C           -4.08467630        0.16996002        0.47349021
 C           -2.32718867        1.92949955       -1.83878124
 C           -2.18056700        2.91354947       -0.78527033
 C           -2.83336133        2.33422056        0.37557305
 C           -3.57131153        1.23939571       -1.55621286
 C           -3.87037279        1.46134543       -0.14706589




