%chk=000186.chk
%mem=8GB
%Nproc=32
#p B3LYP/6-31G* opt pop=NPA

Template file

0 1
 C            4.51758967       -1.21662477        0.29992290
 C            4.67158482       -0.21474393       -0.73853910
 C            4.28409489        1.06022847       -0.17207714
 C            3.90876789       -0.57946140        1.45760412
 C            3.75350818        0.82816710        1.16283025
 C            2.72704738       -1.34000927        1.81329641
 C            3.57543705       -2.20306106       -0.18625821
 C            2.61259975       -2.44135847        0.87213500
 C            3.72259113       -0.51449476       -1.80048974
 C            3.05567168       -1.75191159       -1.46409172
 C            3.41810992        1.70921554       -1.13616752
 C            2.90827751        0.66470576       -2.01492766
 C            2.51328369        2.63170055       -0.64570638
 C            2.56219600        1.46164235        1.50552513
 C            2.21373675        2.59919020        0.77791299
 C            1.56266668       -0.65915177        2.16886897
 C            1.55625402        0.74303127        2.16943845
 C            0.34745337       -1.35767058        2.11656126
 C            1.33164201       -2.81465582        0.49904754
 C            0.30832611       -2.56569486        1.40389006
 C            1.68318020       -1.85210862       -1.65027378
 C            1.01169353       -2.77490979       -0.85895678
 C            1.52613401        0.51834466       -2.16188480
 C            0.95450960       -0.76017688       -2.14564927
 C            1.23261219        2.74574050       -1.30488301
 C            0.71109855        1.63524683       -1.97058273
 C            0.89915168        3.19472178        0.95096845
 C            0.38359331        3.47328134       -0.38295006
 C            0.39346493        1.40809946        2.54800422
 C            0.05057001        2.67375419        1.91731899
 C           -0.83832246       -0.71765459        2.50637745
 C           -0.83361269        0.65381552        2.72494634
 C           -2.06914882       -1.33296422        2.30178369
 C           -0.90151050       -3.20345461        1.16512256
 C           -2.11609579       -2.65672418        1.72441567
 C           -0.27847394       -3.11235635       -1.23360631
 C           -1.17980972       -3.59577869       -0.20302037
 C           -0.43547891       -0.89082307       -2.26102985
 C           -1.00994339       -2.14760332       -2.03456520
 C           -0.67468796        1.51768729       -2.09217481
 C           -1.24812344        0.24972519       -2.26262805
 C           -0.98069096        3.44159289       -0.60762700
 C           -1.46101865        2.60103761       -1.68498106
 C           -1.38690730        2.69607880        1.69376375
 C           -1.93927724        1.45400535        2.21586416
 C           -1.88474129        3.22739979        0.51080237
 C           -3.15943255       -0.55701332        1.72878293
 C           -2.99991488        0.81994385        1.56466089
 C           -3.13229147       -2.66001409        0.68255520
 C           -2.51922871       -3.15136415       -0.53631109
 C           -2.41767713       -2.25977655       -1.68061689
 C           -3.75540133       -1.35121732        0.66182656
 C           -2.63815689        0.09585231       -2.25820304
 C           -3.21212335       -1.12449217       -1.72811632
 C           -4.01069153       -0.74982893       -0.56344970
 C           -2.87992777        2.43651185       -1.45858506
 C           -3.11299338        2.68575097       -0.04159825
 C           -3.66745960        1.46899933        0.52312851
 C           -3.48807858        1.17152425       -1.79018980
 C           -4.16562630        0.69010413       -0.59721415




