%chk=001727.chk
%mem=8GB
%Nproc=32
#p B3LYP/6-31G* opt pop=NPA

Template file

0 1
 C            3.77271960       -0.35175455        1.42495263
 C            3.25012365       -1.68267684        1.61534696
 C            3.21601490       -2.34291605        0.31803826
 C            4.07882472       -0.18745509        0.01061697
 C            3.61700390       -1.37314621       -0.68483106
 C            3.57512216        1.11499429       -0.39292466
 C            2.95885047        0.77932776        1.82328466
 C            3.17796501        1.80649213        0.82554116
 C            1.66619536        0.58402109        2.31368191
 C            1.93697589       -1.83553582        2.20647462
 C            1.16991593       -0.71472803        2.53064053
 C            1.92130017       -2.99679634        0.19835882
 C            1.30035198       -2.93452100        1.50850959
 C            1.13805854       -2.77604939       -0.93364670
 C            2.84273561       -1.22753975       -1.82629151
 C            1.67786379       -2.07831387       -2.01574851
 C            2.78504196        1.23369902       -1.53850182
 C            2.49353520        0.10454723       -2.30437881
 C            1.99916017        2.37322731       -1.69788425
 C            2.26739319        2.84592533        0.73678525
 C            1.86591768        3.29401009       -0.58298304
 C            0.79715898        1.68097259        2.34802789
 C            1.07254474        2.80465396        1.56683168
 C           -0.49985751        1.51819077        2.82142761
 C           -0.18881267       -0.90332713        2.79359135
 C           -0.97344964        0.18789246        3.14221989
 C           -0.07495802       -3.05309967        1.59470536
 C           -0.80580188       -2.09622319        2.40814456
 C           -0.24386137       -2.97917076       -0.86191224
 C           -0.84022539       -3.23995906        0.37378780
 C           -1.04453981       -2.64966081       -1.95469477
 C            0.79543121       -1.38942464       -2.94098665
 C            1.20078994        0.00652347       -2.96772494
 C           -0.55294124       -1.69720540       -2.93387108
 C            0.69438123        2.25987531       -2.33554347
 C            0.25518875        1.01116498       -2.77153206
 C            0.47893299        3.71823681       -0.51167698
 C           -0.01243746        3.42601755        0.82225053
 C           -0.22167440        3.15617630       -1.64758822
 C           -1.58249503        2.22351587        2.15112600
 C           -1.30199871        2.92634231        0.98229659
 C           -2.40427698        0.15191731        2.88362849
 C           -2.77368955        1.39900945        2.23508268
 C           -2.17753829       -2.08099812        1.92073528
 C           -2.19590648       -2.77851696        0.64335282
 C           -2.95020210       -0.94125506        2.10058997
 C           -2.45649136       -2.36809976       -1.75266630
 C           -2.97507999       -2.29482775       -0.39963350
 C           -1.51756437       -0.61487318       -2.99954137
 C           -1.10640745        0.68890447       -2.72633792
 C           -2.75480641       -1.10944685       -2.41803028
 C           -1.53990135        2.76939611       -1.47985182
 C           -2.12076424        2.76380803       -0.14203023
 C           -2.01835169        1.58495935       -2.16689589
 C           -3.49439694        1.07803164        1.01949102
 C           -3.66652066       -0.36657339        0.97097896
 C           -3.67000126       -1.02389658       -0.25562217
 C           -3.47985379       -0.26698559       -1.48435820
 C           -3.19688175        1.77893663       -0.14211711
 C           -3.16380995        1.08420722       -1.42069430




