%chk=001161.chk
%mem=8GB
%Nproc=32
#p B3LYP/6-31G* opt pop=NPA

Template file

0 1
 C            4.36329642        0.61058009        0.03328668
 C            3.78103204        1.81574675        0.59344132
 C            3.16805235        1.45304049        1.86221784
 C            4.14270376       -0.46126109        0.99157457
 C            3.15830776        0.00954027        1.94473716
 C            3.85718691       -1.66286241        0.24494021
 C            3.90778436        0.13645770       -1.26245073
 C            3.75365331       -1.30236410       -1.16358951
 C            2.96235749        0.86709484       -1.97356772
 C            2.79226697        2.55155505       -0.17581114
 C            2.47590054        2.14334513       -1.46202912
 C            1.90048070        2.14369695        1.95069732
 C            1.71801104        2.91556526        0.72976157
 C            0.79782840        1.47425028        2.46682371
 C            1.92639235       -0.63707224        2.05036366
 C            0.82780788        0.07377538        2.54827100
 C            2.66264974       -2.41554306        0.57084977
 C            1.74069646       -1.91394874        1.49308961
 C            2.54127542       -1.92545238       -1.67351904
 C            2.16303863       -2.92099791       -0.68967761
 C            1.83718491        0.17932729       -2.59417221
 C            1.54514907       -1.13295151       -2.24790250
 C            1.11552654        2.31049793       -1.93415228
 C            0.75934544        1.13378212       -2.71316378
 C            0.41791277        3.08941231        0.24941605
 C            0.14408828        2.88337810       -1.11305867
 C           -0.42468892        2.12211969        2.33432561
 C           -0.61356655        2.99169350        1.18510774
 C           -1.66368010        1.40632477        2.57081600
 C           -0.32836825       -0.62481274        2.88074739
 C           -1.61538034        0.05238285        2.86690414
 C            0.47348481       -2.50680866        1.53105924
 C           -0.51729951       -1.95919461        2.34425269
 C            0.86958989       -3.39902002       -0.71794908
 C            0.12363436       -3.41225017        0.52643063
 C            0.21238880       -1.55823188       -2.18853352
 C           -0.03636188       -2.84249024       -1.70299220
 C           -0.55878216        0.70158993       -2.67527428
 C           -0.84069420       -0.62639413       -2.30594231
 C           -1.17764173        2.77485542       -1.54671626
 C           -1.50930832        1.69117374       -2.45862349
 C           -1.99292984        2.87291462        0.75449503
 C           -2.65432245        1.91288822        1.63357541
 C           -2.27306631        2.89248660       -0.60231180
 C           -3.63715051        1.06213165        1.13691495
 C           -2.59871095       -0.85253805        2.29208513
 C           -1.92638159       -2.10762566        1.99544408
 C           -3.57377085       -0.36328632        1.42543505
 C           -1.26818804       -3.56758005        0.14566202
 C           -1.36437530       -3.20048497       -1.26241473
 C           -2.28740733       -2.82943121        0.86542627
 C           -2.16891475       -1.01588869       -2.02741893
 C           -3.88269735       -1.08407531        0.19701070
 C           -2.41694263       -2.22515690       -1.38568648
 C           -3.15065263       -2.21748931       -0.13041332
 C           -2.88480528        1.32292546       -2.23768828
 C           -3.38376212        2.11298466       -1.12142430
 C           -4.09886205        1.21824888       -0.23067410
 C           -3.18500365       -0.06323960       -1.97182329
 C           -4.10531179       -0.09731397       -0.84618188




