%chk=001103.chk
%mem=8GB
%Nproc=32
#p B3LYP/6-31G* opt pop=NPA

Template file

0 1
 C            2.90860636       -2.63005686        1.45165254
 C            3.01415421       -1.30429165        2.03439149
 C            3.46827523       -0.39588196        0.99837917
 C            3.14362067       -2.50027193        0.02609342
 C            3.68976003       -1.17845632       -0.20915788
 C            1.92517676       -2.87579033       -0.67485720
 C            1.54198074       -3.07933299        1.63170817
 C            0.96320609       -3.31058990        0.32203401
 C            1.76176122       -1.00968097        2.70529937
 C            0.87016706       -2.14006395        2.50975541
 C            1.23088963        0.26911607        2.59441186
 C            2.85866707        0.85288841        0.89598186
 C            1.93659841        1.24124987        1.87630390
 C            2.91996594        1.54621106       -0.31930179
 C            3.42783616       -0.58578076       -1.43207795
 C            3.23637851        0.85154193       -1.48424260
 C            1.49570858       -2.08232769       -1.74054343
 C            2.40673748       -1.17627645       -2.28692449
 C            0.11637897       -1.92959011       -1.97527248
 C           -0.36797250       -2.97856063        0.13907485
 C           -0.78913242       -2.58893760       -1.12783507
 C           -0.47534455       -1.88007535        2.27513773
 C           -1.11426224       -2.57904423        1.24781266
 C           -0.13515023        0.44186604        2.82660863
 C           -0.99742364       -0.65021173        2.68055891
 C           -0.66344376        1.73044907        2.85316749
 C            1.49458579        2.55898615        1.90890864
 C            0.17275186        2.84202650        2.43472590
 C            2.27316766        2.77420331       -0.44395642
 C            1.66630942        3.37689393        0.72647171
 C            1.35753253        2.98093994       -1.55800480
 C            2.47793874        1.13124564       -2.69029134
 C            1.93352672       -0.13154547       -3.16573386
 C            1.39295958        2.09615274       -2.62362051
 C           -0.34972716       -0.96423828       -2.89014453
 C            0.51051561        0.03271545       -3.32701282
 C            0.16989610        1.41000165       -3.00779406
 C           -1.69615911       -0.62509397       -2.88949463
 C           -2.15892512       -2.51604927       -1.36604640
 C           -2.65279922       -1.52538653       -2.29328437
 C           -2.49187852       -2.46099382        1.10980800
 C           -3.06201388       -2.52637768       -0.22573714
 C           -2.36747171       -0.42575217        2.54958641
 C           -3.17135630       -1.39853419        1.82668175
 C           -1.97581721        1.96361723        2.27921353
 C           -2.83393184        0.88937473        2.14349591
 C           -0.56207485        3.57063344        1.40908908
 C            0.35178064        3.86188990        0.33266768
 C            0.07158985        3.32213541       -0.98243215
 C           -1.75358260        2.80165336        1.11894716
 C           -1.02400107        1.65257163       -2.32382264
 C           -2.05303607        0.73362054       -2.50547069
 C           -1.00921881        2.45731773       -1.17620816
 C           -1.95198991        2.25051487       -0.15010440
 C           -3.63618645       -0.71442538       -1.59557372
 C           -3.98426108       -1.40997626       -0.37480268
 C           -3.98121240       -0.66503818        0.86589441
 C           -3.49992901        0.70556925        0.86781842
 C           -3.10652867        0.63947061       -1.51844224
 C           -2.92359329        1.25377615       -0.28348959




