%chk=001373.chk
%mem=8GB
%Nproc=32
#p B3LYP/6-31G* opt pop=NPA

Template file

0 1
 C            0.19123106        4.10602699        0.70183884
 C            1.57829335        3.72504676        0.74998759
 C            1.98607629        3.43405789       -0.61822467
 C           -0.19123106        4.10602699       -0.70183884
 C            0.77193607        3.26548678       -1.37922958
 C           -1.57829335        3.72504676       -0.74998759
 C           -0.77193607        3.26548678        1.37922958
 C           -1.98607629        3.43405789        0.61822467
 C           -0.40372444        1.97576422        1.78153795
 C            1.94237556        2.56086321        1.52710353
 C            0.95647212        1.64573952        1.91158093
 C            2.89466020        2.31828606       -0.54430968
 C            3.12615362        2.05850308        0.86707516
 C            2.68661549        1.22371689       -1.37295697
 C            0.40372444        1.97576422       -1.78153795
 C            1.37909198        0.96458923       -1.83678821
 C           -1.94237556        2.56086321       -1.52710353
 C           -0.95647212        1.64573952       -1.91158093
 C           -2.89466020        2.31828606        0.54430968
 C           -3.12615362        2.05850308       -0.86707516
 C           -1.37909198        0.96458923        1.83678821
 C           -2.68661549        1.22371689        1.37295697
 C           -0.99644536       -0.33690145        2.19554740
 C            1.33364954        0.31575242        2.12306581
 C            0.35774879       -0.67170685        2.26458859
 C            3.57689656        0.79802064        1.21161180
 C            2.67760488       -0.05481896        1.97279067
 C            3.57766745        0.17185540       -1.19290013
 C            4.11811992       -0.02285146        0.14216794
 C            3.27227056       -1.12855446       -1.73730594
 C            0.99644536       -0.33690145       -2.19554740
 C            1.94104864       -1.36292905       -2.24357223
 C           -1.33364954        0.31575242       -2.12306581
 C           -0.35774879       -0.67170685       -2.26458859
 C           -3.57689656        0.79802064       -1.21161180
 C           -2.67760488       -0.05481896       -1.97279067
 C           -3.57766745        0.17185540        1.19290013
 C           -4.11811992       -0.02285146       -0.14216794
 C           -1.94104864       -1.36292905        2.24357223
 C           -3.27227056       -1.12855446        1.73730594
 C           -1.56105875       -2.69443580        1.80781556
 C            0.73111674       -2.01744300        2.24797695
 C           -0.21438026       -3.01401111        1.78623733
 C            3.01713896       -1.43269027        1.64859272
 C            3.91303977       -1.41059371        0.50520975
 C            3.53156831       -2.12023165       -0.70041380
 C            2.02265697       -2.39537501        1.71275418
 C            1.56105875       -2.69443580       -1.80781556
 C            0.36192762       -3.62197654        0.59446681
 C            2.38597153       -3.00942049       -0.65342437
 C            1.77359326       -3.26976931        0.56949644
 C           -0.73111674       -2.01744300       -2.24797695
 C            0.21438026       -3.01401111       -1.78623733
 C           -0.36192762       -3.62197654       -0.59446681
 C           -3.01713896       -1.43269027       -1.64859272
 C           -3.91303977       -1.41059371       -0.50520975
 C           -3.53156831       -2.12023165        0.70041380
 C           -2.38597153       -3.00942049        0.65342437
 C           -2.02265697       -2.39537501       -1.71275418
 C           -1.77359326       -3.26976931       -0.56949644




