%chk=001508.chk
%mem=8GB
%Nproc=32
#p B3LYP/6-31G* opt pop=NPA

Template file

0 1
 C            3.70388249       -1.56893338        1.14353483
 C            3.88131506       -1.62569290       -0.29521760
 C            4.08309420       -0.26904774       -0.77428720
 C            3.79055011       -0.17638058        1.54942344
 C            3.91552906        0.63539270        0.35082777
 C            2.69787243        0.09336828        2.46297709
 C            2.49472353       -2.12787231        1.72267142
 C            1.85879608       -1.09428641        2.52308216
 C            1.69796601       -2.96564844        0.95703057
 C            2.84008110       -2.23308089       -1.10416038
 C            1.88412645       -3.03117598       -0.49123250
 C            3.24996269       -0.07801821       -1.94797746
 C            2.40040765       -1.25150072       -2.08239696
 C            2.69664132        1.17291314       -2.16179935
 C            3.10043623        1.75558135        0.19453440
 C            2.77248686        2.16435097       -1.09829314
 C            2.08894191        1.33655978        2.41314792
 C            2.35352395        2.21804652        1.28317062
 C            0.67535422        1.43621457        2.72275912
 C            0.46854977       -0.95309470        2.50423086
 C           -0.09045172        0.28059461        2.85402562
 C            0.26873955       -2.98869309        1.20736373
 C           -0.32875697       -1.94456827        1.91097866
 C            0.56195502       -3.11255368       -1.08610348
 C           -0.35508349       -3.45759283       -0.01306272
 C            1.03302823       -1.10366298       -2.33041519
 C            0.17374416       -2.16486603       -2.03471143
 C            1.36022418        1.25720056       -2.71667736
 C            0.50511873        0.16428914       -2.60805088
 C            1.68319879        3.10087925       -1.30972687
 C            0.85295469        2.56832383       -2.37978236
 C            1.16310397        3.03621268        1.07655705
 C            0.12735533        2.55532071        1.97315344
 C            0.81574955        3.44219441       -0.19840331
 C           -1.20141205        2.48440179        1.55618856
 C           -1.47149942        0.42757494        2.86175868
 C           -2.03728564        1.63891274        2.28900912
 C           -1.70794496       -1.75458619        1.78997777
 C           -2.30325257       -0.67945441        2.43747083
 C           -1.70601761       -3.21962726       -0.19857107
 C           -2.42051525       -2.43898458        0.80010125
 C           -1.17861407       -2.04883571       -2.33842764
 C           -2.13914686       -2.74936603       -1.50187772
 C           -0.88018440        0.37083041       -2.57153299
 C           -1.72308218       -0.73522096       -2.63385114
 C           -0.52715692        2.67649731       -1.96497489
 C           -0.55652268        3.28147720       -0.64199521
 C           -1.54957752        2.86745616        0.24690249
 C           -1.40147750        1.62635621       -2.22119325
 C           -2.73171494        2.39647302       -0.32852383
 C           -2.64598127        1.70241737       -1.60312381
 C           -3.36823151        1.32231690        1.81431439
 C           -3.53768658       -0.11997779        1.91027431
 C           -3.73088336        1.72850274        0.47927622
 C           -3.53406191       -1.78729817        0.12330106
 C           -3.28612942       -1.88245102       -1.30576723
 C           -3.06035044       -0.66464113       -2.06406753
 C           -3.51010556        0.53846181       -1.54227736
 C           -4.04054955       -0.60066981        0.63664962
 C           -4.17573699        0.54866111       -0.24621116




