%chk=001255.chk
%mem=8GB
%Nproc=32
#p B3LYP/6-31G* opt pop=NPA

Template file

0 1
 C            4.38015223        0.16733061        0.58729640
 C            4.10087287       -1.23852496        0.75256371
 C            3.87199858       -1.78363994       -0.57750668
 C            4.27406511        0.46233015       -0.83501891
 C            3.57416897       -0.65632762       -1.43501640
 C            3.69617392        1.78341873       -0.95626866
 C            3.53590763        1.12222975        1.27244946
 C            3.43394349        2.26748317        0.38893196
 C            2.38674462        0.69527296        1.94454523
 C            2.95856322       -1.62523097        1.55551159
 C            2.01792925       -0.66024006        1.93222851
 C            2.88003008       -2.82128589       -0.43907890
 C            2.49125206       -2.85490674        0.96331561
 C            1.65299681       -2.71394222       -1.20178650
 C            2.26964810       -0.47108986       -1.90780129
 C            1.34165094       -1.52993056       -1.86159852
 C            2.46456504        1.93245317       -1.70147038
 C            1.84958955        0.81831860       -2.27073206
 C            2.18096288        2.99926746        0.35997134
 C            1.63794363        2.89035227       -0.98550246
 C            1.43953136        1.65908587        2.26911085
 C            1.31726761        2.84701572        1.42928233
 C            0.10199628        1.25163166        2.64677904
 C            0.67016065       -1.03775688        2.12160066
 C           -0.29057220       -0.06763414        2.45623333
 C            1.07614719       -3.11952754        0.99694452
 C            0.63368941       -3.31449457       -0.37394564
 C            0.26475717       -2.35123471        1.82028022
 C           -0.70044010       -3.03918501       -0.64063465
 C            0.00468158       -1.29829850       -2.18778750
 C           -1.00893269       -2.10383961       -1.64091406
 C            0.56892922        1.00134410       -2.77496455
 C           -0.32424937       -0.13295347       -2.86830892
 C            0.25657076        2.83445434       -1.17287945
 C           -0.21205600        2.12467239       -2.27862944
 C           -0.09526586        3.06861651        1.20998421
 C           -0.79141508        2.32317771        2.24346283
 C           -0.60195918        3.07300964       -0.09110176
 C           -2.13402430        2.04156625        2.06357866
 C           -1.65703011       -0.35984607        2.38152970
 C           -2.58791228        0.67174706        2.23024631
 C           -1.09070756       -2.63653622        1.72315131
 C           -1.55816496       -3.15430403        0.44940166
 C           -2.06510150       -1.66633843        2.16448290
 C           -2.95250949       -2.80117172        0.30739695
 C           -3.28609475       -1.91401778        1.41095876
 C           -2.34870394       -1.77730848       -1.88162166
 C           -3.36948714       -2.16702594       -0.92258331
 C           -1.68233579        0.37928819       -2.81853927
 C           -1.61504136        1.76520954       -2.37754154
 C           -2.69275121       -0.44657879       -2.35301431
 C           -1.97988090        2.94428066       -0.26193356
 C           -2.79392008        2.57883309        0.88618465
 C           -2.50062720        2.23108125       -1.41738788
 C           -3.74201161        0.48395010        1.36045991
 C           -4.01887754       -0.78483640        0.86936400
 C           -4.12849359       -0.97840115       -0.57054179
 C           -3.71853416        0.09018222       -1.46926646
 C           -3.78822925        1.61453147        0.44913093
 C           -3.59756103        1.38427361       -0.97300104




