%chk=000992.chk
%mem=8GB
%Nproc=32
#p B3LYP/6-31G* opt pop=NPA

Template file

0 1
 C            4.28792432       -1.05460507       -0.07367688
 C            3.49268517       -2.15409195        0.43274719
 C            2.76952435       -1.69336499        1.60662383
 C            4.09630418        0.07033433        0.82020549
 C            3.08639922       -0.28987671        1.80090745
 C            3.84484093        1.22794617       -0.00714388
 C            3.73490298       -0.67964719       -1.36546099
 C            3.40461386        0.72539424       -1.30500669
 C            2.71824595       -2.67134148       -0.67663683
 C            2.68186708       -1.61870086       -1.68054738
 C            1.52982445       -3.31452377       -0.37327793
 C            1.45654260       -2.11327425        1.76896784
 C            0.99211645       -3.16027745        0.97003340
 C            0.53304396       -1.24349117        2.34581301
 C            2.05821845        0.61756976        2.05845851
 C            0.76506150        0.14161659        2.31011625
 C            3.12030803        2.26327168        0.55581820
 C            2.23902805        1.94934965        1.67869405
 C            2.36228617        3.10135192       -0.34766267
 C            2.18437061        1.16735869       -1.81828357
 C            1.82828378        2.48525103       -1.54847196
 C            1.44205116       -1.14487825       -2.10504814
 C            1.18001964        0.23779213       -2.13931599
 C            0.40566861       -3.14794867       -1.27382002
 C            0.37837395       -2.04611884       -2.12924623
 C           -0.43655384       -3.42807328        0.89439179
 C           -0.78719370       -3.49813796       -0.51806009
 C           -0.73734022       -1.73538986        2.62809194
 C           -1.28466258       -2.78495382        1.78567267
 C           -1.80807711       -0.81569556        2.93613748
 C           -0.30446088        1.04841808        2.40604368
 C           -1.57444236        0.60053123        2.75902849
 C            1.09077757        2.83374445        1.59666372
 C            1.24725128        3.64052963        0.40001807
 C           -0.17375115        2.34211991        1.89709763
 C            0.44367969        2.89832234       -1.66561488
 C            0.12398921        3.73058312       -0.50806013
 C           -0.11314847        0.68792977       -2.45251843
 C           -0.50309855        1.99454592       -2.13667558
 C           -0.83281284       -1.64830903       -2.67576870
 C           -1.07970353       -0.23153411       -2.86248974
 C           -2.01693026       -3.02289495       -0.95313534
 C           -2.05971384       -2.25661289       -2.18593976
 C           -2.60214678       -2.35429558        1.34550471
 C           -2.95927112       -1.18199426        2.12200573
 C           -2.92614810       -2.39347102       -0.00549766
 C           -2.72855306        1.13953232        2.06289079
 C           -3.40601672        0.01542885        1.43219750
 C           -1.28498221        2.97502262        1.33041851
 C           -1.14577882        3.63470585        0.03826910
 C           -2.58639186        2.32524811        1.35964942
 C           -1.85130402        2.28099038       -1.92172908
 C           -2.21014622        3.14165788       -0.81064016
 C           -3.15046977        2.41446593        0.02552127
 C           -2.48318399        0.01690861       -2.56515370
 C           -3.04682423       -1.20592474       -2.02733280
 C           -3.49647140       -1.21536001       -0.64573786
 C           -3.57526338       -0.00599696        0.04601660
 C           -2.83125590        1.21405322       -1.96543472
 C           -3.50210629        1.18881030       -0.67061651




