%chk=001539.chk
%mem=8GB
%Nproc=32
#p B3LYP/6-31G* opt pop=NPA

Template file

0 1
 C            3.34500161       -2.26349043        0.74388711
 C            3.87645323       -1.45899333       -0.33934649
 C            4.08328571       -0.11668284        0.17266868
 C            3.13812042       -1.38716380        1.88834336
 C            3.46209245       -0.03969306        1.48436396
 C            1.81937653       -1.64439065        2.41044109
 C            2.11777778       -3.01195465        0.53036284
 C            1.24126649       -2.74311199        1.65410874
 C            1.57282060       -3.09161193       -0.74150494
 C            3.11621867       -1.34829723       -1.57064239
 C            2.08174528       -2.24084508       -1.81536423
 C            3.64608733        0.82252271       -0.84487874
 C            2.89893588        0.06520382       -1.83790379
 C            3.12880766        2.03271947       -0.41756601
 C            2.55606940        0.99206698        1.72066183
 C            2.74831810        2.15596095        0.98167757
 C            0.99357839       -0.57858299        2.75124176
 C            1.27714703        0.70317863        2.24293179
 C           -0.31909591       -0.91099633        3.07605197
 C           -0.14244406       -2.75862732        1.49474506
 C           -0.86837830       -2.12938995        2.49892410
 C            0.12832886       -3.15967233       -0.88169275
 C           -0.69470865       -2.85487275        0.20440214
 C            0.93693692       -1.78768860       -2.58162355
 C           -0.18911661       -2.61931339       -2.19017641
 C            1.63143074        0.49961127       -2.23824640
 C            0.73995027       -0.42231148       -2.79284935
 C            2.04564092        2.62526067       -1.17269609
 C            1.19652217        1.79137396       -1.90355896
 C            1.77896516        3.22262261        1.06483984
 C            1.48158121        3.63525096       -0.29986105
 C            0.24619143        1.65861218        2.15354092
 C            0.51913699        2.95033709        1.71473431
 C           -1.35488885        0.09637600        3.00283065
 C           -1.08741815        1.26813719        2.30770556
 C           -2.29079339       -1.94710217        2.34060283
 C           -2.61069823       -0.60273188        2.79442039
 C           -2.02169709       -2.46154514       -0.03818343
 C           -2.85686098       -2.11413241        1.02183629
 C           -1.47108237       -2.15674535       -2.43026865
 C           -2.42806199       -2.13898023       -1.33669978
 C           -0.50702977        0.00898812       -3.22489529
 C           -1.62731145       -0.91625385       -3.16938641
 C           -0.13755458        2.16949764       -2.12311979
 C           -0.98796003        1.31136022       -2.80863852
 C            0.06349996        3.89541907       -0.37224887
 C           -0.49384640        3.63924739        0.94664320
 C           -0.73066029        3.14496206       -1.32338070
 C           -2.10231809        1.90748051        1.57372465
 C           -1.76799238        2.97810914        0.75783084
 C           -1.99297871        2.83993895       -0.67385472
 C           -3.56762855       -0.04573093        1.86587523
 C           -3.81614675       -1.03988488        0.83477680
 C           -3.23737584        1.19637368        1.20244086
 C           -3.32266295       -1.00833826       -1.55013362
 C           -2.77120987       -0.20735637       -2.62258953
 C           -2.35867729        1.15409729       -2.33628167
 C           -2.74114549        1.75638099       -1.13603122
 C           -3.85321994       -0.35854428       -0.44725368
 C           -3.52032423        1.04394630       -0.21573734




