%chk=000728.chk
%mem=8GB
%Nproc=32
#p B3LYP/6-31G* opt pop=NPA

Template file

0 1
 C            4.35592533       -1.17036485        0.30053623
 C            4.29219962        0.20447186        0.75924435
 C            3.94186631        1.04246844       -0.37626814
 C            3.90727239       -1.19518577       -1.07934576
 C            3.55409054        0.16173784       -1.46601435
 C            2.89688974       -2.22962689       -1.19508852
 C            3.40275819       -1.93923107        1.08060019
 C            2.52964983       -2.63924326        0.15374619
 C            3.44757663        0.24393726        1.94189475
 C            2.79459302       -1.04987395        2.05389275
 C            2.70808259        1.39221478        2.18382614
 C            3.19934644        2.18948406       -0.14196835
 C            2.77669441        2.47892757        1.21962629
 C            2.08530999        2.50525135       -1.02000282
 C            2.35027859        0.37543234       -2.13887002
 C            1.67509538        1.59400414       -1.99343394
 C            1.88582701       -2.04634513       -2.12583419
 C            1.69659261       -0.72327846       -2.70253691
 C            0.56518040       -2.57815072       -1.83975895
 C            1.17901363       -2.75600798        0.47520614
 C            0.26376427       -3.00872302       -0.55215579
 C            1.41510380       -1.11403732        2.22384961
 C            0.72705276       -2.19615934        1.67662918
 C            1.32112048        1.26950757        2.60459458
 C            0.69886942        0.02298739        2.61446374
 C            1.46901670        3.10646553        1.15962353
 C            1.07558342        3.19809149       -0.23092037
 C            0.58840011        2.40108802        2.06645668
 C           -0.26376427        3.00872302       -0.55215579
 C            0.40623651        1.75958447       -2.54840916
 C           -0.56518040        2.57815072       -1.83975895
 C            0.30465692       -0.61950394       -3.10358307
 C           -0.40623651       -1.75958447       -2.54840916
 C           -0.30465692        0.61950394       -3.10358307
 C           -1.67509538       -1.59400414       -1.99343394
 C           -1.07558342       -3.19809149       -0.23092037
 C           -2.08530999       -2.50525135       -1.02000282
 C           -0.58840011       -2.40108802        2.06645668
 C           -1.46901670       -3.10646553        1.15962353
 C           -0.69886942       -0.02298739        2.61446374
 C           -1.32112048       -1.26950757        2.60459458
 C           -0.72705276        2.19615934        1.67662918
 C           -1.17901363        2.75600798        0.47520614
 C           -1.41510380        1.11403732        2.22384961
 C           -2.52964983        2.63924326        0.15374619
 C           -1.88582701        2.04634513       -2.12583419
 C           -1.69659261        0.72327846       -2.70253691
 C           -2.35027859       -0.37543234       -2.13887002
 C           -2.89688974        2.22962689       -1.19508852
 C           -3.55409054       -0.16173784       -1.46601435
 C           -3.90727239        1.19518577       -1.07934576
 C           -3.19934644       -2.18948406       -0.14196835
 C           -2.77669441       -2.47892757        1.21962629
 C           -2.70808259       -1.39221478        2.18382614
 C           -3.94186631       -1.04246844       -0.37626814
 C           -2.79459302        1.04987395        2.05389275
 C           -3.40275819        1.93923107        1.08060019
 C           -4.35592533        1.17036485        0.30053623
 C           -3.44757663       -0.24393726        1.94189475
 C           -4.29219962       -0.20447186        0.75924435




