%chk=000868.chk
%mem=8GB
%Nproc=32
#p B3LYP/6-31G* opt pop=NPA

Template file

0 1
 C           -4.39232942        0.10922379       -0.43220969
 C           -4.03196418       -0.96223706        0.47888152
 C           -3.25387877       -1.93301155       -0.26511402
 C           -3.65390190       -0.09260714       -1.66809035
 C           -3.00265923       -1.37639744       -1.58761882
 C           -2.82868871        1.07125654       -1.89127352
 C           -3.93175443        1.35510991        0.14950482
 C           -3.15609796        2.04625214       -0.86079093
 C           -3.44337209       -0.37096300        1.66260129
 C           -3.28971645        1.05524589        1.41881605
 C           -2.42022273       -1.05575756        2.29515205
 C           -2.21397430       -2.61078048        0.37219574
 C           -1.86982584       -2.26097460        1.68159172
 C           -1.25931960       -3.22119975       -0.43781178
 C           -1.73131589       -1.53141080       -2.12304949
 C           -1.09118210       -2.71621124       -1.79036503
 C           -1.49293858        0.90038225       -2.25453588
 C           -0.95563269       -0.39185857       -2.41997779
 C           -0.63841954        1.99642446       -2.13708858
 C           -2.15141448        2.89480129       -0.42781104
 C           -0.95227138        3.01062717       -1.23325463
 C           -2.08088565        1.68709202        1.71835579
 C           -1.70754539        2.79717632        0.95602805
 C           -1.31218429       -0.30512104        2.85430602
 C           -1.12843754        1.03044700        2.50792831
 C           -0.48858052       -2.38320330        2.13066226
 C           -0.16224004       -1.19271971        2.90304888
 C            0.06751965       -3.50645410        0.08451542
 C            0.47162675       -2.93430967        1.28806274
 C            0.28317644       -2.91345367       -2.17605422
 C            0.97785175       -3.51116236       -1.04769083
 C            0.40020381       -0.53734480       -2.77213968
 C            1.04051934       -1.76334044       -2.60664573
 C            0.66042607        1.90038841       -2.61204324
 C            1.20966371        0.58885720       -2.88716206
 C            1.70169213        2.69962259       -1.98521916
 C            0.08564635        3.53903970       -0.36370767
 C           -0.34207755        3.29506185        1.00668493
 C            1.41484067        3.35398821       -0.72118619
 C            0.12917817        1.59611559        2.70558961
 C            0.54433651        2.74478782        1.91883598
 C            1.12030479       -0.65965260        2.82269352
 C            1.28517248        0.72628026        2.87479635
 C            1.81311665       -2.59832451        1.48299613
 C            2.14560501       -1.46543302        2.33382272
 C            2.26018771       -2.85094617       -0.91494548
 C            2.32483226       -1.80006484       -1.92416169
 C            2.74156522       -2.59740829        0.35821013
 C            2.55957998        0.54348394       -2.33920395
 C            2.86939186        1.85618229       -1.80262877
 C            2.97150960       -0.59475534       -1.64928673
 C            2.36673530        2.85729740        0.26185546
 C            1.94069439        2.56184949        1.55357598
 C            2.42153669        1.36199905        2.21929966
 C            3.29343955        1.96437769       -0.42024187
 C            3.35620485       -0.85766399        1.81085825
 C            3.66165367       -1.49358923        0.53968865
 C            3.71780441       -0.45594505       -0.47462425
 C            3.39311057        0.57806535        1.61206057
 C            3.75370490        0.82286569        0.22331447




