%chk=001789.chk
%mem=8GB
%Nproc=32
#p B3LYP/6-31G* opt pop=NPA

Template file

0 1
 C            3.80757235       -0.97711530        0.19477418
 C            2.95637843       -2.14427383        0.35094154
 C            2.50378867       -2.52449654       -0.98040099
 C            3.68309266       -0.52279170       -1.18218539
 C            2.70562176       -1.37442831       -1.83954614
 C            3.46522082        0.91200803       -1.16557279
 C            3.60592008        0.16549006        1.06310994
 C            3.48156483        1.34773972        0.22329839
 C            2.79627098        0.02492003        2.18250062
 C            2.07257216       -2.22464104        1.42980701
 C            2.03173449       -1.20079576        2.37708299
 C            1.00149633       -3.11308716        1.35961609
 C            1.33551875       -3.25584930       -1.10748758
 C            0.71906317       -3.77391604        0.09792338
 C            0.27321790       -2.74184071       -1.95846195
 C            1.61113731       -0.79118762       -2.47582632
 C            0.40144812       -1.49189331       -2.56284716
 C            2.53881196        1.45522853       -2.04681745
 C            1.66109222        0.56669272       -2.79561590
 C            1.75913802        2.61740637       -1.65174442
 C            2.66898374        2.40217519        0.62819729
 C            1.82196748        3.08045617       -0.34159342
 C            1.97617776        1.14008020        2.62839879
 C            1.93232512        2.31173386        1.87998267
 C            0.75737007       -0.84084424        2.98090480
 C            0.75337475        0.59536842        3.19817572
 C           -0.27321790       -2.74184071        1.95846195
 C           -0.40144812       -1.49189331        2.56284716
 C           -0.71906317       -3.77391604       -0.09792338
 C           -1.00149633       -3.11308716       -1.35961609
 C           -1.33551875       -3.25584930        1.10748758
 C           -2.07257216       -2.22464104       -1.42980701
 C           -0.75737007       -0.84084424       -2.98090480
 C           -2.03173449       -1.20079576       -2.37708299
 C            0.43778097        1.29482334       -3.08094657
 C            0.47728301        2.54504000       -2.33638391
 C           -0.75337475        0.59536842       -3.19817572
 C           -0.67170083        3.01790899       -1.71125681
 C            0.60681067        3.50008924        0.33995831
 C            0.67170083        3.01790899        1.71125681
 C           -0.60681067        3.50008924       -0.33995831
 C           -0.43778097        1.29482334        3.08094657
 C           -0.47728301        2.54504000        2.33638391
 C           -1.61113731       -0.79118762        2.47582632
 C           -1.66109222        0.56669272        2.79561590
 C           -2.50378867       -2.52449654        0.98040099
 C           -2.95637843       -2.14427383       -0.35094154
 C           -2.70562176       -1.37442831        1.83954614
 C           -3.80757235       -0.97711530       -0.19477418
 C           -3.68309266       -0.52279170        1.18218539
 C           -2.79627098        0.02492003       -2.18250062
 C           -1.97617776        1.14008020       -2.62839879
 C           -1.93232512        2.31173386       -1.87998267
 C           -3.60592008        0.16549006       -1.06310994
 C           -1.82196748        3.08045617        0.34159342
 C           -1.75913802        2.61740637        1.65174442
 C           -2.53881196        1.45522853        2.04681745
 C           -3.46522082        0.91200803        1.16557279
 C           -2.66898374        2.40217519       -0.62819729
 C           -3.48156483        1.34773972       -0.22329839




