%chk=001488.chk
%mem=8GB
%Nproc=32
#p B3LYP/6-31G* opt pop=NPA

Template file

0 1
 C           -4.23030994        0.00000000        0.71758847
 C           -3.96536792        1.24214484        0.02471919
 C           -3.21876446        2.09034239        0.93589953
 C           -3.43454139        0.00000000        1.93921851
 C           -2.69628464        1.24449810        1.98535563
 C           -2.69628464       -1.24449810        1.98535563
 C           -3.96536792       -1.24214484        0.02471919
 C           -3.21876446       -2.09034239        0.93589953
 C           -3.23424393       -1.21241948       -1.23242153
 C           -3.23424393        1.21241948       -1.23242153
 C           -2.80843462        0.00000000       -1.77516040
 C           -2.26573813        2.84330558        0.14785906
 C           -2.32395074        2.34730701       -1.22112865
 C           -1.01203134        3.10453268        0.68310814
 C           -1.31817902        1.21455665        2.16381211
 C           -0.56990423        2.32164938        1.76307738
 C           -1.31817902       -1.21455665        2.16381211
 C           -0.66676543       -0.00000000        2.42175640
 C           -0.56990423       -2.32164938        1.76307738
 C           -2.26573813       -2.84330558        0.14785906
 C           -2.32395074       -2.34730701       -1.22112865
 C           -1.01203134       -3.10453268        0.68310814
 C           -1.14205639       -2.29754352       -1.96402804
 C           -1.73207352        0.00000000       -2.65357890
 C           -0.88413195       -1.17994062       -2.75814714
 C           -1.14205639        2.29754352       -1.96402804
 C           -0.88413195        1.17994062       -2.75814714
 C           -0.07923443        3.62288728       -0.20506661
 C           -0.07615454        3.10458806       -1.56183985
 C            1.29354394        3.80471423        0.21475428
 C            0.74572526        2.41213406        2.20333427
 C            1.69889463        3.23427208        1.47878676
 C            0.71034826       -0.00000000        2.68886478
 C            1.42620005        1.19532485        2.60778360
 C            0.74572526       -2.41213406        2.20333427
 C            1.42620005       -1.19532485        2.60778360
 C            1.69889463       -3.23427208        1.47878676
 C           -0.07923443       -3.62288728       -0.20506661
 C           -0.07615454       -3.10458806       -1.56183985
 C            1.29354394       -3.80471423        0.21475428
 C            1.28928174       -2.70162539       -1.86133727
 C            2.14782380       -3.25143958       -0.82408244
 C            0.48675803       -0.72746418       -2.94994775
 C            0.48675803        0.72746418       -2.94994775
 C            1.52974473       -1.42077493       -2.34661053
 C            1.28928174        2.70162539       -1.86133727
 C            2.14782380        3.25143958       -0.82408244
 C            1.52974473        1.42077493       -2.34661053
 C            2.88922641        2.43513004        1.24344229
 C            2.73398258        1.18661319        1.96732563
 C            3.12530368        2.38939336       -0.18689286
 C            2.73398258       -1.18661319        1.96732563
 C            2.88922641       -2.43513004        1.24344229
 C            3.12530368       -2.38939336       -0.18689286
 C            3.18579928       -0.00000000        1.40009949
 C            2.67080218       -0.72806448       -1.94239208
 C            2.67080218        0.72806448       -1.94239208
 C            3.42067283        1.16723410       -0.77140813
 C            3.42067283       -1.16723410       -0.77140813
 C            3.63214109       -0.00000000        0.07330177




