%chk=001534.chk
%mem=8GB
%Nproc=32
#p B3LYP/6-31G* opt pop=NPA

Template file

0 1
 C            2.75482964       -3.08858225        0.13895278
 C            3.64875973       -2.06280094       -0.36156127
 C            3.92370529       -1.15928082        0.74191486
 C            2.38625848       -2.72118082        1.49942399
 C            2.92925910       -1.40961868        1.76655395
 C            0.96457550       -2.90618638        1.63087410
 C            1.52796540       -3.37451760       -0.58468026
 C            0.47122303       -3.50158313        0.40013512
 C            1.25898026       -2.71315040       -1.77221648
 C            3.23530377       -1.25412631       -1.49456075
 C            2.08391010       -1.58561584       -2.19527288
 C            4.00930544        0.18022934        0.20634536
 C            3.48115855        0.13687352       -1.15334562
 C            3.59456810        1.21886045        1.02376711
 C            2.07518892       -0.36664967        2.13620776
 C            2.55923344        0.93557059        2.01712087
 C            0.19946077       -1.90807974        2.21912458
 C            0.68836087       -0.59048415        2.22121999
 C           -1.16977263       -2.12463772        2.20026196
 C           -0.85372226       -3.24328494        0.05401466
 C           -1.70008301       -2.94220590        1.12135904
 C           -0.11747459       -2.39522588       -2.09686721
 C           -1.15193978       -2.74607111       -1.22944710
 C            1.19541598       -0.52423351       -2.63588840
 C           -0.14162037       -1.07882063       -2.71727489
 C            2.58739520        1.13164063       -1.56021080
 C            1.36584134        0.76798823       -2.15211238
 C            3.23675104        2.46225924        0.37755494
 C            2.73082381        2.39025749       -0.98072576
 C            1.63029720        2.04873010        2.01842575
 C            2.20907195        3.08685269        1.18390605
 C           -0.20969404        0.49389441        2.14239334
 C            0.26466868        1.79583415        1.93692028
 C           -2.07411890       -1.01403396        2.37967566
 C           -1.58790495        0.27972816        2.25375620
 C           -3.06401024       -2.53026632        0.87938613
 C           -3.32108915       -1.37034821        1.71964223
 C           -2.39914334       -2.17343734       -1.48501373
 C           -3.43796819       -2.19699400       -0.47276146
 C           -1.24142911       -0.25912183       -2.49338932
 C           -2.44364248       -0.87516393       -2.14275898
 C            0.25386296        1.61926747       -2.09513100
 C           -1.04342152        1.09611485       -2.20536444
 C            1.65763517        3.35294713       -1.08150229
 C            1.34218674        3.79897274        0.27192962
 C            0.41199167        2.94421505       -1.69720574
 C           -0.58258869        2.77509386        1.40060431
 C           -0.08667181        3.64668725        0.43150112
 C           -0.63458724        3.56118437       -0.90869898
 C           -2.47281127        1.28978546        1.88364790
 C           -1.95316049        2.55205742        1.39379140
 C           -3.99185873       -0.37188792        0.90992287
 C           -4.07233859       -0.88978759       -0.44949046
 C           -3.52020960       -0.10315366       -1.54394045
 C           -3.65473797        0.96159035        1.09318146
 C           -2.13633582        1.89119633       -1.85004768
 C           -1.92490508        3.08057866       -1.03966563
 C           -2.68508691        2.88589101        0.18159544
 C           -3.35545423        1.26226595       -1.36974668
 C           -3.65020714        1.83396431       -0.06623019




