%chk=000028.chk
%mem=8GB
%Nproc=32
#p B3LYP/6-31G* opt pop=NPA

Template file

0 1
 C            4.96704125       -0.93321676       -0.09158194
 C            5.15119151        0.41856803        0.40318997
 C            4.76492805        1.32983877       -0.65841456
 C            4.32604666       -0.85205221       -1.39590561
 C            4.19989007        0.54213711       -1.74348614
 C            3.11720920       -1.65235158       -1.34154946
 C            4.04184653       -1.60649592        0.80232436
 C            3.03680847       -2.24040772       -0.01797255
 C            4.22868511        0.61332589        1.51032487
 C            3.58381554       -0.65843287        1.79563847
 C            3.70537594        2.18013439       -0.14511744
 C            3.38093606        1.75251575        1.19961007
 C            2.87204646        1.05701307       -2.01317313
 C            2.63442008        2.17398128       -1.11698505
 C            1.92814391       -1.17721585       -1.90548444
 C            1.80916334        0.18050926       -2.24156416
 C            0.75643846       -1.87622996       -1.58748531
 C            1.76492954       -2.39362834        0.50423345
 C            0.75550008       -2.63537299       -0.40923109
 C            2.22542559       -0.64450119        2.10195492
 C            1.41796341       -1.70735435        1.67545826
 C            2.03496015        1.67174937        1.54096075
 C            1.62281567        0.59082317        2.31692788
 C            1.33449501        2.33770392       -0.66078035
 C            1.08833567        2.28617439        0.71127265
 C            0.53166738        0.73678164       -2.23895031
 C            0.31969982        1.90378446       -1.49614702
 C           -0.46059280       -1.42877145       -2.11667032
 C           -0.55595462       -0.09075222       -2.50452062
 C           -1.61667378       -2.16861609       -1.86161885
 C           -0.44211120       -3.08393424        0.11156388
 C           -1.61362574       -3.07150723       -0.73231077
 C            0.07302497       -1.72861160        2.08049448
 C           -0.81552697       -2.58284768        1.42164122
 C            0.32721621        0.60489425        2.79986974
 C           -0.43466568       -0.63318017        2.77893968
 C           -0.24522976        2.29735034        1.13364401
 C           -0.55727408        1.65050421        2.32820185
 C           -0.98087705        2.25187122       -1.16311827
 C           -1.26325324        2.49004343        0.18964802
 C           -1.80336890        0.51592605       -2.64292801
 C           -1.98129013        1.81197916       -2.02213174
 C           -2.91915990       -1.52533648       -1.89216055
 C           -3.01920771       -0.24368594       -2.41365841
 C           -2.75093354       -2.74356807        0.10583069
 C           -2.23868209       -2.27259758        1.38150224
 C           -3.61948639       -1.86998755       -0.65556937
 C           -1.84235790       -0.27064558        2.65368464
 C           -1.91089892        1.18399852        2.55555624
 C           -2.70144424       -1.06142818        1.88958156
 C           -2.58747104        2.51876602        0.63826058
 C           -2.93808319        1.76153428        1.82912453
 C           -3.37293602        1.95453187       -1.65472154
 C           -4.02061101        0.67202956       -1.88647875
 C           -3.68076826        2.37853962       -0.30832061
 C           -4.32296459       -0.89000902        0.03238015
 C           -3.86704078       -0.49759717        1.36134581
 C           -4.07657271        0.93310390        1.49271791
 C           -4.72895920        0.31041525       -0.67444756
 C           -4.63199870        1.42980780        0.24660106




