%chk=001422.chk
%mem=8GB
%Nproc=32
#p B3LYP/6-31G* opt pop=NPA

Template file

0 1
 C            4.32611973       -0.75222778       -0.16498090
 C            3.78385340       -1.56352802        0.90533185
 C            3.12512879       -2.68610795        0.27578206
 C            3.63673700       -1.13448180       -1.39263659
 C            2.84655834       -2.30443746       -1.09789453
 C            2.95814142        0.03851288       -1.89563843
 C            4.21498732        0.68272053       -0.04614991
 C            3.61244090        1.16704585       -1.27646810
 C            3.41560961        1.23003139        1.03472374
 C            2.82506911       -0.96762695        1.82467937
 C            2.54549205        0.39394509        1.73933732
 C            1.99356316       -3.04868485        1.10792279
 C            1.72880285       -1.90941808        1.97872197
 C            0.91215767       -3.63225147        0.46876844
 C            1.52334945       -2.36308963       -1.51727238
 C            0.77347834       -3.39068160       -0.96015515
 C            1.56505252        0.03497680       -1.97791653
 C            0.86459597       -1.17953701       -1.91150990
 C            0.86547607        1.24997210       -1.90205871
 C            2.79468528        2.29932630       -0.91668954
 C            2.91203833        2.48527377        0.52370654
 C            1.53077855        2.41944850       -1.47801123
 C            1.84320615        3.07681300        1.17656253
 C            1.26219427        0.85248616        2.05474756
 C            1.00399955        2.22475227        2.01044376
 C            0.42283462       -1.43159116        2.08433844
 C            0.18982025       -0.04878422        2.10782035
 C           -0.40613486       -3.43104408        1.03054827
 C           -0.63578115       -2.30984977        1.82726967
 C           -0.62693524       -3.49191268       -1.28597756
 C           -1.33763537       -3.73032908       -0.03986806
 C           -0.53006122       -1.17410922       -2.07088910
 C           -1.25496908       -2.35887115       -1.92073554
 C           -0.52461499        1.25136046       -2.08935748
 C           -1.22208571        0.03984889       -2.13495863
 C           -1.24827287        2.43669225       -1.95171588
 C            0.78835056        3.50194280       -1.02540666
 C            0.94814542        3.88153461        0.36700556
 C           -0.61511564        3.58370883       -1.33977915
 C           -0.36925005        2.69146322        1.88265720
 C           -0.36154771        3.82841590        0.97971463
 C           -1.32699271        3.85825574       -0.09653896
 C           -1.12302231        0.43340682        2.15160563
 C           -1.39405656        1.75452062        1.78791089
 C           -1.94444727       -1.86391376        1.99017333
 C           -2.17423672       -0.46345091        2.28545123
 C           -2.57621549       -2.98286919       -0.09711576
 C           -2.60367429       -2.30493597       -1.39044890
 C           -2.96753036       -2.28857269        1.04070147
 C           -2.62057841        0.04499299       -2.04346092
 C           -3.31460925       -1.12353743       -1.52629668
 C           -2.57748143        2.38281168       -1.37832173
 C           -2.43318589        2.92959146       -0.04211164
 C           -2.54279542        2.05461481        1.03619925
 C           -3.30282593        1.21359654       -1.51255581
 C           -3.46565229       -0.10464646        1.73686838
 C           -3.91757316       -1.20403649        0.89838600
 C           -4.16328603       -0.67973820       -0.43120113
 C           -3.56855437        1.11759935        0.96448378
 C           -4.06354491        0.76460345       -0.35774052




