%chk=001768.chk
%mem=8GB
%Nproc=32
#p B3LYP/6-31G* opt pop=NPA

Template file

0 1
 C           -1.60988935       -3.45546639        0.72126748
 C           -1.60988935       -3.45546639       -0.72126748
 C           -0.22831272       -3.55031595       -1.16724087
 C           -0.22831272       -3.55031595        1.16724087
 C            0.62375812       -3.45286931       -0.00000000
 C           -0.03934730       -2.59023012        2.23774086
 C           -2.21773088       -2.33716825        1.41241810
 C           -1.31829175       -1.93949486        2.48295798
 C           -2.89558347       -1.34586667        0.70330208
 C           -2.21773088       -2.33716825       -1.41241810
 C           -2.89558347       -1.34586667       -0.70330208
 C           -0.03934730       -2.59023012       -2.23774086
 C           -1.31829175       -1.93949486       -2.48295798
 C            1.11782316       -1.82171379       -2.26105411
 C            1.64425297       -2.50981331       -0.00000000
 C            2.03637848       -1.92779116       -1.21095596
 C            1.11782316       -1.82171379        2.26105411
 C            2.03637848       -1.92779116        1.21095596
 C            1.11801047       -0.67870521        3.05195753
 C           -1.34258404       -0.61662628        2.92319082
 C           -0.14782670       -0.01447103        3.33080759
 C           -3.22481757       -0.18601025        1.40193941
 C           -2.43196068        0.17916083        2.56822048
 C           -3.57074771        1.03291657        0.69231084
 C           -3.22481757       -0.18601025       -1.40193941
 C           -3.57074771        1.03291657       -0.69231084
 C           -1.34258404       -0.61662628       -2.92319082
 C           -2.43196068        0.17916083       -2.56822048
 C            1.11801047       -0.67870521       -3.05195753
 C           -0.14782670       -0.01447103       -3.33080759
 C            2.11778320        0.35136290       -2.82958382
 C            3.19846813       -1.16164752       -1.24659739
 C            3.21306615        0.06492136       -2.03012592
 C            3.19846813       -1.16164752        1.24659739
 C            3.89473510       -0.89866390       -0.00000000
 C            2.11778320        0.35136290        2.82958382
 C            3.21306615        0.06492136        2.03012592
 C            0.06082990        1.41810176        3.14184131
 C            1.39682440        1.59359195        2.60164486
 C           -2.29654600        1.62428904        2.57880467
 C           -2.95718362        2.14796172        1.39651156
 C           -0.96782809        2.19670907        2.63895512
 C           -2.00932902        2.99784024        0.69287763
 C           -0.74339939        2.92884478        1.40245819
 C           -2.95718362        2.14796172       -1.39651156
 C           -2.29654600        1.62428904       -2.57880467
 C           -2.00932902        2.99784024       -0.69287763
 C            0.06082990        1.41810176       -3.14184131
 C            1.39682440        1.59359195       -2.60164486
 C           -0.96782809        2.19670907       -2.63895512
 C           -0.74339939        2.92884478       -1.40245819
 C            1.57022432        2.27656393        1.39662387
 C            0.44683641        2.73080673        0.70085852
 C            1.57022432        2.27656393       -1.39662387
 C            0.44683641        2.73080673       -0.70085852
 C            3.71315637        1.12054788       -1.17058786
 C            4.29906354        0.49650203       -0.00000000
 C            3.71315637        1.12054788        1.17058786
 C            2.78107245        2.14431099       -0.72541890
 C            2.78107245        2.14431099        0.72541890




