%chk=001425.chk
%mem=8GB
%Nproc=32
#p B3LYP/6-31G* opt pop=NPA

Template file

0 1
 C            4.24965474       -0.71179432        0.33822297
 C            3.90186165       -0.84164381       -1.06118933
 C            3.20582609       -2.10467679       -1.21751881
 C            3.50620182       -1.72382513        1.07468108
 C            2.83681193       -2.57566035        0.10765789
 C            2.69599752       -1.04200752        2.06494896
 C            4.01451213        0.55907225        0.98734079
 C            3.18333491        0.31556611        2.15776509
 C            3.37235699        1.62594513        0.24089340
 C            3.08754195        0.18773806       -1.68949865
 C            2.78719833        1.36543874       -1.00445827
 C            2.14865070       -1.90992759       -2.19426103
 C            2.02712964       -0.47794609       -2.42458675
 C            0.99047588       -2.65590921       -2.04956254
 C            1.50954074       -2.93714400        0.32733936
 C            0.75865039       -3.32582164       -0.77976630
 C            1.32659154       -1.26832755        2.05858385
 C            0.84345093       -2.42253383        1.44520632
 C            0.43704418       -0.23659111        2.38617789
 C            2.21769470        1.39581933        2.22768697
 C            2.61153688        2.37031833        1.22630530
 C            0.86260480        1.10105363        2.36787470
 C            1.65087057        3.25253177        0.77029331
 C            1.65576577        2.09707835       -1.37964939
 C            1.35804149        3.24840993       -0.64791737
 C            0.76799154        0.11519552       -2.44986968
 C            0.65886169        1.47082821       -2.14693201
 C           -0.27426639       -2.06401849       -2.43749872
 C           -0.38614485       -0.67775749       -2.52706028
 C           -0.67453879       -3.51350604       -0.64111991
 C           -1.31044411       -2.81644690       -1.75529143
 C           -0.47257037       -2.79623132        1.68675074
 C           -1.23175582       -3.44224091        0.62887321
 C           -0.92264999       -0.53338636        2.52369948
 C           -1.35283462       -1.84722739        2.34504699
 C           -1.86029557        0.49671377        2.48722497
 C           -0.06017346        2.11830625        2.11167190
 C            0.35865727        3.26113448        1.43012369
 C           -1.42064950        1.85401540        2.22228876
 C            0.07389326        3.90395440       -0.80126987
 C           -0.55681770        3.91748943        0.51202440
 C           -0.55374703        2.10348585       -2.39752552
 C           -0.87336821        3.35622925       -1.74219558
 C           -1.65347702       -0.08685596       -2.43347291
 C           -1.76075410        1.30124753       -2.41003686
 C           -2.55618949       -2.22879755       -1.58584376
 C           -2.72870183       -0.82880480       -1.93848143
 C           -2.62193130       -3.05193780        0.77494007
 C           -2.70377296       -2.09889422        1.87030757
 C           -3.30777912       -2.47878545       -0.36657254
 C           -3.12266422        0.30462463        1.78545413
 C           -3.60102910       -0.22009951       -0.94564631
 C           -3.51520723       -0.97750027        1.43224605
 C           -3.90664843       -1.22419235        0.05779336
 C           -2.35573727        2.44496624        1.27105323
 C           -1.90336558        3.39628896        0.36740127
 C           -2.13743851        3.17802435       -1.04645751
 C           -2.69669748        1.90909732       -1.47487654
 C           -3.23919534        1.38210816        0.81281078
 C           -3.33790462        1.08781039       -0.55212918




