%chk=000128.chk
%mem=8GB
%Nproc=16
#p B3LYP/6-31G* opt pop=NPA

Template file

0 1
 C           -4.56179242       -0.87089233       -0.87163010
 C           -4.22219641       -2.06781181       -0.11721471
 C           -3.36837303       -2.89397878       -0.96055324
 C           -4.03723367       -1.03377323       -2.21522155
 C           -3.16180047       -2.19267005       -2.21201203
 C           -3.65932127        0.08732551       -2.93061353
 C           -3.73833471        1.39287744       -2.30067756
 C           -4.50572395        0.37071435       -0.24484803
 C           -4.12830473        1.50955117       -0.96812714
 C           -4.56412430        0.41031607        1.14536287
 C           -3.95725574       -1.97426937        1.24933263
 C           -4.19014287       -0.76908131        1.90885446
 C           -3.09761177       -2.90038883        1.83519663
 C           -2.31077164       -3.58010126       -0.38403695
 C           -2.35141993       -3.81323237        0.98649958
 C           -1.09158846       -3.65704975       -1.06024484
 C           -1.87546098       -2.08060184       -2.73010510
 C           -0.82925443       -2.79347444       -2.13119433
 C           -2.43619291        0.04820425       -3.71164962
 C           -1.59997818       -1.06369081       -3.64862441
 C           -2.61930337        2.19180479       -2.78048993
 C           -1.83818753        1.37348833       -3.68000335
 C           -1.97712656        3.04663854       -1.89709040
 C           -3.79915775        2.68550313       -0.29743489
 C           -2.69989010        3.49756731       -0.80007446
 C           -4.06961595        1.56986935        1.86314577
 C           -3.74765871        2.71209219        1.15378409
 C           -3.27260266       -0.34299057        2.95638748
 C           -3.15485996        1.09904578        2.88967974
 C           -2.20210726       -2.46483292        2.89666951
 C           -2.14913306       -1.11326291        3.22053221
 C           -1.13687147       -4.17445674        1.69405021
 C           -0.97104859       -3.22578378        2.78082759
 C           -0.04431220       -4.36881283       -0.47970272
 C           -0.02404245       -4.54820565        0.96265956
 C            1.31981565       -4.10797001       -0.90427513
 C            0.47635147       -2.65980675       -2.61374976
 C            1.54880568       -3.12700118       -1.86014785
 C           -0.31082700       -0.92181071       -4.14237793
 C            0.73066113       -1.81507723       -3.68031392
 C           -0.45458104        1.47568771       -3.67952570
 C            0.25677112        0.41481365       -4.22363142
 C           -0.57947997        3.08971377       -1.86241392
 C            0.17899311        2.32111344       -2.76280887
 C            0.05890484        3.86419164       -0.88607494
 C           -2.00004116        4.05569176        0.33760740
 C           -2.57379365        3.47362188        1.53965984
 C           -0.62454289        4.22583199        0.27707484
 C           -1.90329692        1.69023178        3.01157589
 C           -1.71507907        2.98362715        2.52005483
 C           -0.90561522       -0.49380248        3.38199068
 C           -0.79978342        0.90584629        3.36570107
 C            0.24233732       -2.56921235        2.93805691
 C            0.24468669       -1.28150456        3.46298346
 C            1.28640247       -4.13260275        1.42612673
 C            2.16501139       -4.17094949        0.27548984
 C            1.39559695       -3.07792941        2.33096810
 C            3.32621322       -3.42118712        0.30415714
 C            2.77432940       -2.45027865       -1.88891124
 C            3.71021047       -2.67732020       -0.88133574
 C            1.98439998       -1.08753030       -3.71193877
 C            1.67886449        0.30898903       -3.98445032
 C            2.97018466       -1.38834689       -2.77789716
 C            1.57820598        2.33920553       -2.69717435
 C            2.32370127        1.29252487       -3.24896167
 C            1.43642046        4.04175181       -0.93983813
 C            2.21590444        3.27595435       -1.89220479
 C            2.19526853        4.10243720        0.30007858
 C            0.06729707        4.29049230        1.48330493
 C           -0.46677911        3.57842198        2.63265510
 C            1.51141425        4.15186505        1.50075062
 C            0.43017166        1.52110369        3.62330975
 C            0.62187424        2.84325311        3.24228261
 C            1.84999520        3.20426169        2.54931362
 C            1.45386183       -0.70113486        3.79873887
 C            1.56182217        0.74168387        3.83068206
 C            2.60020641       -2.37218530        2.41779208
 C            3.58826610       -2.56910516        1.45344442
 C            2.66930239       -1.23024839        3.21012330
 C            4.56245785       -1.58834770       -0.44355248
 C            4.35880223       -1.42637809        0.98607923
 C            3.91430374       -0.40507866       -2.48219832
 C            3.57850020        0.98846365       -2.72843018
 C            4.66519807       -0.46242205       -1.23865705
 C            3.47046934        2.92658390       -1.24609882
 C            3.30955630        3.18563641        0.17099140
 C            4.12569566        1.77478986       -1.63717217
 C            4.57676920        0.84561200       -0.61654546
 C            2.80816904        2.21778217        2.32475029
 C            2.80213101        1.11298350        3.16574187
 C            3.47277001       -0.10345300        2.75954937
 C            4.08923733       -0.16677972        1.51781592
 C            3.45190489        2.14045960        1.08498507
 C            4.08840200        0.95719975        0.68541681




