%chk=000087.chk
%mem=8GB
%Nproc=16
#p B3LYP/6-31G* opt pop=NPA

Template file

0 1
 C            4.68579991        0.04101945       -1.62138937
 C            3.74601458        0.25279401       -2.70872542
 C            3.10683861       -1.01992367       -3.00510655
 C            4.57665211       -1.34807240       -1.20392934
 C            3.53742209       -1.97378593       -2.00195940
 C            4.68655005       -1.67920307        0.13799890
 C            4.81693774       -0.62860815        1.13723536
 C            4.86019628        1.03846225       -0.67387549
 C            4.91055547        0.69605102        0.74078924
 C            4.09812155        2.26875253       -0.80001226
 C            2.98073124        1.41654830       -2.76143085
 C            3.03850107        2.33179924       -1.70446260
 C            1.88005484        1.42339957       -3.61025226
 C            1.78008345       -1.01533436       -3.42786941
 C            1.30615313        0.14877192       -4.01471106
 C            0.87199458       -1.92090137       -2.86401606
 C            2.58243588       -2.77292820       -1.39196887
 C            1.34602163       -2.92132155       -2.01019868
 C            3.81193149       -2.70115142        0.68864405
 C            2.75770565       -3.20390637       -0.07239909
 C            3.93310220       -0.96482331        2.23815916
 C            3.57650054       -2.36197837        2.07961695
 C            2.96376268       -0.04797789        2.64695974
 C            4.13854825        1.69553250        1.45672681
 C            3.92862485        2.80027036        0.53980775
 C            3.09776705        1.29807665        2.29883273
 C            2.87990183        3.66550790        0.78500398
 C            1.94102562        3.15639516       -1.42476837
 C            1.94770765        3.95674599       -0.28986046
 C            0.78280442        2.33156077       -3.34259392
 C            0.75232225        3.00164736       -2.13216321
 C           -0.11593381        0.33640381       -4.18200549
 C           -0.42760100        1.71673172       -3.84462054
 C           -0.51145832       -1.74883071       -3.04691404
 C           -0.99425491       -0.66096413       -3.78308326
 C           -1.41497450       -2.64019179       -2.45113126
 C            0.48322480       -3.89349805       -1.53694821
 C           -0.93626576       -3.77095475       -1.79819607
 C            1.72255347       -3.88375149        0.57447365
 C            0.65299017       -4.36353227       -0.17413783
 C            2.42356241       -2.82497114        2.68640576
 C            1.55621816       -3.72877946        1.94994325
 C            1.75916737       -0.50999082        3.18154419
 C            1.56804986       -1.87497357        3.37461089
 C            0.67023731        0.35512473        3.28201735
 C            2.05872275        2.19138877        2.56521404
 C            2.08199546        3.45568501        1.97546771
 C            0.87595140        1.72590188        3.14152514
 C            0.68077591        4.31638637        0.32307223
 C            0.83732954        4.16639235        1.76098149
 C           -0.47441064        3.24256031       -1.50433217
 C           -0.51009342        3.90932570       -0.27303794
 C           -1.63960380        1.98848803       -3.22586905
 C           -1.66806293        2.83737575       -2.11548278
 C           -2.33513079       -0.31335093       -3.68468042
 C           -2.67367907        1.07564025       -3.41860440
 C           -2.76046667       -2.29047154       -2.30521307
 C           -3.24076036       -1.14614290       -2.92318576
 C           -3.50110100       -2.81733307       -1.25027916
 C           -1.64112044       -4.27510923       -0.63200475
 C           -0.66571551       -4.42359645        0.43410787
 C           -2.88863762       -3.75839779       -0.33012358
 C            0.21559307       -3.57843822        2.49207318
 C            0.22062400       -2.40823059        3.35118345
 C           -0.87882202       -3.80187676        1.66352161
 C           -0.62850295       -0.15954349        3.40859201
 C           -0.84826567       -1.53209620        3.27964565
 C           -1.72680795        0.70100604        3.50371108
 C           -0.18787561        2.60244436        3.32296616
 C           -0.26497774        3.80601124        2.51353752
 C           -1.53174812        2.07369460        3.44843167
 C           -1.67253478        3.88311237        0.49959449
 C           -1.57285701        3.81773146        1.88538427
 C           -2.40948942        2.87690832        2.60882825
 C           -2.87750424        3.05981535       -1.46401017
 C           -2.87272194        3.51460066       -0.08785186
 C           -3.83947201        1.09752778       -2.55340589
 C           -4.14304388       -0.27384696       -2.18568373
 C           -3.95389374        2.09465723       -1.60286370
 C           -4.35265150       -1.92735256       -0.47573135
 C           -4.46776006       -0.59488283       -0.86894380
 C           -3.13395627       -3.26890381        1.01353505
 C           -2.05529243       -3.07758479        1.87495939
 C           -2.05049304       -1.98702264        2.75085617
 C           -4.18056594       -2.26466316        0.92648837
 C           -3.00075038        0.21550654        3.22493126
 C           -3.17477279       -1.18099679        2.86916605
 C           -4.22688838       -1.25804982        1.87226680
 C           -3.47081489        2.26124155        1.94922118
 C           -3.80611489        2.68537222        0.66320430
 C           -4.41640750        1.75091233       -0.27050150
 C           -4.56367224        0.41582980        0.09578149
 C           -3.88803399        1.00513866        2.38369799
 C           -4.53380246        0.09599461        1.44981879




