%chk=000040.chk
%mem=8GB
%Nproc=16
#p B3LYP/6-31G* opt pop=NPA

Template file

0 1
 C            4.95141069       -1.19570924       -0.00000000
 C            4.40879122       -1.86005155        1.17295220
 C            3.41244318       -2.82058255        0.72493792
 C            4.40879122       -1.86005155       -1.17295220
 C            3.41244318       -2.82058255       -0.72493792
 C            4.16878614       -1.13112385       -2.32910883
 C            4.30414835        0.31755098       -2.31730070
 C            5.11799674        0.18573634       -0.00000000
 C            4.75261697        0.96155878       -1.17471307
 C            4.75261697        0.96155878        1.17471307
 C            4.16878614       -1.13112385        2.32910883
 C            4.30414835        0.31755098        2.31730070
 C            3.00898442       -1.45737055        3.13759377
 C            2.20520137       -2.92068852        1.40729437
 C            2.12612632       -2.44688711        2.71942933
 C            1.03463483       -3.22155341        0.69947746
 C            2.20520137       -2.92068852       -1.40729437
 C            1.03463483       -3.22155341       -0.69947746
 C            3.00898442       -1.45737055       -3.13759377
 C            2.12612632       -2.44688711       -2.71942933
 C            3.18080494        0.87707177       -3.04857943
 C            2.45744714       -0.21895731       -3.66280827
 C            2.45825009        1.93228278       -2.51169168
 C            4.07067251        2.16295480       -0.72418915
 C            4.07067251        2.16295480        0.72418915
 C            2.92672823        2.60737213       -1.37940348
 C            2.92672823        2.60737213        1.37940348
 C            3.18080494        0.87707177        3.04857943
 C            2.45744714       -0.21895731        3.66280827
 C            2.45825009        1.93228278        2.51169168
 C            1.07634948       -0.12929185        3.82751358
 C            0.91627259       -2.52992104        3.38976512
 C            0.38361516       -1.32045108        4.00213598
 C           -0.15276787       -3.45735799        1.39445320
 C           -0.19102072       -3.21865871        2.76476175
 C           -1.35412922       -3.60162736        0.69785350
 C           -0.15276787       -3.45735799       -1.39445320
 C           -1.35412922       -3.60162736       -0.69785350
 C            0.91627259       -2.52992104       -3.38976512
 C           -0.19102072       -3.21865871       -2.76476175
 C            1.07634948       -0.12929185       -3.82751358
 C            0.38361516       -1.32045108       -4.00213598
 C            1.13715382        2.10389750       -2.91480870
 C            0.39888233        0.99485933       -3.33805369
 C            0.47995435        3.26611806       -2.54301699
 C            2.06543101        3.46964585       -0.70058488
 C            2.06543101        3.46964585        0.70058488
 C            0.98975979        4.00428339       -1.40283131
 C            0.98975979        4.00428339        1.40283131
 C            1.13715382        2.10389750        2.91480870
 C            0.39888233        0.99485933        3.33805369
 C            0.47995435        3.26611806        2.54301699
 C           -0.98437688        0.94322174        3.09679701
 C           -1.05363051       -1.34588608        3.83706544
 C           -1.39615779       -2.67208284        3.35652168
 C           -1.69563463       -0.24025271        3.29291082
 C           -2.56210284       -3.50311134        1.39273906
 C           -2.58820464       -2.83786561        2.68177529
 C           -3.76977956       -3.10325678        0.69251901
 C           -2.56210284       -3.50311134       -1.39273906
 C           -3.76977956       -3.10325678       -0.69251901
 C           -1.39615779       -2.67208284       -3.35652168
 C           -1.05363051       -1.34588608       -3.83706544
 C           -2.58820464       -2.83786561       -2.68177529
 C           -0.98437688        0.94322174       -3.09679701
 C           -1.69563463       -0.24025271       -3.29291082
 C           -0.96572540        3.26422124       -2.46137369
 C           -1.64976213        2.05967497       -2.58994119
 C           -0.14230949        4.57050118       -0.69322771
 C           -0.14230949        4.57050118        0.69322771
 C           -1.34685523        4.20067019       -1.41892202
 C           -0.96572540        3.26422124        2.46137369
 C           -1.64976213        2.05967497        2.58994119
 C           -1.34685523        4.20067019        1.41892202
 C           -2.90972918        1.91145765        2.00500545
 C           -2.94409543       -0.40556210        2.69079409
 C           -3.46522247       -1.69174685        2.53732076
 C           -4.34569160       -1.98094237        1.42062627
 C           -3.54063305        0.66591825        2.02341052
 C           -4.91013551       -0.92213329        0.72818854
 C           -4.61359464        0.43233901        1.16046179
 C           -4.34569160       -1.98094237       -1.42062627
 C           -3.46522247       -1.69174685       -2.53732076
 C           -2.94409543       -0.40556210       -2.69079409
 C           -4.91013551       -0.92213329       -0.72818854
 C           -2.90972918        1.91145765       -2.00500545
 C           -4.78932273        1.28446044        0.00000000
 C           -3.54063305        0.66591825       -2.02341052
 C           -4.61359464        0.43233901       -1.16046179
 C           -2.52841716        3.98482212       -0.72868436
 C           -2.52841716        3.98482212        0.72868436
 C           -3.40112617        2.90715584        1.15875483
 C           -3.40112617        2.90715584       -1.15875483
 C           -4.18398886        2.52508303        0.00000000




