%chk=000085.chk
%mem=8GB
%Nproc=16
#p B3LYP/6-31G* opt pop=NPA

Template file

0 1
 C            4.51427138       -0.03242461       -1.93159175
 C            3.55039464       -0.56312826       -2.87949010
 C            2.75811197        0.54874479       -3.38149111
 C            4.26323544        1.39444645       -1.79917984
 C            3.08620780        1.71441710       -2.58773189
 C            4.43622520        2.01635073       -0.57255932
 C            4.76763036        1.22436480        0.60405347
 C            4.85011347       -0.78458041       -0.81556022
 C            4.96003250       -0.14279310        0.48681863
 C            4.20958232       -2.07343336       -0.61700936
 C            2.91808915       -1.78083851       -2.63309098
 C            3.11710626       -2.42718493       -1.40816201
 C            1.79098714       -2.08385378       -3.38853972
 C            1.43579135        0.31195219       -3.73484268
 C            1.08052158       -0.99471590       -4.04020057
 C            0.43985920        1.20363764       -3.32732486
 C            2.05657933        2.45267156       -2.01931502
 C            0.75496793        2.27677998       -2.48071585
 C            3.48287129        3.03146305       -0.15787886
 C            2.28391035        3.18942332       -0.85534461
 C            3.95765939        1.72116322        1.70135569
 C            3.45907436        3.01941507        1.29304684
 C            3.11191133        0.84601604        2.38394126
 C            4.33494009       -1.02110814        1.45901774
 C            4.16550650       -2.31014969        0.81457466
 C            3.32428269       -0.53108912        2.28921163
 C            3.21448491       -3.17653479        1.31837405
 C            2.11695075       -3.25099509       -0.87601796
 C            2.25361783       -3.76928281        0.40495212
 C            0.79704939       -2.98952024       -2.84700137
 C            0.88527873       -3.35498279       -1.51517735
 C           -0.31988498       -1.35529342       -4.10504058
 C           -0.48857070       -2.61584049       -3.39859777
 C           -0.89604863        0.93225553       -3.64194418
 C           -1.28927739       -0.37213832       -3.95630682
 C           -1.86526089        1.89676278       -3.38670766
 C           -0.24904849        3.11807060       -2.00907295
 C           -1.52291809        3.04040472       -2.56164901
 C            1.21359180        3.82666421       -0.22434057
 C           -0.04196058        3.84592160       -0.83606965
 C            2.34677652        3.53001619        1.93283755
 C            1.32154478        4.16022153        1.12687626
 C            1.92026687        1.32835219        2.93040717
 C            1.65381378        2.69326198        2.89772210
 C            0.90183079        0.43572700        3.26073938
 C            2.37945644       -1.41657578        2.80987286
 C            2.47168126       -2.77256892        2.49457484
 C            1.20086112       -0.92099396        3.36949639
 C            1.05664082       -4.07033458        1.17085716
 C            1.27957599       -3.59626586        2.52737585
 C           -0.28183675       -3.52697917       -0.76340675
 C           -0.19478139       -3.88833105        0.58726326
 C           -1.63821679       -2.80751979       -2.64443032
 C           -1.53631428       -3.35853171       -1.36373265
 C           -2.58434017       -0.79069783       -3.66311540
 C           -2.76663169       -2.06475644       -2.98709006
 C           -3.21064409        1.48242408       -3.02222965
 C           -3.54823161        0.14548951       -3.11297133
 C           -2.68008581        3.34711246       -1.73851104
 C           -3.57946514        2.21441855       -1.82615256
 C           -1.13781054        4.33706142       -0.12575064
 C           -2.48208075        3.94307691       -0.50772149
 C            0.12927004        4.19618769        1.94898241
 C            0.27622245        3.14864093        2.94735608
 C           -1.09377676        4.35662600        1.32484851
 C           -0.42217944        0.88483458        3.38856986
 C           -0.74273672        2.21721664        3.10698711
 C           -1.44377332       -0.01202307        3.71363886
 C            0.22255683       -1.80812832        3.80201780
 C            0.19491084       -3.15680369        3.26344179
 C           -1.14840831       -1.35308440        3.91174480
 C           -1.31111193       -3.76215220        1.41611652
 C           -1.14057059       -3.38539459        2.74429451
 C           -2.00562606       -2.36163215        3.30372468
 C           -2.68550849       -3.49031711       -0.59075379
 C           -2.56653210       -3.60742270        0.84940442
 C           -3.85559274       -1.91053501       -2.03851598
 C           -4.18275142       -0.49709984       -1.97541589
 C           -3.83319146       -2.64449162       -0.86689094
 C           -3.92228312        1.51891626       -0.66619815
 C           -4.20688553        0.14816214       -0.73914412
 C           -3.11729630        3.36707857        0.66654552
 C           -2.23065955        3.58801949        1.79830361
 C           -2.03921820        2.55425237        2.71070932
 C           -3.79712584        2.15299296        0.57405047
 C           -2.75827201        0.32218853        3.41906652
 C           -3.05540187        1.61954204        2.84775024
 C           -3.97976084        1.42195783        1.74145269
 C           -3.13467734       -1.95994240        2.59261604
 C           -3.50838476       -2.67560998        1.45533364
 C           -4.20651638       -1.99486861        0.37667821
 C           -4.34992675       -0.61103135        0.42596761
 C           -3.60682824       -0.65995155        2.76291773
 C           -4.28784014        0.00922819        1.66409753




