%chk=000103.chk
%mem=8GB
%Nproc=16
#p B3LYP/6-31G* opt pop=NPA

Template file

0 1
 C            3.61560380       -3.16074199       -0.58734713
 C            2.40330868       -3.93603890       -0.40502913
 C            2.06163063       -3.90577717        1.00811709
 C            3.98894963       -2.62421316        0.71249291
 C            2.90296829       -2.90870594        1.63424253
 C            4.62413654       -1.39659851        0.79490739
 C            4.85686089       -0.61604661       -0.41267776
 C            3.74927656       -2.37786948       -1.72423622
 C            4.38732671       -1.07409472       -1.63386131
 C            2.62707086       -2.26684144       -2.64211131
 C            1.37400152       -3.85761970       -1.33934393
 C            1.41089081       -2.86254436       -2.32108420
 C            0.15318203       -4.41007908       -0.97884555
 C            0.72231642       -3.97722541        1.36063850
 C           -0.15371801       -4.53901839        0.43615491
 C            0.22379401       -3.09137550        2.31747455
 C            2.30924941       -1.86713315        2.34124431
 C            0.94883532       -1.93984792        2.64862468
 C            4.21398585       -0.47162834        1.83428704
 C            2.99489395       -0.66051664        2.48897420
 C            4.68345449        0.78490408       -0.06817445
 C            4.57790213        0.85536439        1.37728371
 C            3.86706174        1.60212927       -0.84962759
 C            3.66100264       -0.16348574       -2.49857158
 C            2.63495377       -0.92473881       -3.18755479
 C            3.35627122        1.12475220       -2.06515514
 C            1.42917145       -0.30129672       -3.46299015
 C            0.22032306       -2.29498934       -2.79410698
 C            0.24017482       -1.03216207       -3.40847776
 C           -1.05362726       -3.98420499       -1.65536111
 C           -0.99075635       -2.96461095       -2.59491639
 C           -1.58623575       -4.37429759        0.60273660
 C           -2.13520277       -3.97249870       -0.68141554
 C           -1.11107371       -3.19485803        2.68880824
 C           -2.06282678       -3.77816881        1.75611040
 C           -1.76364527       -2.07323209        3.33431065
 C            0.30964985       -0.84242492        3.23754201
 C           -1.05788626       -0.89363474        3.53824992
 C            2.35551866        0.43406037        3.06878719
 C            1.03968211        0.31452990        3.51795714
 C            3.93979760        1.94184244        1.94390620
 C            2.93307803        1.70046104        2.96030161
 C            3.38022214        2.79538809       -0.30216345
 C            3.42639507        2.98973269        1.07722100
 C            2.51081990        3.58847500       -1.04304182
 C            2.31597549        1.80529882       -2.69552100
 C            1.37992045        1.08881917       -3.44695661
 C            2.05504028        3.12017427       -2.33397992
 C            0.23992187        1.71958012       -3.92471300
 C           -0.94923062       -0.42876544       -3.83210319
 C           -0.97012200        0.93692765       -4.09689530
 C           -2.18389255       -2.34740057       -2.94404439
 C           -2.16137484       -1.06189645       -3.60553856
 C           -3.09063216       -2.96007699       -0.75392181
 C           -3.27685092       -2.34077992       -1.98307589
 C           -3.18261041       -2.86440739        1.65542012
 C           -3.12309477       -2.00783245        2.82328104
 C           -3.51646042       -2.31953471        0.41489518
 C           -3.76003488       -0.78201097        2.77865994
 C           -1.77035815        0.28626732        3.76594901
 C           -3.09472603        0.37760029        3.34572291
 C            0.37118927        1.45064312        3.96385874
 C           -1.07526923        1.47216514        3.94983564
 C            2.08827977        2.87887827        3.00093876
 C            2.27542651        3.58168074        1.74252583
 C            0.81278240        2.75811014        3.51578870
 C            1.37306896        4.20333378       -0.37237696
 C            1.17087265        3.94851376        0.97599146
 C            0.73647666        3.68384794       -2.56025877
 C           -0.14008147        3.01860129       -3.39845401
 C            0.24677050        4.16672482       -1.28148594
 C           -2.08980966        1.73373988       -3.61678052
 C           -1.54271827        2.94604175       -3.03162936
 C           -3.28745600       -0.28295464       -3.11214927
 C           -3.91923305       -1.04496526       -2.04532414
 C           -3.16089747        1.09976158       -2.99119326
 C           -4.11064471       -1.05125182        0.35538969
 C           -4.38455808       -0.36166817        1.53660675
 C           -4.27703705       -0.40127102       -0.87082789
 C           -3.49978297        1.54226781        2.57652540
 C           -4.40064156        1.09052897        1.53063824
 C           -1.48903507        2.64623130        3.19376447
 C           -0.29151287        3.34672328        2.78167088
 C           -0.11853300        3.67502139        1.44193401
 C           -2.54965864        2.52534365        2.30795813
 C           -0.99264722        3.73555029       -0.82242778
 C           -1.94641683        3.32125021       -1.75420198
 C           -1.16763497        3.45394094        0.53891072
 C           -2.41563951        3.01863446        1.00708357
 C           -3.82054895        1.75558060       -1.95205116
 C           -4.46613373        0.97751451       -0.90756744
 C           -4.40579143        1.75395848        0.31780929
 C           -3.19420223        2.90759808       -1.31727127
 C           -3.45924159        2.83484241        0.10531148




