%chk=000096.chk
%mem=8GB
%Nproc=16
#p B3LYP/6-31G* opt pop=NPA

Template file

0 1
 C                  4.69585901   -1.40160119    0.23085424
 C                  3.85398661   -2.58335778    0.25357614
 C                  3.40077641   -2.83591562   -1.10479027
 C                  4.67341037   -0.87044854   -1.12366577
 C                  3.75986974   -1.68484038   -1.90817338
 C                  4.69585901    0.50087496   -1.32924935
 C                  4.67341037    1.40834738   -0.19199767
 C                  4.67341037   -0.53789883    1.31566344
 C                  4.69585901    0.90072623    1.09839511
 C                  3.75986974   -0.81010643    2.41320126
 C                  2.96585882   -2.79266650    1.30684051
 C                  2.78791644   -1.79454429    2.26955264
 C                  1.98430527   -3.75860914    1.13438826
 C                  2.16236450   -3.43434021   -1.28686081
 C                  1.63109522   -4.15339031   -0.21897793
 C                  1.30713510   -2.94809443   -2.27792443
 C                  2.78791644   -1.06821810   -2.68889726
 C                  1.54652925   -1.69424806   -2.85795785
 C                  3.85398661    1.07207551   -2.36404153
 C                  2.96585882    0.26457617   -3.07194038
 C                  3.75986974    2.49494681   -0.50502788
 C                  3.40077641    2.37473425   -1.90357984
 C                  2.78791644    2.86276239    0.41934462
 C                  3.85398661    1.51128227    2.11046539
 C                  3.40077641    0.46118137    3.00837011
 C                  2.96585882    2.52809033    1.76509988
 C                  2.16236450    0.60271595    3.61765627
 C                  1.54652925   -1.62794007    2.89624078
 C                  1.30713510   -0.49869321    3.69208688
 C                  0.75902050   -3.67692234    1.90219852
 C                  0.56109409   -2.73129197    2.93968531
 C                  0.22949977   -4.52882749   -0.22146964
 C                 -0.32830578   -4.15389818    1.06626531
 C                  0.07013810   -3.56417607   -2.46034011
 C                 -0.51860398   -4.31803577   -1.36493166
 C                 -1.00128315   -2.83233147   -3.11015897
 C                  0.53483566   -1.06274352   -3.58826050
 C                 -0.77713233   -1.51407004   -3.48095522
 C                  1.98430527    0.89689552   -3.82224513
 C                  0.75902050    0.19110892   -4.13540741
 C                  2.16236450    2.83162426   -2.33079546
 C                  1.63109522    2.26633561   -3.48745255
 C                  1.54652925    3.32218813   -0.03828294
 C                  1.30713510    3.44678764   -1.41416245
 C                  0.53483566    3.63889651    0.87376737
 C                  1.98430527    2.86171363    2.68785687
 C                  1.63109522    1.88705470    3.70643049
 C                  0.75902050    3.48581341    2.23320889
 C                  0.22949977    2.07261541    4.03281448
 C                 -0.32830578    3.00036193    3.06424869
 C                  0.07013810   -0.34862900    4.31683708
 C                 -0.51860398    0.97695239    4.42199451
 C                 -0.77713233   -2.25756063    3.05170073
 C                 -1.00128315   -1.27731095    4.00795049
 C                 -1.55313278   -3.49561931    1.12983638
 C                 -1.82762611   -2.70555644    2.24451028
 C                 -1.89818856   -3.88953654   -1.23128140
 C                 -2.24607909   -3.19632568   -2.45570055
 C                 -2.35691967   -3.39156250   -0.01261984
 C                 -3.28238893   -2.28016772   -2.42859540
 C                 -1.82762611   -0.59102470   -3.46533575
 C                 -3.09510207   -0.98527561   -3.05794690
 C                 -0.32830578    1.15353624   -4.13051400
 C                  0.22949977    2.45621208   -3.81134484
 C                 -1.55313278    0.76934265   -3.59221331
 C                  0.07013810    3.91280507   -1.85649697
 C                 -0.51860398    3.34108338   -3.05706284
 C                 -0.77713233    3.77163067    0.42925450
 C                 -1.00128315    4.10964241   -0.89779151
 C                 -1.55313278    2.72627666    2.46237694
 C                 -1.82762611    3.29658115    1.22082547
 C                 -1.89818856    0.87844730    3.98407815
 C                 -2.24607909   -0.52853622    3.99594951
 C                 -2.35691967    1.68485215    2.94348920
 C                 -3.09510207   -2.15562189    2.38224716
 C                 -3.28238893   -0.96314146    3.18898087
 C                 -3.50286133   -2.58911333    0.00701106
 C                 -3.99680479   -2.06019213   -1.18282283
 C                 -3.93170395   -2.03091790    1.20511701
 C                 -3.93170395   -0.02820299   -2.36138500
 C                 -4.50193892   -0.69646894   -1.19949537
 C                 -2.35691967    1.70671035   -2.93086936
 C                 -1.89818856    3.01108924   -2.75279675
 C                 -2.24607909    3.72486190   -1.54024896
 C                 -3.50286133    1.28848491   -2.24574345
 C                 -3.09510207    3.14089750    0.67569974
 C                 -3.28238893    3.24330918   -0.76038547
 C                 -3.99680479    2.05445068   -1.19276730
 C                 -3.50286133    1.30062842    2.23873238
 C                 -3.99680479    0.00574145    2.37559013
 C                 -4.50193892   -0.69055899    1.20290748
 C                 -4.63358803    0.00000000    0.00000000
 C                 -3.93170395    2.05912089    1.15626799
 C                 -4.50193892    1.38702793   -0.00341211

