%chk=000089.chk
%mem=8GB
%Nproc=16
#p B3LYP/6-31G* opt pop=NPA

Template file

0 1
 C            4.48981186       -1.92796775        0.87163389
 C            4.64440193       -0.51309267        1.15044747
 C            3.89351806       -0.21545069        2.36076106
 C            3.63152183       -2.48890403        1.90522266
 C            3.10580804       -1.38538935        2.68770604
 C            2.79170885       -3.54772257        1.60484871
 C            2.73407830       -4.06145230        0.24402002
 C            4.35528727       -2.34660658       -0.44213524
 C            3.41251883       -3.40276240       -0.77177087
 C            4.29716952       -1.35530172       -1.49995860
 C            4.64794192        0.41896617        0.11286272
 C            4.45361036       -0.00044951       -1.21149554
 C            4.47320770        1.75926054        0.45510603
 C            3.31952112        1.03852765        2.49342548
 C            3.83598888        2.07728161        1.72256188
 C            2.02492666        1.14393791        3.00280666
 C            1.72973133       -1.25173489        2.85907124
 C            1.18543248        0.02168194        3.02608471
 C            1.43515122       -3.52875545        2.12344459
 C            0.89187094       -2.33761507        2.59849280
 C            1.37060901       -4.49883725        0.00437127
 C            0.63753393       -4.36474840        1.25152196
 C            0.72941147       -4.14671849       -1.18033256
 C            2.67377207       -2.99113007       -1.95449164
 C            3.25214584       -1.75461783       -2.43128807
 C            1.29613291       -3.15741076       -1.98412458
 C            2.43311053       -0.77353186       -2.97288343
 C            4.01795788        0.90800781       -2.17447074
 C            2.97815230        0.49409738       -3.10486570
 C            3.99625190        2.71574924       -0.52825868
 C            3.78038367        2.29674947       -1.82641185
 C            3.06565119        3.29569937        1.54031118
 C            3.00438989        3.56170073        0.11404061
 C            1.48384106        2.41009537        3.17052874
 C            1.92932071        3.48753047        2.30478030
 C            0.05634473        2.55619453        3.34136030
 C           -0.20061466        0.17196768        3.15787976
 C           -0.74263688        1.42763756        3.45759110
 C           -0.48804612       -2.14853646        2.52466315
 C           -1.04280078       -0.92000574        2.90133064
 C           -0.72941147       -4.14671849        1.18033256
 C           -1.29613291       -3.15741076        1.98412458
 C           -0.63753393       -4.36474840       -1.25152196
 C           -1.37060901       -4.49883725       -0.00437127
 C           -1.43515122       -3.52875545       -2.12344459
 C            0.48804612       -2.14853646       -2.52466315
 C            1.04280078       -0.92000574       -2.90133064
 C           -0.89187094       -2.33761507       -2.59849280
 C            0.20061466        0.17196768       -3.15787976
 C            2.11018006        1.62369849       -3.33945406
 C            2.58125037        2.72970775       -2.52172889
 C            0.74263688        1.42763756       -3.45759110
 C            1.76859011        3.76611583       -0.50125890
 C            1.63841413        3.52444178       -1.87351421
 C            0.74774462        4.03954641        1.67041573
 C           -0.38834494        3.63388508        2.46952493
 C            0.63558176        4.01626105        0.28642431
 C           -1.63841413        3.52444178        1.87351421
 C           -2.11018006        1.62369849        3.33945406
 C           -2.58125037        2.72970775        2.52172889
 C           -2.43311053       -0.77353186        2.97288343
 C           -2.97815230        0.49409738        3.10486570
 C           -2.67377207       -2.99113007        1.95449164
 C           -3.25214584       -1.75461783        2.43128807
 C           -2.73407830       -4.06145230       -0.24402002
 C           -2.79170885       -3.54772257       -1.60484871
 C           -3.41251883       -3.40276240        0.77177087
 C           -3.63152183       -2.48890403       -1.90522266
 C           -1.72973133       -1.25173489       -2.85907124
 C           -1.18543248        0.02168194       -3.02608471
 C           -3.10580804       -1.38538935       -2.68770604
 C           -2.02492666        1.14393791       -3.00280666
 C           -0.05634473        2.55619453       -3.34136030
 C            0.38834494        3.63388508       -2.46952493
 C           -1.48384106        2.41009537       -3.17052874
 C           -0.63558176        4.01626105       -0.28642431
 C           -1.76859011        3.76611583        0.50125890
 C           -0.74774462        4.03954641       -1.67041573
 C           -1.92932071        3.48753047       -2.30478030
 C           -3.00438989        3.56170073       -0.11404061
 C           -3.06565119        3.29569937       -1.54031118
 C           -3.78038367        2.29674947        1.82641185
 C           -4.01795788        0.90800781        2.17447074
 C           -3.99625190        2.71574924        0.52825868
 C           -4.29716952       -1.35530172        1.49995860
 C           -4.35528727       -2.34660658        0.44213524
 C           -4.48981186       -1.92796775       -0.87163389
 C           -4.45361036       -0.00044951        1.21149554
 C           -3.89351806       -0.21545069       -2.36076106
 C           -3.31952112        1.03852765       -2.49342548
 C           -3.83598888        2.07728161       -1.72256188
 C           -4.47320770        1.75926054       -0.45510603
 C           -4.64440193       -0.51309267       -1.15044747
 C           -4.64794192        0.41896617       -0.11286272




