%chk=000077.chk
%mem=8GB
%Nproc=16
#p B3LYP/6-31G* opt pop=NPA

Template file

0 1
 C            4.81072736       -0.88315437        0.52316884
 C            4.33129038       -0.13975034        1.67398890
 C            3.53545731       -1.04100500        2.49321113
 C            4.28927470       -2.23693737        0.62181357
 C            3.43231580       -2.30535817        1.79496096
 C            3.91120344       -2.91587757       -0.52716910
 C            3.88836974       -2.22280923       -1.80658688
 C            4.87570163       -0.25336077       -0.71080603
 C            4.37815288       -0.93116493       -1.90047446
 C            4.48865505        1.14310240       -0.80975939
 C            3.91603194        1.18324963        1.53623097
 C            3.84075602        1.75815117        0.26212583
 C            3.17805404        1.73093577        2.57775200
 C            2.43048189       -0.52994364        3.16124877
 C            2.42862825        0.83369889        3.44570523
 C            1.21566937       -1.22492103        3.12420183
 C            2.19820390       -2.93710028        1.70502097
 C            1.12073532       -2.45797726        2.45888474
 C            2.74723037       -3.78108931       -0.48114237
 C            1.98129215       -3.85994450        0.67899528
 C            2.62789665       -2.53845413       -2.45583693
 C            2.06190819       -3.67379287       -1.75853193
 C            1.78635019       -1.50874871       -2.86913244
 C            3.62704759        0.04174097       -2.67104889
 C            3.99170749        1.34785171       -2.15856529
 C            2.29548463       -0.21630170       -3.00512113
 C            3.13761559        2.40565038       -2.39623309
 C            2.96748198        2.82622048        0.01510372
 C            2.77710484        3.26969415       -1.28781201
 C            2.35286320        2.89588282        2.33245178
 C            2.12511335        3.29656458        1.02190502
 C            1.18512237        1.49363873        3.79274464
 C            1.24727930        2.84645993        3.27103896
 C            0.06433570       -0.61241710        3.62569231
 C            0.00128586        0.77595592        3.70517495
 C           -1.11218340       -1.33642128        3.72751113
 C           -0.07606443       -3.18150957        2.48712293
 C           -1.18880895       -2.65273802        3.12958704
 C            0.74769096       -4.48743938        0.58179362
 C           -0.28589383       -4.18566457        1.55040130
 C            0.68843924       -3.86112754       -1.78203498
 C            0.11751280       -4.56518884       -0.72513593
 C            0.40683996       -1.71908818       -2.87200607
 C           -0.10308821       -2.97157400       -2.50866218
 C           -0.45928984       -0.65489952       -3.14680450
 C            1.42962174        0.85368601       -3.23505885
 C            1.91926205        2.15385773       -3.14250348
 C            0.04948716        0.64530802       -3.24700037
 C            1.52348958        3.90476965       -1.63870952
 C            1.00739905        3.23122788       -2.82265690
 C            0.94572512        3.98189072        0.69892650
 C            0.63262059        4.26581146       -0.63470713
 C            0.06939957        3.49299342        2.94620964
 C           -0.00870030        4.21330505        1.68934049
 C           -1.19748338        1.43307663        3.41134627
 C           -1.19243492        2.79364955        3.12303486
 C           -2.36669107       -0.65345564        3.47284077
 C           -2.32730897        0.68286843        3.08811900
 C           -2.49458501       -2.78259138        2.49955209
 C           -3.25393353       -1.58211817        2.79578287
 C           -1.57242623       -4.26294568        0.87213765
 C           -1.32124698       -4.53865838       -0.53178545
 C           -2.58344130       -3.37952393        1.24387407
 C           -1.47138787       -3.19815418       -2.56685536
 C           -2.11373051       -3.93439702       -1.49084312
 C           -1.82852215       -0.88959246       -3.31210646
 C           -2.35714272       -2.12155976       -2.95500472
 C           -2.70531998        0.18442519       -3.35700059
 C           -0.81762073        1.74445590       -3.28304829
 C           -0.35775475        3.01094504       -2.91814129
 C           -2.18624423        1.53561495       -3.38585951
 C           -0.69410304        4.49173165       -1.00002168
 C           -1.19923917        3.86375173       -2.20954620
 C           -1.41172660        4.28279445        1.32782568
 C           -2.11663309        3.29151913        2.12205908
 C           -1.75010126        4.43989799       -0.00256906
 C           -3.22007442        1.16313105        2.12332979
 C           -2.97624862        2.38809116        1.50386942
 C           -4.14969221       -1.09998967        1.85976049
 C           -4.19231436        0.32582492        1.59105718
 C           -3.44642893       -2.85118650        0.27481914
 C           -3.27301109       -3.17262249       -1.06809152
 C           -3.52019554       -2.15927104       -2.08032260
 C           -4.29563026       -1.79557290        0.59399329
 C           -3.87546520        0.17095218       -2.49060250
 C           -4.58605982        0.50723154        0.20800336
 C           -4.13445727       -0.96150073       -1.72221913
 C           -4.61970420       -0.80540468       -0.42348949
 C           -3.09079581        2.37126175       -2.61478501
 C           -2.58191088        3.48649392       -1.97223852
 C           -2.83932442        3.65214985       -0.55331418
 C           -3.36495506        2.58464738        0.17308495
 C           -3.98156324        1.48669316       -1.88484434
 C           -4.08337846        1.59144871       -0.50061417




