%chk=000023.chk
%mem=8GB
%Nproc=16
#p B3LYP/6-31G* opt pop=NPA

Template file

0 1
 C           -5.00615888       -1.29851149        0.00000000
 C           -4.46538465       -1.96054910       -1.17786906
 C           -3.61112564       -3.04280846       -0.72648268
 C           -4.46538465       -1.96054910        1.17786906
 C           -3.61112564       -3.04280846        0.72648268
 C           -4.07975889       -1.21247709        2.27990597
 C           -4.27329295        0.22974109        2.28275457
 C           -5.18334667        0.07954769        0.00000000
 C           -4.82755668        0.85684835        1.17766929
 C           -4.82755668        0.85684835       -1.17766929
 C           -4.07975889       -1.21247709       -2.27990597
 C           -4.27329295        0.22974109       -2.28275457
 C           -2.80263194       -1.49498027       -2.91270433
 C           -2.41447493       -3.31552067       -1.38400672
 C           -1.92706682       -2.40712522       -2.32898833
 C           -1.51927310       -4.14772581       -0.72832227
 C           -2.41447493       -3.31552067        1.38400672
 C           -1.51927310       -4.14772581        0.72832227
 C           -2.80263194       -1.49498027        2.91270433
 C           -1.92706682       -2.40712522        2.32898833
 C           -3.12594268        0.83294696        2.93654447
 C           -2.28293020       -0.24400426        3.42535358
 C           -2.52534392        1.96916331        2.39032571
 C           -4.27062751        2.11838023        0.72685879
 C           -4.27062751        2.11838023       -0.72685879
 C           -3.18734390        2.69047536        1.38976233
 C           -3.18734390        2.69047536       -1.38976233
 C           -3.12594268        0.83294696       -2.93654447
 C           -2.28293020       -0.24400426       -3.42535358
 C           -2.52534392        1.96916331       -2.39032571
 C           -0.91606320       -0.04360677       -3.44747826
 C           -0.54506300       -2.23515543       -2.49522147
 C           -0.05367346       -1.09651977       -3.13993571
 C           -0.13899185       -4.19014999       -1.15937433
 C            0.34553246       -3.18174263       -1.98580081
 C           -0.13899185       -4.19014999        1.15937433
 C            0.63682621       -4.58645565        0.00000000
 C           -0.54506300       -2.23515543        2.49522147
 C            0.34553246       -3.18174263        1.98580081
 C           -0.91606320       -0.04360677        3.44747826
 C           -0.05367346       -1.09651977        3.13993571
 C           -1.17000240        2.20885853        2.65809203
 C           -0.44418149        1.25850373        3.37903962
 C           -0.51233426        3.30008815        2.07843979
 C           -2.51397417        3.70861100        0.72815106
 C           -2.51397417        3.70861100       -0.72815106
 C           -1.19092085        4.09824688        1.16663197
 C           -1.19092085        4.09824688       -1.16663197
 C           -0.48675517        4.59747497       -0.00000000
 C           -1.17000240        2.20885853       -2.65809203
 C           -0.44418149        1.25850373       -3.37903962
 C           -0.51233426        3.30008815       -2.07843979
 C            0.88703216        1.48399854       -3.67795223
 C            1.32369185       -0.89259856       -3.24563054
 C            1.78984232        0.34653154       -3.68864510
 C            1.71905958       -2.92820892       -2.00478450
 C            2.20982263       -1.79167747       -2.64970631
 C            1.98980234       -4.31947273        0.00000000
 C            2.55710779       -3.65852721       -1.15880308
 C            1.71905958       -2.92820892        2.00478450
 C            2.55710779       -3.65852721        1.15880308
 C            1.32369185       -0.89259856        3.24563054
 C            2.20982263       -1.79167747        2.64970631
 C            0.88703216        1.48399854        3.67795223
 C            1.78984232        0.34653154        3.68864510
 C            0.87704469        3.41863207        2.17876172
 C            1.57397500        2.59597348        3.05345839
 C            0.89602823        4.57224829       -0.00000000
 C            1.59036745        4.06402578        1.16998219
 C            0.87704469        3.41863207       -2.17876172
 C            1.57397500        2.59597348       -3.05345839
 C            1.59036745        4.06402578       -1.16998219
 C            3.09416328        0.82314539       -3.26587349
 C            2.90505369        2.14047070       -2.68477912
 C            3.55605150       -1.44699210       -2.51260692
 C            3.96025081       -0.06116670       -2.65183879
 C            3.82180814       -3.08952195       -0.72842747
 C            3.82180814       -3.08952195        0.72842747
 C            4.33269487       -2.00407065       -1.42055048
 C            3.55605150       -1.44699210        2.51260692
 C            4.33269487       -2.00407065        1.42055048
 C            3.09416328        0.82314539        3.26587349
 C            2.90505369        2.14047070        2.68477912
 C            3.96025081       -0.06116670        2.65183879
 C            2.85634529        3.50111220        0.72453979
 C            2.85634529        3.50111220       -0.72453979
 C            3.38573108        2.41382003       -1.40576262
 C            3.38573108        2.41382003        1.40576262
 C            4.58347000        0.32921258       -1.39997555
 C            4.92700032       -0.89187605       -0.69294217
 C            4.92700032       -0.89187605        0.69294217
 C            4.58347000        0.32921258        1.39997555
 C            4.07871555        1.42580360       -0.70116627
 C            4.07871555        1.42580360        0.70116627




