%chk=000120.chk
%mem=8GB
%Nproc=16
#p B3LYP/6-31G* opt pop=NPA

Template file

0 1
 C            3.84253732       -2.38865218        1.18947454
 C            4.56207241       -1.19891810        0.76071414
 C            4.59496775       -1.20002410       -0.69484778
 C            3.58412954       -3.19763693        0.00913636
 C            3.87123598       -2.37594019       -1.15144191
 C            2.47091978       -4.01808791       -0.01127067
 C            1.64637655       -4.09139777        1.17650679
 C            2.87475924       -2.28159887        2.18586141
 C            1.72135619       -3.06834271        2.12066244
 C            2.90359168       -1.17615015        3.02836999
 C            4.37690636        0.00000000        1.44217169
 C            3.66874047        0.00000000        2.64190261
 C            4.56207241        1.19891810        0.76071414
 C            4.45527616        0.00000000       -1.38723021
 C            4.59496775        1.20002410       -0.69484778
 C            3.80438132        0.00000000       -2.62057528
 C            2.92061529       -2.23786603       -2.15768495
 C            3.05319748       -1.17517502       -3.03595704
 C            1.56796088       -3.94666637       -1.14866321
 C            1.69286651       -2.89677333       -2.05039734
 C            0.34997601       -4.57910753        0.74907122
 C            0.25065471       -4.32984512       -0.68025000
 C           -0.75069292       -4.32236777        1.54624477
 C            0.56422179       -2.66743610        2.79660319
 C           -0.60401149       -3.40762709        2.66492875
 C            1.67161164       -0.72444463        3.64698392
 C            0.49461050       -1.39741356        3.36206577
 C            2.90359168        1.17615015        3.02836999
 C            1.67161164        0.72444463        3.64698392
 C            3.84253732        2.38865218        1.18947454
 C            2.87475924        2.28159887        2.18586141
 C            3.87123598        2.37594019       -1.15144191
 C            3.58412954        3.19763693        0.00913636
 C            3.05319748        1.17517502       -3.03595704
 C            2.92061529        2.23786603       -2.15768495
 C            1.90212755       -0.72725625       -3.78898993
 C            1.90212755        0.72725625       -3.78898993
 C            0.54876272       -2.36331810       -2.65845693
 C            0.68834484       -1.38825082       -3.65303186
 C           -0.86904869       -3.67257120       -1.17503143
 C           -0.73030165       -2.75198264       -2.22069769
 C           -2.02040477       -4.02621720        0.90996152
 C           -2.05972626       -3.73028415       -0.44783254
 C           -1.88203123       -2.74910086        2.86796058
 C           -2.79252232       -3.21016731        1.83054298
 C           -0.71701418       -0.70144620        3.36040727
 C           -1.91550942       -1.41139263        3.24434460
 C            0.49461050        1.39741356        3.36206577
 C           -0.71701418        0.70144620        3.36040727
 C            1.72135619        3.06834271        2.12066244
 C            0.56422179        2.66743610        2.79660319
 C            2.47091978        4.01808791       -0.01127067
 C            1.64637655        4.09139777        1.17650679
 C            1.69286651        2.89677333       -2.05039734
 C            1.56796088        3.94666637       -1.14866321
 C            0.68834484        1.38825082       -3.65303186
 C            0.54876272        2.36331810       -2.65845693
 C           -0.43624496       -0.72741497       -4.12494352
 C           -0.43624496        0.72741497       -4.12494352
 C           -1.87566148       -2.19712644       -2.80185021
 C           -1.75095722       -1.17371601       -3.72719416
 C           -3.19405723       -3.10957722       -0.94564701
 C           -3.10551789       -2.35107795       -2.17567218
 C           -3.74622705       -2.32976556        1.32424149
 C           -4.06795034       -2.38876160       -0.03079895
 C           -3.10704996       -0.72348508        3.06847641
 C           -4.03891833       -1.17567876        2.04636191
 C           -1.91550942        1.41139263        3.24434460
 C           -3.10704996        0.72348508        3.06847641
 C           -0.60401149        3.40762709        2.66492875
 C           -1.88203123        2.74910086        2.86796058
 C            0.34997601        4.57910753        0.74907122
 C            0.25065471        4.32984512       -0.68025000
 C           -0.75069292        4.32236777        1.54624477
 C           -0.73030165        2.75198264       -2.22069769
 C           -0.86904869        3.67257120       -1.17503143
 C           -1.75095722        1.17371601       -3.72719416
 C           -2.60166081       -0.00000000       -3.60388566
 C           -1.87566148        2.19712644       -2.80185021
 C           -3.99205372       -1.20233376       -2.06231715
 C           -4.54757278       -1.19877670       -0.71729276
 C           -3.63261462       -0.00000000       -2.66712821
 C           -4.55403378       -0.00000000        1.36144353
 C           -4.03891833        1.17567876        2.04636191
 C           -4.66383994       -0.00000000       -0.02400012
 C           -2.79252232        3.21016731        1.83054298
 C           -2.02040477        4.02621720        0.90996152
 C           -2.05972626        3.73028415       -0.44783254
 C           -3.74622705        2.32976556        1.32424149
 C           -3.10551789        2.35107795       -2.17567218
 C           -3.99205372        1.20233376       -2.06231715
 C           -4.54757278        1.19877670       -0.71729276
 C           -3.19405723        3.10957722       -0.94564701
 C           -4.06795034        2.38876160       -0.03079895




