%chk=000105.chk
%mem=8GB
%Nproc=16
#p B3LYP/6-31G* opt pop=NPA

Template file

0 1
 C            3.09973798       -3.72477219       -0.10408559
 C            1.80165877       -4.25100875       -0.48089587
 C            1.52787885       -3.83236351       -1.84631620
 C            3.60873413       -2.96866022       -1.23801032
 C            2.53542085       -2.85915425       -2.21030533
 C            4.42265564       -1.86907887       -1.02357177
 C            4.70177042       -1.42584108        0.33560087
 C            3.28444573       -3.24809151        1.18509076
 C            4.10258291       -2.06676488        1.40899955
 C            2.14445465       -3.18349185        2.08549178
 C            0.75311791       -4.25195560        0.43485712
 C            0.87659900       -3.52017640        1.62024385
 C           -0.51320591       -4.52804001       -0.06194204
 C            0.20776011       -3.61163899       -2.21118719
 C           -0.77498130       -4.25686708       -1.46550000
 C           -0.12004542       -2.44298331       -2.90184563
 C            2.13656075       -1.60228209       -2.65420511
 C            0.79181050       -1.38057638       -2.95425564
 C            4.20985842       -0.68104186       -1.82858470
 C            3.00850930       -0.52017322       -2.52230386
 C            4.75537370        0.02630821        0.31871368
 C            4.74892194        0.43319943       -1.07392574
 C            4.01837278        0.76422730        1.24432844
 C            3.46100924       -1.27100548        2.43832840
 C            2.30298848       -2.00574603        2.91458894
 C            3.36190125        0.11089867        2.29687159
 C            1.17799701       -1.28977072        3.29084258
 C           -0.24916330       -2.91454075        2.19320146
 C           -0.09279876       -1.82482985        3.06549715
 C           -1.68161606       -4.12263860        0.68983690
 C           -1.52585872       -3.35929690        1.83842524
 C           -2.16485743       -3.85878966       -1.59600187
 C           -2.72489652       -3.76138342       -0.25953557
 C           -1.44478002       -2.22978809       -3.26836550
 C           -2.50447810       -2.90994653       -2.54230612
 C           -1.89873535       -0.88349693       -3.55190653
 C            0.35899544       -0.09325226       -3.28681930
 C           -1.00040757        0.16563584       -3.47656348
 C            2.57325340        0.76592358       -2.84208421
 C            1.26841576        0.96629820       -3.29594321
 C            4.31867234        1.70743210       -1.39045270
 C            3.34372032        1.86275894       -2.45315898
 C            3.74554916        2.11058896        0.97385037
 C            3.92102271        2.60395454       -0.31769325
 C            2.95800349        2.84400926        1.85396499
 C            2.38490865        0.78289559        3.02855009
 C            1.31256032        0.06730199        3.56900966
 C            2.33708463        2.16964807        2.97466659
 C            0.23743501        0.74367212        4.12776874
 C           -1.21143457       -1.16767998        3.59044918
 C           -1.07371478        0.12542994        4.08818617
 C           -2.64587065       -2.70230923        2.32722374
 C           -2.48496638       -1.58095502        3.22665146
 C           -3.59663963       -2.72370165        0.06433755
 C           -3.73367059       -2.39220744        1.41095165
 C           -3.52415958       -1.92900922       -2.22344086
 C           -3.21316180       -0.71452753       -2.96015161
 C           -4.02250050       -1.82832652       -0.92599056
 C           -3.55496383        0.51761635       -2.41049556
 C           -1.49318315        1.44871504       -3.26956186
 C           -2.72976346        1.62332830       -2.63927979
 C            0.79960793        2.26714407       -3.48167395
 C           -0.62853189        2.52492139       -3.41626092
 C            2.70802416        3.15001819       -2.25019137
 C            2.93364347        3.52446668       -0.86276900
 C            1.46445896        3.36972087       -2.80933684
 C            1.99052570        3.79177349        1.31659474
 C            1.86241513        3.91969201       -0.06239051
 C            1.09543011        2.86184397        3.26937585
 C            0.06312571        2.16064678        3.86517877
 C            0.79810460        3.72053884        2.13738178
 C           -2.03184261        1.14135030        3.67593401
 C           -1.28835945        2.34549257        3.36937028
 C           -3.47153608       -0.57365493        2.86850840
 C           -4.29495963       -1.11168615        1.79950318
 C           -3.08910569        0.76610609        2.85546117
 C           -4.68871324       -0.65751566       -0.57088045
 C           -4.47272187        0.54610055       -1.36035501
 C           -4.77594823       -0.25941905        0.82363209
 C           -3.44302768        1.57651257        1.77051505
 C           -4.50252699        1.67970550       -0.44986662
 C           -4.44692640        1.15210054        0.90079220
 C           -3.00953429        2.82669907       -1.99436976
 C           -3.76536300        2.80785199       -0.75837388
 C           -0.82340042        3.71721977       -2.60839943
 C            0.45856846        4.04602056       -2.01631195
 C            0.59197898        4.07528919       -0.62897873
 C           -1.96119010        3.81617236       -1.83045505
 C           -0.44085723        3.63640713        1.51502192
 C           -1.49475517        2.96493898        2.14418748
 C           -2.66787337        2.69654484        1.44138776
 C           -2.92093072        3.39730682        0.26618013
 C           -0.55201314        4.00951038        0.17679800
 C           -1.81565420        4.05850174       -0.40505188




