%chk=000129.chk
%mem=8GB
%Nproc=16
#p B3LYP/6-31G* opt pop=NPA

Template file

0 1
 C            4.64544955       -0.85452373        0.24659909
 C            4.29571001       -1.65165063       -0.91878602
 C            3.53806400       -2.80581476       -0.45330300
 C            4.22876802       -1.59181547        1.42549561
 C            3.40912195       -2.70800318        0.98624249
 C            3.85606796       -0.89368674        2.55879870
 C            3.82630074        0.55734895        2.52272238
 C            4.49724862        0.52881369        0.19703373
 C            4.12271439        1.23981634        1.34453713
 C            4.45933720        1.14242746       -1.05203007
 C            3.92673798       -1.01815414       -2.10571258
 C            4.07740102        0.36255354       -2.21793801
 C            3.05590113       -1.66869974       -2.97609695
 C            2.46063617       -3.25214104       -1.20107016
 C            2.39711888       -2.88910642       -2.54258742
 C            1.30857703       -3.69961831       -0.55132486
 C            2.16901866       -2.92377481        1.58002592
 C            1.10816954       -3.41325627        0.80518704
 C            2.70100417       -1.34066888        3.31600764
 C            1.92927541       -2.40354742        2.85461878
 C            2.70046416        1.00397221        3.33068678
 C            2.02306303       -0.16675116        3.84151150
 C            1.95946744        2.09564616        2.90239738
 C            3.69607388        2.56206069        1.23849308
 C            2.59133854        3.01250330        2.07311552
 C            3.87709211        2.46295594       -1.19933445
 C            3.55407898        3.18515636       -0.06567608
 C            3.08379504        1.13028945       -2.95596906
 C            2.92280038        2.40870125       -2.29429101
 C            2.07985844       -0.88719164       -3.72111824
 C            1.97203361        0.47715981       -3.46869551
 C            1.13886242       -2.98743776       -3.25970956
 C            0.87767222       -1.68955670       -3.85618964
 C            0.24701537       -4.16402575       -1.31906115
 C            0.09124389       -3.67924179       -2.67856935
 C           -1.07561156       -4.24649157       -0.73562583
 C           -0.13086198       -3.67920693        1.40421028
 C           -1.24096878       -4.01012577        0.62114499
 C            0.68381280       -2.58222458        3.43738713
 C           -0.32263917       -3.35620932        2.74269648
 C            0.63779510       -0.18244778        3.92023295
 C            0.02329434       -1.42656209        4.02701738
 C            0.56271350        2.03490055        2.91615467
 C           -0.09455305        0.90153436        3.42332195
 C           -0.17902448        3.08888959        2.36736577
 C            1.79756345        3.94435404        1.30042588
 C            2.33021009        3.96557011       -0.05184004
 C            0.42042255        3.97478135        1.46819562
 C            1.64745137        2.93112775       -2.11555788
 C            1.44057454        3.88860163       -1.12010348
 C            0.70454274        1.05587771       -3.33937871
 C            0.55447155        2.31257888       -2.73288359
 C           -0.35542916       -1.08147660       -3.66843942
 C           -0.42334486        0.30739035       -3.68159566
 C           -1.25255555       -3.14184994       -2.79256508
 C           -2.01646625       -3.64788977       -1.67262693
 C           -1.43700940       -1.82266622       -3.18343903
 C           -3.07183933       -2.89286193       -1.17252967
 C           -2.52346109       -3.70539530        1.07401228
 C           -3.47920080       -3.13482241        0.13790306
 C           -1.61497698       -2.85975666        3.17773546
 C           -1.39673072       -1.55168771        3.76736775
 C           -2.70886432       -3.04195169        2.35312996
 C           -1.48525912        0.79991568        3.32650272
 C           -2.08880260       -0.45326278        3.27574754
 C           -1.56267852        3.10208739        2.51080944
 C           -2.23581273        1.91660709        3.00187265
 C           -2.38699997        3.67667619        1.45994079
 C           -0.33665961        4.51357658        0.43143738
 C            0.16658659        4.40394202       -0.92767970
 C           -1.77289551        4.31137358        0.39672168
 C           -0.70587064        2.91646961       -2.67110156
 C           -0.92252344        3.94763711       -1.76574135
 C           -2.13523339        3.93846910       -0.95966187
 C           -1.66973241        0.90947437       -3.70100795
 C           -1.81774781        2.24816015       -3.16929156
 C           -2.61277601       -1.16766489       -2.82015287
 C           -3.41126245       -1.68333247       -1.79016445
 C           -2.81994943        0.12908009       -3.28356777
 C           -4.42354889       -0.89908913       -1.23788100
 C           -4.26221191       -2.14230815        0.85535228
 C           -3.62206068       -1.93234859        2.14011712
 C           -3.24579433       -0.64291043        2.51289380
 C           -4.75126670       -1.04610811        0.16784578
 C           -3.45582524        1.73974551        2.23544017
 C           -3.47811680        2.75815603        1.19808659
 C           -3.88400221        0.45322052        1.92577069
 C           -4.65278112        0.27027183        0.77680616
 C           -3.08534816        2.94521501       -1.18531224
 C           -3.06271444        2.29415386       -2.41712881
 C           -3.73098837        1.01725239       -2.58483124
 C           -4.49937803        0.51652222       -1.55217048
 C           -3.79004805        2.38923547       -0.10949595
 C           -4.56509449        1.24706385       -0.29788192




