%chk=000109.chk
%mem=8GB
%Nproc=16
#p B3LYP/6-31G* opt pop=NPA

Template file

0 1
 C           -2.74007485       -4.07709521        0.13447104
 C           -1.35974271       -4.52296433        0.18713156
 C           -0.80339291       -4.40654257       -1.15038924
 C           -2.99467907       -3.61250045       -1.22086875
 C           -1.72609850       -3.60810869       -1.92870129
 C           -3.87797158       -2.56838114       -1.43725929
 C           -4.52525341       -1.91626612       -0.30654677
 C           -3.25962580       -3.37786731        1.21447564
 C           -4.20624357       -2.29786399        0.98800623
 C           -2.36298468       -2.97239751        2.28548489
 C           -0.55756494       -4.17155636        1.26946466
 C           -0.99719082       -3.17388032        2.14091041
 C            0.80339291       -4.40654257        1.15038924
 C            0.55756494       -4.17155636       -1.26946466
 C            1.35974271       -4.52296433       -0.18713156
 C            0.99719082       -3.17388032       -2.14091041
 C           -1.27159587       -2.43379412       -2.52289961
 C            0.10189544       -2.19851637       -2.59838347
 C           -3.50613272       -1.53069763       -2.37973055
 C           -2.17230671       -1.39733507       -2.77271355
 C           -4.62999192       -0.50124136       -0.61854806
 C           -4.26291098       -0.34924919       -2.01540356
 C           -4.20190581        0.44644049        0.31247349
 C           -3.95640924       -1.27535460        1.98727976
 C           -2.84516500       -1.71599754        2.81611316
 C           -4.04203454        0.07434340        1.65295776
 C           -1.94128828       -0.76400461        3.26804125
 C           -0.10189544       -2.19851637        2.59838347
 C           -0.57228762       -0.96039827        3.05285169
 C            1.72609850       -3.60810869        1.92870129
 C            1.27159587       -2.43379412        2.52289961
 C            2.74007485       -4.07709521       -0.13447104
 C            2.99467907       -3.61250045        1.22086875
 C            2.36298468       -2.97239751       -2.28548489
 C            3.25962580       -3.37786731       -1.21447564
 C            2.84516500       -1.71599754       -2.81611316
 C            0.57228762       -0.96039827       -3.05285169
 C            1.94128828       -0.76400461       -3.26804125
 C           -1.70324670       -0.15000357       -3.18624782
 C           -0.33001467        0.09178799       -3.25450658
 C           -3.80883337        0.87876377       -2.45140440
 C           -2.58724386        0.92486462       -3.23313612
 C           -3.74797120        1.69412894       -0.13765613
 C           -3.73795604        1.97094240       -1.49927903
 C           -3.10346815        2.56869526        0.73668657
 C           -3.49586582        0.98168226        2.55191268
 C           -2.42465700        0.52747237        3.42750941
 C           -3.15284001        2.31321250        2.10115759
 C           -1.49872620        1.62489740        3.59956337
 C           -2.08538999        2.78936535        2.96018897
 C            0.33001467        0.09178799        3.25450658
 C           -0.13605293        1.39581903        3.46874125
 C            2.17230671       -1.39733507        2.77271355
 C            1.70324670       -0.15000357        3.18624782
 C            3.87797158       -2.56838114        1.43725929
 C            3.50613272       -1.53069763        2.37973055
 C            4.20624357       -2.29786399       -0.98800623
 C            3.95640924       -1.27535460       -1.98727976
 C            4.52525341       -1.91626612        0.30654677
 C            4.04203454        0.07434340       -1.65295776
 C            2.42465700        0.52747237       -3.42750941
 C            3.49586582        0.98168226       -2.55191268
 C            0.13605293        1.39581903       -3.46874125
 C            1.49872620        1.62489740       -3.59956337
 C           -2.07057154        2.27160864       -3.11707850
 C           -2.77273272        2.91829070       -2.01673396
 C           -0.70801904        2.48682589       -3.25323574
 C           -2.23717405        3.55466986        0.24407728
 C           -2.04570546        3.70708902       -1.13337609
 C           -1.24549066        3.78059967        2.48761761
 C           -1.42450949        4.26273319        1.12949801
 C            0.70801904        2.48682589        3.25323574
 C            0.18354754        3.66279832        2.72305102
 C            2.58724386        0.92486462        3.23313612
 C            2.07057154        2.27160864        3.11707850
 C            4.26291098       -0.34924919        2.01540356
 C            4.62999192       -0.50124136        0.61854806
 C            4.20190581        0.44644049       -0.31247349
 C            3.80883337        0.87876377        2.45140440
 C            2.77273272        2.91829070        2.01673396
 C            3.74797120        1.69412894        0.13765613
 C            3.73795604        1.97094240        1.49927903
 C            3.15284001        2.31321250       -2.10115759
 C            2.08538999        2.78936535       -2.96018897
 C            3.10346815        2.56869526       -0.73668657
 C           -0.18354754        3.66279832       -2.72305102
 C           -0.87113985        4.29002245       -1.60678473
 C            1.24549066        3.78059967       -2.48761761
 C           -0.13950114        4.76496281        0.67683916
 C            0.87113985        4.29002245        1.60678473
 C            2.04570546        3.70708902        1.13337609
 C            2.23717405        3.55466986       -0.24407728
 C            0.13950114        4.76496281       -0.67683916
 C            1.42450949        4.26273319       -1.12949801




