%chk=000045.chk
%mem=8GB
%Nproc=16
#p B3LYP/6-31G* opt pop=NPA

Template file

0 1
 C            4.90169339       -1.39226900       -0.00000000
 C            4.33179951       -2.03098211        1.17579907
 C            3.39982451       -3.04914742        0.72442860
 C            4.33179951       -2.03098211       -1.17579907
 C            3.39982451       -3.04914742       -0.72442860
 C            4.01869786       -1.27314480       -2.29400718
 C            4.24856094        0.16342416       -2.28878582
 C            5.13567192       -0.02208853        0.00000000
 C            4.81297119        0.76988533       -1.17753797
 C            4.81297119        0.76988533        1.17753797
 C            4.01869786       -1.27314480        2.29400718
 C            4.24856094        0.16342416        2.28878582
 C            2.77022129       -1.52080218        2.99057929
 C            2.18530080       -3.22924287        1.37804919
 C            1.86228066       -2.44787074        2.49398057
 C            1.16444414       -3.89679922        0.70053864
 C            2.18530080       -3.22924287       -1.37804919
 C            1.16444414       -3.89679922       -0.70053864
 C            2.77022129       -1.52080218       -2.99057929
 C            1.86228066       -2.44787074       -2.49398057
 C            3.11976898        0.80077925       -2.94515985
 C            2.26646032       -0.24928896       -3.47151270
 C            2.53332756        1.93324472       -2.37916713
 C            4.28963969        2.04589245       -0.72669420
 C            4.28963969        2.04589245        0.72669420
 C            3.22005367        2.64422002       -1.38856281
 C            3.22005367        2.64422002        1.38856281
 C            3.11976898        0.80077925        2.94515985
 C            2.26646032       -0.24928896        3.47151270
 C            2.53332756        1.93324472        2.37916713
 C            0.89679554       -0.03712110        3.49736873
 C            0.53189146       -2.35172564        2.89766704
 C            0.02373659       -1.10991440        3.29308684
 C            0.00211553       -4.19847868        1.40281650
 C           -0.34158191       -3.37135453        2.54303321
 C           -1.22330610       -4.51721902        0.69307806
 C            0.00211553       -4.19847868       -1.40281650
 C           -1.22330610       -4.51721902       -0.69307806
 C            0.53189146       -2.35172564       -2.89766704
 C           -0.34158191       -3.37135453       -2.54303321
 C            0.89679554       -0.03712110       -3.49736873
 C            0.02373659       -1.10991440       -3.29308684
 C            1.17519654        2.18611784       -2.61929129
 C            0.42524014        1.26105617       -3.35097991
 C            0.55319689        3.30726927       -2.05762371
 C            2.57505403        3.68092425       -0.72812693
 C            2.57505403        3.68092425        0.72812693
 C            1.26116570        4.10186132       -1.16492163
 C            1.26116570        4.10186132        1.16492163
 C            0.58078091        4.63592903        0.00000000
 C            1.17519654        2.18611784        2.61929129
 C            0.42524014        1.26105617        3.35097991
 C            0.55319689        3.30726927        2.05762371
 C           -0.91252493        1.50550239        3.61290420
 C           -1.35619667       -0.87903752        3.28115485
 C           -1.83653811        0.38628671        3.59347678
 C           -1.76532676       -3.10153306        2.48596947
 C           -2.32739120       -3.90999057        1.41905839
 C           -2.21058214       -1.79885803        2.67655702
 C           -3.43128492       -3.43553512        0.72812697
 C           -2.32739120       -3.90999057       -1.41905839
 C           -1.76532676       -3.10153306       -2.48596947
 C           -3.43128492       -3.43553512       -0.72812697
 C           -1.35619667       -0.87903752       -3.28115485
 C           -2.21058214       -1.79885803       -2.67655702
 C           -0.91252493        1.50550239       -3.61290420
 C           -1.83653811        0.38628671       -3.59347678
 C           -0.83292140        3.46218229       -2.14699250
 C           -1.56354855        2.63978416       -2.99191190
 C           -0.80133196        4.66809469        0.00000000
 C           -1.51337044        4.18333243       -1.16935981
 C           -0.83292140        3.46218229        2.14699250
 C           -1.56354855        2.63978416        2.99191190
 C           -1.51337044        4.18333243        1.16935981
 C           -3.07518310        0.83701794        2.98987971
 C           -2.90715026        2.23190830        2.60846175
 C           -3.39149005       -1.36355764        2.06253836
 C           -4.05431159       -2.19792353        1.16326627
 C           -3.77209170       -0.02153821        2.14947940
 C           -4.05431159       -2.19792353       -1.16326627
 C           -3.39149005       -1.36355764       -2.06253836
 C           -4.69434687       -1.61475198       -0.00000000
 C           -3.07518310        0.83701794       -2.98987971
 C           -2.90715026        2.23190830       -2.60846175
 C           -3.77209170       -0.02153821       -2.14947940
 C           -2.82147118        3.72627977       -0.72808367
 C           -2.82147118        3.72627977        0.72808367
 C           -3.45451886        2.69294176        1.41225572
 C           -3.45451886        2.69294176       -1.41225572
 C           -4.59589730        0.52777614        1.17004649
 C           -4.95355161       -0.25605364       -0.00000000
 C           -4.59589730        0.52777614       -1.17004649
 C           -4.36551428        1.89394843        0.72814247
 C           -4.36551428        1.89394843       -0.72814247




