%chk=000037.chk
%mem=8GB
%Nproc=16
#p B3LYP/6-31G* opt pop=NPA

Template file

0 1
 C            4.89837698       -1.26014272       -0.11937713
 C            4.47851439       -1.63645304        1.22128586
 C            3.48011699       -2.68577790        1.10210607
 C            4.25586229       -2.16630251       -1.05704811
 C            3.36664204       -3.03227767       -0.30345575
 C            3.85654369       -1.70580181       -2.30279972
 C            3.99940061       -0.29764920       -2.63816567
 C            5.05219556        0.08267794       -0.44718580
 C            4.56719912        0.57817243       -1.72577382
 C            4.79774428        1.10786704        0.55251790
 C            4.31837520       -0.66144323        2.19435777
 C            4.45365461        0.74452347        1.84548679
 C            3.22124461       -0.77819932        3.13722200
 C            2.32695508       -2.63649373        1.88559855
 C            2.30093698       -1.81636240        3.01865470
 C            1.13995765       -3.19169583        1.38757837
 C            2.11273574       -3.34971133       -0.80729081
 C            1.11611389       -3.71657796        0.09147195
 C            2.59805306       -2.16862293       -2.86015706
 C            1.75917783       -2.98812929       -2.11250317
 C            2.80943945        0.10926889       -3.36373199
 C            2.00427783       -1.07292725       -3.60051941
 C            2.16673615        1.29714195       -3.04066872
 C            3.94116330        1.86879997       -1.49764932
 C            4.08126029        2.19431577       -0.09289737
 C            2.74286954        2.18832125       -2.12768752
 C            3.00851798        2.80510680        0.54846773
 C            3.40245870        1.47709031        2.52944691
 C            2.72838274        0.55952010        3.42561308
 C            2.64172354        2.40773046        1.83866766
 C            1.36985157        0.72310596        3.68678176
 C            1.12945225       -1.71052405        3.75555093
 C            0.67999557       -0.38587987        4.15558717
 C           -0.04337870       -3.10638184        2.12786468
 C           -0.03747436       -2.46861451        3.35553701
 C           -1.26612933       -3.39218228        1.52508010
 C           -0.05922168       -4.25441933       -0.41444893
 C           -1.27647447       -4.15639010        0.36539214
 C            0.42519204       -3.09987037       -2.50556167
 C           -0.39471175       -3.97220020       -1.79616477
 C            0.61952410       -0.95999236       -3.60444240
 C           -0.14015082       -2.08381668       -3.28580862
 C            0.82617016        1.44465570       -3.39166734
 C            0.02647196        0.30696768       -3.55612919
 C            0.22869045        2.68802160       -3.22122988
 C            1.95920091        3.20600491       -1.58320590
 C            2.09405531        3.51968186       -0.22455909
 C            0.83722188        3.62103031       -2.29221338
 C            1.09630837        4.23075762        0.43482475
 C            1.36923064        2.71107578        2.31487171
 C            0.66425831        1.75708041        3.05622240
 C            0.69843319        3.78802121        1.75793065
 C           -0.74201349        1.74831073        3.03546109
 C           -0.76410175       -0.38672140        4.14784184
 C           -1.20878808       -1.71586017        3.75604843
 C           -1.44978636        0.71765944        3.66387456
 C           -2.42903527       -2.73334139        1.94516227
 C           -2.37956276       -1.83454472        3.01591467
 C           -3.58234412       -2.79570218        1.16343088
 C           -2.38916097       -4.05383196       -0.56124103
 C           -1.83938665       -3.86536451       -1.89442976
 C           -3.52275629       -3.35620946       -0.17485373
 C           -1.51424530       -2.02849883       -3.48033676
 C           -2.39248172       -2.92027694       -2.74460371
 C           -1.36655354        0.41654996       -3.47289154
 C           -2.15210516       -0.72760021       -3.55099109
 C           -1.20915214        2.76656512       -3.05299235
 C           -1.93613363        1.58588952       -2.97417947
 C           -0.22577671        4.34859514       -1.62254186
 C           -0.09635959        4.65183758       -0.27569481
 C           -1.49367018        3.85821231       -2.13873288
 C           -0.74624910        3.84099075        1.83318451
 C           -1.44157740        2.75908488        2.36166789
 C           -1.22877385        4.48020121        0.62008000
 C           -2.78399120        2.57928399        2.01609475
 C           -2.80079654        0.55210852        3.38966657
 C           -3.29018731       -0.78092745        3.07185633
 C           -3.48008354        1.49441140        2.52612096
 C           -4.46520447       -1.64595363        1.10685428
 C           -4.32158287       -0.64965258        2.05626917
 C           -4.34636055        0.73997662        1.63354972
 C           -4.12829330       -2.39298673       -1.08323978
 C           -3.55469546       -2.15490793       -2.32246168
 C           -3.37065968       -0.78491086       -2.76554221
 C           -4.58960513       -1.26775768       -0.28918929
 C           -3.07573642        1.51210973       -2.16580892
 C           -4.35874667        1.06001227        0.27689241
 C           -3.65904861        0.27307099       -1.90908546
 C           -4.27564364        0.03575301       -0.67287237
 C           -2.59311642        3.76520444       -1.29954537
 C           -2.46264514        4.10647709        0.10890639
 C           -3.28429585        3.17788980        0.86293539
 C           -3.45883914        2.60253808       -1.39664849
 C           -4.02359971        2.36021637       -0.08570564




