%chk=000012.chk
%mem=8GB
%Nproc=16
#p B3LYP/6-31G* opt pop=NPA

Template file

0 1
 C            5.06580535       -0.67891498        0.68814551
 C            4.45086837       -1.75235422        1.45510023
 C            3.88190360       -2.70314426        0.51747659
 C            4.92281402       -0.99748646       -0.72443186
 C            4.16579146       -2.23172248       -0.82787679
 C            4.69145163        0.01409079       -1.64409736
 C            4.62312305        1.39748414       -1.19867722
 C            4.94690498        0.63797888        1.11827789
 C            4.68501783        1.69541639        0.15448427
 C            4.19676152        0.94069090        2.32574432
 C            3.76615072       -1.46503558        2.62505051
 C            3.65239079       -0.08804895        3.08057321
 C            2.49845435       -2.12569978        2.88212875
 C            2.64353546       -3.29161837        0.76940993
 C            1.89789526       -2.89618721        1.88617807
 C            1.99866583       -3.89674397       -0.30226516
 C            3.18099309       -2.37238243       -1.80185642
 C            2.28389529       -3.41928981       -1.64658437
 C            3.67231889       -0.17943306       -2.66273235
 C            2.81446737       -1.26863034       -2.57810080
 C            3.64434834        2.07629570       -2.02566305
 C            3.13331228        1.12182519       -2.99679395
 C            2.75722645        2.98749212       -1.45910119
 C            3.69487070        2.59289331        0.72720892
 C            3.40251437        2.12920629        2.07103618
 C            2.65277522        3.07311065       -0.06679754
 C            2.09259389        2.19979431        2.52251876
 C            2.33049456        0.07895122        3.65681473
 C            1.67757591       -1.21376660        3.65899087
 C            1.57112676        1.20006059        3.35069318
 C            0.30123815       -1.26762382        3.49889099
 C            0.50514869       -3.04959939        1.90118283
 C           -0.24263371       -2.38295041        2.87602521
 C            0.58037989       -4.17611668       -0.22364585
 C           -0.14952916       -3.69767639        0.84914540
 C            1.04130101       -3.41169111       -2.38773536
 C            0.02601814       -4.03803681       -1.55546441
 C            1.51134951       -1.15832120       -3.07686237
 C            0.69983323       -2.29560910       -3.13994249
 C            1.80869944        1.23654861       -3.39881594
 C            0.99341117        0.09886140       -3.42859825
 C            1.68810998        3.39291471       -2.24418676
 C            1.21771876        2.49264787       -3.28693896
 C            0.52392472        3.98192576       -1.61664892
 C            1.41911717        3.37135474        0.53169982
 C            1.22149548        3.07536681        1.88415354
 C            0.36504394        3.87371421       -0.24057864
 C           -0.01074177        3.31283010        2.47320739
 C            0.19514187        1.14786894        3.56687912
 C           -0.45333076       -0.09189666        3.56953480
 C           -0.54019848        2.30774906        3.37457726
 C           -1.84521127       -0.16686159        3.42809310
 C           -1.61685190       -2.55750692        2.92826652
 C           -2.44092267       -1.42172123        3.30037196
 C           -1.53044279       -3.57934166        0.71542849
 C           -2.27763439       -3.24648967        1.83812176
 C           -1.29513736       -3.63039431       -1.69625950
 C           -2.10503099       -3.52301938       -0.56130835
 C           -0.62038712       -2.18093667       -3.55773752
 C           -1.64398433       -2.93826224       -2.85427979
 C           -0.37642704        0.24810788       -3.65949549
 C           -1.16614838       -0.87260342       -3.85426948
 C           -0.22482908        2.61723763       -3.35541089
 C           -0.60695541        3.71438409       -2.48520554
 C           -0.99578516        1.46382008       -3.38297071
 C           -1.87755420        3.71901611       -1.93973246
 C           -0.91435227        4.00531163        0.30784655
 C           -1.10345902        3.81533976        1.66798651
 C           -2.03085109        4.00026998       -0.52383641
 C           -1.97039948        2.22462020        3.16568260
 C           -2.59608289        0.98652431        3.17658867
 C           -2.33133478        3.19265972        2.14052379
 C           -3.84767171        0.88765780        2.57545226
 C           -3.71170726       -1.55569355        2.61027161
 C           -3.60461310       -2.67804711        1.69080797
 C           -4.39545769       -0.41200603        2.22954102
 C           -3.42633677       -3.10528041       -0.71402559
 C           -4.16799352       -2.59605809        0.42664813
 C           -2.87452509       -2.16798203       -2.89830691
 C           -2.54175140       -0.84287192       -3.38942382
 C           -3.78339358       -2.29244704       -1.86281401
 C           -2.29464509        1.48116517       -2.86620663
 C           -2.78486440        2.63258890       -2.26430763
 C           -2.99335317        0.28556022       -2.71080949
 C           -3.25041587        3.34512568       -0.07726765
 C           -3.34585292        2.88528005        1.23496649
 C           -4.19631211        1.81746737        1.51308601
 C           -3.72202999        2.50157914       -1.16748796
 C           -4.96481826       -0.31508029        0.89389406
 C           -4.84088220       -1.37521464        0.00819600
 C           -4.44316966       -1.10132667       -1.36080450
 C           -3.94542716        0.15865447       -1.69074869
 C           -4.73997199        1.03767771        0.41319286
 C           -4.25257001        1.25200436       -0.87298964




