%chk=000042.chk
%mem=8GB
%Nproc=16
#p B3LYP/6-31G* opt pop=NPA

Template file

0 1
 C            4.84462754       -1.36812227       -0.00000000
 C            4.29248909       -2.02286334        1.17544800
 C            3.36136407       -3.04218177        0.72441506
 C            4.29248909       -2.02286334       -1.17544800
 C            3.36136407       -3.04218177       -0.72441506
 C            3.98712437       -1.27838087       -2.30441276
 C            4.19903026        0.16072023       -2.30685902
 C            5.04062763        0.00854362        0.00000000
 C            4.69322122        0.79130194       -1.17546804
 C            4.69322122        0.79130194        1.17546804
 C            3.98712437       -1.27838087        2.30441276
 C            4.19903026        0.16072023        2.30685902
 C            2.75138767       -1.54730224        3.01723685
 C            2.14739422       -3.22316162        1.37901953
 C            1.83265475       -2.45460658        2.50587294
 C            1.12253162       -3.88311627        0.70045958
 C            2.14739422       -3.22316162       -1.37901953
 C            1.12253162       -3.88311627       -0.70045958
 C            2.75138767       -1.54730224       -3.01723685
 C            1.83265475       -2.45460658       -2.50587294
 C            3.10209756        0.77045249       -3.03677342
 C            2.26122946       -0.29225248       -3.55322361
 C            2.48934439        1.92161141       -2.55183872
 C            4.07619201        2.02624950       -0.72503082
 C            4.07619201        2.02624950        0.72503082
 C            2.96080329        2.53390379       -1.38376805
 C            2.96080329        2.53390379        1.38376805
 C            3.10209756        0.77045249        3.03677342
 C            2.26122946       -0.29225248        3.55322361
 C            2.48934439        1.92161141        2.55183872
 C            0.89057091       -0.07384017        3.61917578
 C            0.50607133       -2.36026673        2.92124133
 C            0.00731954       -1.12645614        3.35360850
 C           -0.03955500       -4.18501532        1.40294286
 C           -0.37565444       -3.36880555        2.55345681
 C           -1.26862645       -4.48963363        0.69308509
 C           -0.03955500       -4.18501532       -1.40294286
 C           -1.26862645       -4.48963363       -0.69308509
 C            0.50607133       -2.36026673       -2.92124133
 C           -0.37565444       -3.36880555       -2.55345681
 C            0.89057091       -0.07384017       -3.61917578
 C            0.00731954       -1.12645614       -3.35360850
 C            1.21694676        2.24279594       -3.02558539
 C            0.42238865        1.23800737       -3.58912678
 C            0.64220148        3.44502696       -2.62579047
 C            2.13732543        3.42908003       -0.69981218
 C            2.13732543        3.42908003        0.69981218
 C            1.11364838        4.05859744       -1.40000288
 C            1.11364838        4.05859744        1.40000288
 C            1.21694676        2.24279594        3.02558539
 C            0.42238865        1.23800737        3.58912678
 C            0.64220148        3.44502696        2.62579047
 C           -0.92409978        1.46798240        3.83992089
 C           -1.37188011       -0.88942082        3.35026650
 C           -1.85380599        0.36068663        3.71217958
 C           -1.79692293       -3.08596373        2.49951843
 C           -2.36626645       -3.87122285        1.41940341
 C           -2.22863769       -1.78273433        2.71207640
 C           -3.45845481       -3.37064142        0.72802067
 C           -2.36626645       -3.87122285       -1.41940341
 C           -1.79692293       -3.08596373       -2.49951843
 C           -3.45845481       -3.37064142       -0.72802067
 C           -1.37188011       -0.88942082       -3.35026650
 C           -2.22863769       -1.78273433       -2.71207640
 C           -0.92409978        1.46798240       -3.83992089
 C           -1.85380599        0.36068663       -3.71217958
 C           -0.79884483        3.61874088       -2.68317047
 C           -1.56876355        2.65669712       -3.31127333
 C           -0.04278451        4.57855091       -0.69084177
 C           -0.04278451        4.57855091        0.69084177
 C           -1.22989267        4.12908593       -1.39474717
 C           -0.79884483        3.61874088        2.68317047
 C           -1.56876355        2.65669712        3.31127333
 C           -1.22989267        4.12908593        1.39474717
 C           -3.05707434        0.85740257        3.07281694
 C           -2.81805045        2.24221946        2.69878361
 C           -3.39199049       -1.31524465        2.08821386
 C           -4.05706889       -2.12168971        1.16551537
 C           -3.74686565        0.03301883        2.19103103
 C           -4.05706889       -2.12168971       -1.16551537
 C           -3.39199049       -1.31524465       -2.08821386
 C           -4.66554786       -1.50893940       -0.00000000
 C           -3.05707434        0.85740257       -3.07281694
 C           -2.81805045        2.24221946       -2.69878361
 C           -3.74686565        0.03301883       -2.19103103
 C           -2.24354536        3.46875768       -0.70080440
 C           -2.24354536        3.46875768        0.70080440
 C           -3.13689153        2.65987175        1.40834195
 C           -3.13689153        2.65987175       -1.40834195
 C           -4.48662639        0.63052068        1.17129615
 C           -4.86834808       -0.14018669       -0.00000000
 C           -4.48662639        0.63052068       -1.17129615
 C           -4.12671374        1.96787066        0.72464728
 C           -4.12671374        1.96787066       -0.72464728




