%chk=000001.chk
%mem=8GB
%Nproc=16
#p B3LYP/6-31G* opt pop=NPA

Template file

0 1
 C           -1.04027360       -4.01288281        0.00000000
 C           -0.19255560       -3.89740269       -1.17650276
 C            1.16616424       -3.65332265       -0.72756812
 C           -0.19255560       -3.89740269        1.17650276
 C            1.16616424       -3.65332265        0.72756812
 C           -0.66004112       -3.24528284        2.30634207
 C           -1.98738509       -2.64911598        2.30634207
 C           -2.30858504       -3.44322998        0.00000000
 C           -2.78537671       -2.73285602        1.17650276
 C           -2.78537671       -2.73285602       -1.17650276
 C           -0.66004112       -3.24528284       -2.30634207
 C           -1.98738509       -2.64911598       -2.30634207
 C            0.22971017       -2.35628141       -3.03095611
 C            1.98067701       -2.74495178       -1.40122181
 C            1.50664321       -2.08800472       -2.54523155
 C            3.09948583       -2.25829427       -0.72756812
 C            1.98067701       -2.74495178        1.40122181
 C            3.09948583       -2.25829427        0.72756812
 C            0.22971017       -2.35628141        3.03095611
 C            1.50664321       -2.08800472        2.54523155
 C           -1.91389557       -1.39349654        3.03095611
 C           -0.56846471       -1.26566615        3.57061541
 C           -2.56158674       -0.26078893        2.54523155
 C           -3.50548312       -1.55508634        0.72756812
 C           -3.50548312       -1.55508634       -0.72756812
 C           -3.36753648       -0.34284072        1.40122181
 C           -3.36753648       -0.34284072       -1.40122181
 C           -1.91389557       -1.39349654       -3.03095611
 C           -0.56846471       -1.26566615       -3.57061541
 C           -2.56158674       -0.26078893       -2.54523155
 C           -0.00000000        0.00000000       -3.70473084
 C            2.16375119       -0.96073391       -3.03095611
 C            1.38033140        0.14052819       -3.57061541
 C            3.75941109       -1.04577898       -1.17650276
 C            3.28789428       -0.39656798       -2.30634207
 C            3.75941109       -1.04577898        1.17650276
 C            4.13621715       -0.27767830       -0.00000000
 C            2.16375119       -0.96073391        3.03095611
 C            3.28789428       -0.39656798        2.30634207
 C            0.00000000       -0.00000000        3.70473084
 C            1.38033140        0.14052819        3.57061541
 C           -2.15545464        0.97920586        3.03095611
 C           -0.81186668        1.12513796        3.57061541
 C           -2.48047682        2.19425380        2.30634207
 C           -3.74695234        0.81673347        0.72756812
 C           -3.74695234        0.81673347       -0.72756812
 C           -3.27897194        2.11545939        1.17650276
 C           -3.27897194        2.11545939       -1.17650276
 C           -2.95512165        2.90734477       -0.00000000
 C           -2.15545464        0.97920586       -3.03095611
 C           -0.81186668        1.12513796       -3.57061541
 C           -2.48047682        2.19425380       -2.30634207
 C           -0.24985562        2.35423045       -3.03095611
 C           -1.30050919        3.04568396       -2.30634207
 C            1.92574447        1.37707555       -3.03095611
 C            3.14051794        1.05102904       -2.30634207
 C            1.05494353        2.34879366       -2.54523155
 C            3.99539525        1.10553804       -0.00000000
 C            3.47152754        1.78194331       -1.17650276
 C            3.14051794        1.05102904        2.30634207
 C            1.92574447        1.37707555        3.03095611
 C            3.47152754        1.78194331        1.17650276
 C           -0.24985562        2.35423045        3.03095611
 C           -1.30050919        3.04568396        2.30634207
 C            1.05494353        2.34879366        2.54523155
 C           -1.82763212        3.72090828       -0.00000000
 C           -0.97403438        3.77863500       -1.17650276
 C           -0.97403438        3.77863500        1.17650276
 C            1.38685946        3.08779250       -1.40122181
 C            2.58078811        2.83658918       -0.72756812
 C            2.58078811        2.83658918        0.72756812
 C            1.38685946        3.08779250        1.40122181
 C            0.40599729        3.81338060       -0.72756812
 C            0.40599729        3.81338060        0.72756812




