%chk=000012.chk
%mem=8GB
%Nproc=32
#p B3LYP/6-31G* opt pop=NPA

Template file

0 1
 C            4.53843646       -0.79978734        0.10749624
 C            4.36370026        0.63515813        0.26064713
 C            4.13665038        1.20012215       -1.05936320
 C            4.24739707       -1.13709344       -1.27792241
 C            3.89573018        0.09180161       -1.96809900
 C            3.55161561       -2.29850750       -1.57724999
 C            3.18119161       -3.21724008       -0.51147041
 C            4.12539825       -1.64300447        1.12850028
 C            3.43965803       -2.88724202        0.81096987
 C            3.47725837       -1.06802254        2.29307484
 C            3.65179856        1.14239584        1.34382446
 C            3.06780343        0.26480487        2.26307038
 C            3.20883827        2.45676180        1.27280418
 C            3.36948476        2.35645137       -1.18214685
 C            3.06289152        3.08499688       -0.03361948
 C            2.59463621        2.52901439       -2.32864446
 C            2.77951103        0.13249981       -2.79794891
 C            2.29588566        1.37711696       -3.16869039
 C            2.44080113       -2.22896896       -2.51151350
 C            1.95021601       -0.98734086       -2.89995868
 C            1.89576219       -3.79661588       -0.85798894
 C            1.51147384       -3.28324668       -2.16316840
 C            0.91064142       -3.95650202        0.11499720
 C            2.39581010       -3.08267533        1.80225868
 C            2.59096491       -2.08160115        2.83616772
 C            1.10404463       -3.40742949        1.38721854
 C            1.50507635       -1.68164557        3.59168536
 C            1.95095014        0.66236985        3.00828936
 C            1.28361139       -0.26274947        3.80124577
 C            2.08987158        2.87452109        2.09344660
 C            1.37306481        1.91217812        2.79434023
 C            1.86259496        3.90670128        0.00367018
 C            1.38317640        3.91804117        1.37353256
 C            1.40044123        3.35774273       -2.27765784
 C            0.95675987        3.84391755       -1.05124955
 C            0.92844359        1.50159034       -3.62914518
 C            0.45080624        2.81425696       -3.23127413
 C            0.57831841       -0.83347800       -3.13716122
 C            0.07264505        0.40881618       -3.54217835
 C            0.16140285       -3.11887199       -2.43421494
 C           -0.27516077       -1.94132274       -3.04667622
 C           -0.38024440       -4.23120791       -0.32157056
 C           -0.73743759       -3.87430310       -1.68505818
 C           -1.50501151       -3.88838962        0.52447033
 C            0.00636353       -2.99006555        2.15150009
 C            0.21106378       -2.28329923        3.32957830
 C           -1.28544699       -3.08819585        1.63821051
 C           -0.13128210       -0.07908256        4.05360903
 C           -0.79938992       -1.34093229        3.76517254
 C            0.02003360        2.12443200        3.08811585
 C           -0.74457635        1.10836367        3.67116306
 C            0.03401959        4.09637904        1.61237976
 C           -0.61732487        3.26964362        2.61250985
 C           -0.41315467        4.00748799       -0.81251103
 C           -0.87490806        4.21697056        0.48539467
 C           -0.90207890        2.99176297       -3.00792262
 C           -1.34029421        3.64845028       -1.78910273
 C           -1.30597878        0.62840854       -3.58233656
 C           -1.80946035        1.88766103       -3.26426230
 C           -1.63133363       -1.78331728       -3.31190288
 C           -2.17126237       -0.45186099       -3.49452775
 C           -2.15369335       -3.55650500       -1.70833765
 C           -2.64309566       -3.62961457       -0.34007899
 C           -2.60383878       -2.55284137       -2.55303910
 C           -3.62706262       -2.75382858        0.09096141
 C           -2.29607280       -2.23428751        2.10007446
 C           -2.03164378       -1.31669946        3.12214461
 C           -3.50124826       -2.14587335        1.40353035
 C           -2.12851976        1.10374273        3.50496803
 C           -2.79726944       -0.15630095        3.22174384
 C           -2.02459636        3.20951656        2.26679646
 C           -2.14923169        3.63775849        0.88384970
 C           -2.77278464        2.13302447        2.70539776
 C           -2.60006544        3.04201560       -1.38208251
 C           -2.91145904        1.98354430       -2.32063921
 C           -2.85393247        2.85623801       -0.03047439
 C           -3.35060022       -0.33052695       -2.65194933
 C           -3.64614103       -1.64207212       -2.10526700
 C           -4.14638540       -1.73956716       -0.81556446
 C           -3.50124598        0.81131586       -1.86672602
 C           -4.20120500       -0.87636691        1.35403975
 C           -3.84845326        0.11153592        2.25346335
 C           -3.65412616        1.46468302        1.76635850
 C           -3.50078806        1.69375830        0.39922361
 C           -4.35155765       -0.52462618       -0.04637652
 C           -3.83688092        0.68515799       -0.51482356




