%chk=000008.chk
%mem=8GB
%Nproc=32
#p B3LYP/6-31G* opt pop=NPA

Template file

0 1
 C            4.66969009       -0.00026692        0.69551900
 C            4.20629668       -1.17315954        1.41813641
 C            3.28229557       -0.72522921        2.44513927
 C            4.20583821        1.17265093        1.41882218
 C            3.27757571        0.72654323        2.44440972
 C            3.92935756        2.34313258        0.72793534
 C            3.92935756        2.34313258       -0.72793534
 C            4.66969009       -0.00026692       -0.69551900
 C            4.20583821        1.17265093       -1.41882218
 C            4.20629668       -1.17315954       -1.41813641
 C            3.92745700       -2.34313164        0.72824197
 C            3.92745700       -2.34313164       -0.72824197
 C            2.81336405       -3.16793678        1.16278795
 C            2.08094030       -1.39553242        2.63338251
 C            1.87708152       -2.65570187        2.05943022
 C            1.00351064       -0.69575454        3.16500748
 C            2.07323811        1.40573783        2.62194773
 C            0.93196357        0.69133955        3.00878653
 C            2.82360557        3.17568173        1.16873092
 C            1.95416173        2.71632564        2.15243438
 C            2.82360557        3.17568173       -1.16873092
 C            2.27149698        3.83948635        0.00000000
 C            1.95416173        2.71632564       -2.15243438
 C            3.27757571        0.72654323       -2.44440972
 C            3.28229557       -0.72522921       -2.44513927
 C            2.07323811        1.40573783       -2.62194773
 C            2.08094030       -1.39553242       -2.63338251
 C            2.81336405       -3.16793678       -1.16278795
 C            2.34827424       -3.89876774       -0.00000000
 C            1.87708152       -2.65570187       -2.05943022
 C            1.05306221       -4.38559937       -0.00000000
 C            0.62255611       -3.26650824        2.15330409
 C            0.21938321       -4.16771740        1.17043807
 C           -0.11810745       -1.40550749        3.55976550
 C           -0.34283463       -2.72066766        2.99195047
 C           -1.39486411       -0.72821208        3.64930250
 C           -0.27795246        1.36124487        3.22293424
 C           -1.45720722        0.63938400        3.42534538
 C            0.75470085        3.39249191        2.31755152
 C           -0.35646598        2.72505235        2.96502752
 C            0.92618940        4.20254116        0.00000000
 C            0.22320659        4.16671394        1.20388094
 C            0.75470085        3.39249191       -2.31755152
 C            0.22320659        4.16671394       -1.20388094
 C           -0.35646598        2.72505235       -2.96502752
 C            0.93196357        0.69133955       -3.00878653
 C            1.00351064       -0.69575454       -3.16500748
 C           -0.27795246        1.36124487       -3.22293424
 C           -0.11810745       -1.40550749       -3.55976550
 C            0.62255611       -3.26650824       -2.15330409
 C            0.21938321       -4.16771740       -1.17043807
 C           -0.34283463       -2.72066766       -2.99195047
 C           -1.16610525       -4.16832363        0.72787328
 C           -1.16610525       -4.16832363       -0.72787328
 C           -1.74811699       -2.81422873        2.62213961
 C           -2.40529900       -1.59094909        3.05527111
 C           -2.10471263       -3.40287958        1.41226545
 C           -3.41257794       -1.02843608        2.27562274
 C           -2.67732485        1.18608701        3.03784895
 C           -3.64947218        0.34000045        2.36532455
 C           -1.57873856        3.27489551        2.40736405
 C           -1.22106142        3.99113980        1.19639703
 C           -2.72186380        2.49673815        2.41414981
 C           -1.22106142        3.99113980       -1.19639703
 C           -1.57873856        3.27489551       -2.40736405
 C           -1.87007235        3.70079961        0.00000000
 C           -2.72186380        2.49673815       -2.41414981
 C           -1.45720722        0.63938400       -3.42534538
 C           -1.39486411       -0.72821208       -3.64930250
 C           -2.67732485        1.18608701       -3.03784895
 C           -1.74811699       -2.81422873       -2.62213961
 C           -2.10471263       -3.40287958       -1.41226545
 C           -2.40529900       -1.59094909       -3.05527111
 C           -3.22248372       -2.93667927        0.72765098
 C           -3.89960755       -1.72979069        1.17738870
 C           -3.22248372       -2.93667927       -0.72765098
 C           -3.64947218        0.34000045       -2.36532455
 C           -3.41257794       -1.02843608       -2.27562274
 C           -4.34983368       -1.00228232       -0.00000000
 C           -3.89960755       -1.72979069       -1.17738870
 C           -4.13616023        1.06526770        1.20112519
 C           -3.50313095        2.37639004        1.19602069
 C           -3.01406389        2.89446772        0.00000000
 C           -3.50313095        2.37639004       -1.19602069
 C           -4.32932520        0.38894588       -0.00000000
 C           -4.13616023        1.06526770       -1.20112519




