%chk=000011.chk
%mem=8GB
%Nproc=32
#p B3LYP/6-31G* opt pop=NPA

Template file

0 1
 C            4.54537383       -0.04070949        0.79831591
 C            4.07763042       -1.41367625        0.88148306
 C            3.46386147       -1.59770055        2.18664604
 C            4.06870282        0.66403336        1.97901535
 C            3.32046688       -0.28221998        2.78789021
 C            3.60784134        1.96710957        1.87003458
 C            3.66817916        2.65284035        0.58816903
 C            4.55385960        0.59556135       -0.43350335
 C            4.10993475        1.97785954       -0.54063700
 C            4.05784552       -0.11850277       -1.59626489
 C            3.50512949       -2.02849601       -0.22820219
 C            3.37217317       -1.32221654       -1.42775968
 C            2.75633785       -3.17714209       -0.01921720
 C            2.43423714       -2.52479757        2.33361269
 C            2.17509701       -3.41735969        1.29378827
 C            1.44501094       -2.28176469        3.28551275
 C            2.09051389        0.07916828        3.32943199
 C            1.27682154       -0.93378642        3.81109222
 C            2.35117821        2.32263509        2.50768994
 C            1.53077876        1.31944156        3.01208887
 C            2.49638303        3.50457065        0.49011136
 C            1.76413845        3.40267506        1.74255562
 C            1.77849634        3.57861991       -0.70235424
 C            3.35676563        2.10496879       -1.77602551
 C            3.54773477        0.87498644       -2.52349097
 C            2.10423668        2.71835869       -1.75749641
 C            2.58887460        0.49439539       -3.44216484
 C            2.43810894       -1.72550337       -2.39170401
 C            2.17100601       -0.89409895       -3.47935839
 C            1.79683966       -3.59890596       -1.01810045
 C            1.64195692       -2.85578938       -2.18101973
 C            0.82517972       -3.92517856        1.09593745
 C            0.61160770       -4.08527831       -0.32758822
 C            0.11867874       -2.84755306        3.10465986
 C           -0.20554525       -3.44835963        1.89166901
 C           -0.14214007       -0.69174434        3.97466899
 C           -0.82698822       -1.95147727        3.74614720
 C            0.13962176        1.47572593        2.95652632
 C           -0.69829898        0.48431362        3.48391305
 C            0.38497160        3.54458431        1.71324528
 C           -0.40995227        2.65868416        2.44467785
 C            0.51361966        4.15482003       -0.65442783
 C           -0.16666250        4.22204468        0.62890560
 C           -0.47314359        3.78059901       -1.64601336
 C            1.11673738        2.30677762       -2.66236311
 C            1.39331746        1.30621418       -3.58908709
 C           -0.20735680        2.69825953       -2.47365006
 C            0.85677818       -0.91887749       -4.09087454
 C            0.31610016        0.42684233       -4.00639435
 C            0.46515637       -3.02234574       -2.90983019
 C            0.02428804       -1.99144931       -3.83479845
 C           -0.63908414       -3.81792539       -0.86893740
 C           -0.71355400       -3.53983044       -2.23248237
 C           -1.47884605       -3.26931705        1.34480713
 C           -1.69502620       -3.45443955       -0.02747513
 C           -2.13406978       -1.92590150        3.29503510
 C           -2.48949789       -2.72826657        2.13926135
 C           -2.07747179        0.53869628        3.26844943
 C           -2.80385523       -0.64468486        3.15399984
 C           -1.79156799        2.81701872        2.41821254
 C           -2.64521820        1.69940548        2.76473698
 C           -1.59613640        4.15896096        0.38221541
 C           -1.78624111        3.92750340       -1.04151066
 C           -2.40938483        3.51506586        1.30327304
 C           -2.82234218        3.11633848       -1.47814569
 C           -1.24727778        1.85968511       -2.88981611
 C           -0.95441840        0.63059478       -3.47662093
 C           -2.55472689        2.12186673       -2.50168751
 C           -1.38330945       -1.74575228       -3.57711582
 C           -1.87254678       -2.85201405       -2.77598945
 C           -1.82353308       -0.45305009       -3.29781367
 C           -2.92300254       -3.10303524       -0.58809692
 C           -2.97549839       -2.65190575       -1.96607444
 C           -3.64246349       -2.10151168        1.51792227
 C           -3.77860055       -0.76991104        2.08166369
 C           -3.85745110       -2.28750029        0.16702228
 C           -3.67704342        1.58894048        1.74423449
 C           -3.53448216        2.71634114        0.84242597
 C           -3.74038639        2.52824737       -0.51499422
 C           -4.00949290        0.32689364        1.25328844
 C           -3.45319036        1.00628326       -2.28340125
 C           -3.04032566       -0.27573723       -2.62974388
 C           -3.63128007       -1.35470247       -1.97404025
 C           -4.21586032       -1.14714555       -0.65792842
 C           -4.11068284        1.21153512       -1.00105538
 C           -4.22361552        0.13809818       -0.11908092




