%chk=000003.chk
%mem=8GB
%Nproc=32
#p B3LYP/6-31G* opt pop=NPA

Template file

0 1
 C            4.43108006        0.00000000        0.69505458
 C            3.97658256        1.17621208        1.42048167
 C            3.14538452        0.72716614        2.52359972
 C            3.97658256       -1.17621208        1.42048167
 C            3.14538452       -0.72716614        2.52359972
 C            3.61869660       -2.32253933        0.72830828
 C            3.61869660       -2.32253933       -0.72830828
 C            4.43108006        0.00000000       -0.69505458
 C            3.97658256       -1.17621208       -1.42048167
 C            3.97658256        1.17621208       -1.42048167
 C            3.61869660        2.32253933        0.72830828
 C            3.61869660        2.32253933       -0.72830828
 C            2.45449759        3.07151094        1.16504271
 C            1.96443289        1.39809098        2.83655760
 C            1.56020994        2.49587380        2.06879143
 C            1.03318880        0.72769997        3.61874057
 C            1.96443289       -1.39809098        2.83655760
 C            1.03318880       -0.72769997        3.61874057
 C            2.45449759       -3.07151094        1.16504271
 C            1.56020994       -2.49587380        2.06879143
 C            2.45449759       -3.07151094       -1.16504271
 C            1.94351800       -3.76965848        0.00000000
 C            1.56020994       -2.49587380       -2.06879143
 C            3.14538452       -0.72716614       -2.52359972
 C            3.14538452        0.72716614       -2.52359972
 C            1.96443289       -1.39809098       -2.83655760
 C            1.96443289        1.39809098       -2.83655760
 C            2.45449759        3.07151094       -1.16504271
 C            1.94351800        3.76965848       -0.00000000
 C            1.56020994        2.49587380       -2.06879143
 C            0.62464023        4.17843524       -0.00000000
 C            0.22105276        2.91020237        2.06754645
 C           -0.19144069        3.89076679        1.16459031
 C           -0.34330477        1.17553287        3.64067122
 C           -0.73283450        2.23550201        2.83605659
 C           -0.34330477       -1.17553287        3.64067122
 C           -1.19680460        0.00000000        3.73157280
 C            0.22105276       -2.91020237        2.06754645
 C           -0.73283450       -2.23550201        2.83605659
 C            0.62464023       -4.17843524        0.00000000
 C           -0.19144069       -3.89076679        1.16459031
 C            0.22105276       -2.91020237       -2.06754645
 C           -0.19144069       -3.89076679       -1.16459031
 C           -0.73283450       -2.23550201       -2.83605659
 C            1.03318880       -0.72769997       -3.61874057
 C            1.03318880        0.72769997       -3.61874057
 C           -0.34330477       -1.17553287       -3.64067122
 C           -0.34330477        1.17553287       -3.64067122
 C           -1.19680460       -0.00000000       -3.73157280
 C            0.22105276        2.91020237       -2.06754645
 C           -0.19144069        3.89076679       -1.16459031
 C           -0.73283450        2.23550201       -2.83605659
 C           -1.57547291        3.92941733        0.72815354
 C           -1.57547291        3.92941733       -0.72815354
 C           -2.08760872        2.37201914        2.54525734
 C           -2.51712844        3.18373369        1.42015145
 C           -2.43772345        0.00000000        3.09600684
 C           -2.94796388        1.20079501        2.60595394
 C           -2.08760872       -2.37201914        2.54525734
 C           -2.94796388       -1.20079501        2.60595394
 C           -1.57547291       -3.92941733        0.72815354
 C           -1.57547291       -3.92941733       -0.72815354
 C           -2.51712844       -3.18373369        1.42015145
 C           -2.08760872       -2.37201914       -2.54525734
 C           -2.51712844       -3.18373369       -1.42015145
 C           -2.43772345       -0.00000000       -3.09600684
 C           -2.94796388       -1.20079501       -2.60595394
 C           -2.08760872        2.37201914       -2.54525734
 C           -2.51712844        3.18373369       -1.42015145
 C           -2.94796388        1.20079501       -2.60595394
 C           -3.53183831        2.43688621        0.69278574
 C           -3.76563075        1.19186215        1.40223670
 C           -3.53183831        2.43688621       -0.69278574
 C           -3.76563075        1.19186215       -1.40223670
 C           -3.76563075       -1.19186215        1.40223670
 C           -3.53183831       -2.43688621        0.69278574
 C           -3.53183831       -2.43688621       -0.69278574
 C           -3.76563075       -1.19186215       -1.40223670
 C           -3.92635563       -0.00000000        0.70076930
 C           -3.92635563       -0.00000000       -0.70076930




