%chk=000004.chk
%mem=8GB
%Nproc=32
#p B3LYP/6-31G* opt pop=NPA

Template file

0 1
 C            0.31130943       -4.44436504       -0.42542776
 C            1.63464769       -4.09843756        0.07213126
 C            2.33816669       -3.38586511       -0.97932532
 C            0.20052843       -3.94755671       -1.78814880
 C            1.42302717       -3.22810771       -2.09835923
 C           -1.00904298       -3.44820174       -2.24800989
 C           -2.18217951       -3.48098095       -1.38754030
 C           -0.78680819       -4.38522828        0.42542774
 C           -2.06534225       -3.89918260       -0.07213128
 C           -0.62331362       -3.90319038        1.78814889
 C            1.79572152       -3.69520229        1.38754032
 C            0.63289023       -3.53662465        2.24800977
 C            2.71785368       -2.61709922        1.68889195
 C            3.19937950       -2.33405587       -0.66944775
 C            3.42786933       -1.98331991        0.66944776
 C            3.49218738       -1.42848316       -1.68889197
 C            1.36563645       -1.99745265       -2.74810344
 C            2.51126933       -1.21629529       -2.74239537
 C           -1.01890106       -2.18495891       -2.96559725
 C            0.12558983       -1.39527948       -2.97631546
 C           -2.98319630       -2.31008167       -1.68889191
 C           -2.30897721       -1.56667478       -2.74239548
 C           -3.62104160       -1.60371563       -0.66944775
 C           -2.68826647       -3.11517714        0.97932538
 C           -1.76147711       -3.05661342        2.09835909
 C           -3.43153992       -1.97696230        0.66944769
 C           -1.57225353       -1.83923808        2.74810363
 C            0.77835613       -2.28174578        2.96559737
 C            2.12737141       -1.80558532        2.74239540
 C           -0.27470814       -1.37372353        2.97631542
 C            2.37895429       -0.44199196        2.74810341
 C            4.04195590       -0.77051829        0.97932531
 C            3.52784320        0.00282253        2.09835924
 C            4.10570769       -0.14933233       -1.38754032
 C            4.40946230        0.16095237       -0.07213125
 C            2.40167977        0.21008514       -2.96559739
 C            3.49075196        0.85024402       -2.24800974
 C           -0.00000088       -0.00000077       -2.94656542
 C            1.14555412        0.80640392       -2.97631542
 C           -2.41266320       -0.18395068       -2.74810336
 C           -1.27114191        0.58887738       -2.97631554
 C           -4.10132845       -0.33197948       -0.97932529
 C           -3.50713680        0.38167670       -2.09835927
 C           -4.36667489        0.63357241        0.07213126
 C           -3.62540133       -1.04518047        1.68889203
 C           -2.62736836       -0.93956552        2.74239527
 C           -4.09799982        0.29246066        1.38754030
 C           -2.36522782        0.46679730        2.96559732
 C           -3.37925195        1.22021310        2.24800983
 C            0.00000048        0.00000078        2.94656542
 C            1.32703253        0.44895691        2.97631548
 C           -1.05232553        0.92476480        2.97631552
 C            1.58687222        1.81494933        2.96559726
 C            3.69191889        1.41178983        1.78814880
 C            4.19112318        1.51121827        0.42542776
 C            2.74636156        2.31641128        2.24800989
 C            3.31842003        2.14744113       -1.78814891
 C            3.69327832        2.49178439       -0.42542774
 C            1.04702543        2.18140214       -2.74810366
 C            2.08411018        2.84643150       -2.09835906
 C           -1.38277966        1.97487292       -2.96559730
 C           -0.20229137        2.78297072       -2.74239526
 C           -3.51894874        1.80011538       -1.78814880
 C           -4.00458770        1.95258072       -0.42542777
 C           -2.48170868        2.59795797       -2.24800986
 C           -3.06860515        2.49140079        1.78814883
 C           -3.40431505        2.87400995        0.42542777
 C           -0.80670000        2.28123123        2.74810342
 C            0.49999654        2.74515017        2.74239544
 C           -1.76636640        3.05379040        2.09835923
 C            2.30227823        3.40274165        1.38754029
 C            2.73202727        3.46486516        0.07213129
 C            1.76316155        3.71784433       -0.97932540
 C            0.90754786        3.66227993        1.68889194
 C           -0.50899132        3.73856455       -1.68889204
 C           -1.92352822        3.63031334       -1.38754029
 C           -2.34412005        3.73823017       -0.07213128
 C           -1.35368925        3.88569566        0.97932533
 C            0.42166238        3.93777184       -0.66944766
 C            0.00367032        3.96028189        0.66944771




