%chk=000123.chk
%mem=8GB
%Nproc=48
#p B3LYP/6-31G* opt pop=NPA

Template file

0 1
 C            3.48054172       -1.53753690        0.79585566
 C            3.23709882       -0.31989230        1.54598301
 C            3.57654533        0.78301521        0.67635242
 C            3.51872660       -1.17210250       -0.61069044
 C            3.76609869        0.25073844       -0.67021751
 C            2.31117782       -1.70282967       -1.22547557
 C            2.33085419       -2.40114526        0.98112206
 C            1.83626328       -2.75051588       -0.33663808
 C            1.88825985       -0.38848691        2.08361485
 C            1.40451329       -1.74548931        1.89113024
 C            1.00599134        0.66967156        1.88058112
 C            2.64445258        1.88480515        0.57272379
 C            1.46067959        1.87517211        1.31066588
 C            2.95780944        1.04809922       -1.57098869
 C            2.55302426        2.22557626       -0.83194748
 C            1.38200931       -0.83539735       -1.81913249
 C            1.74764882        0.47134774       -2.13616613
 C            0.03164197       -1.20156545       -1.85908987
 C            0.50641236       -3.11298178       -0.42273359
 C           -0.29745739       -2.49867245       -1.45631430
 C            0.04364010       -1.95506809        1.67513180
 C           -0.29969743       -2.96649079        0.77344602
 C           -0.36636450        0.41730118        1.99415706
 C           -0.85059730       -0.89372825        1.88284903
 C           -1.26030723        1.48529549        2.02334839
 C            0.52653165        2.85584746        0.98156856
 C           -0.80450437        2.77426196        1.54574986
 C            1.25324783        2.62671765       -1.32905807
 C            0.73321817        1.50940859       -2.11703875
 C            0.39525711        3.23317658       -0.42417637
 C           -0.96370660       -0.20642207       -1.94558876
 C           -0.60782715        1.14793733       -1.98151856
 C           -2.31591779       -0.53521637       -1.79973325
 C           -1.66440360       -2.83214721       -1.10759852
 C           -1.67211797       -3.09919694        0.32840359
 C           -2.70202679       -1.86916154       -1.38027380
 C           -2.22264029       -1.10663981        1.70974706
 C           -2.67117200       -2.24464937        0.92579972
 C           -3.48601749       -1.73578466       -0.16310682
 C           -2.61569608        1.29958649        1.53095619
 C           -3.19691465        0.38821072       -1.10380411
 C           -3.08744578        0.00830507        1.35652359
 C           -3.68127790       -0.31876587        0.06964486
 C           -1.73401625        3.22290479        0.52370530
 C           -1.01573188        3.21795739       -0.73683265
 C           -1.51682106        2.10988104       -1.52944713
 C           -2.78505589        2.22912669        0.42628311
 C           -2.77392676        1.69554257       -0.92777225




