%chk=000152.chk
%mem=8GB
%Nproc=48
#p B3LYP/6-31G* opt pop=NPA

Template file

0 1
 C            2.43364371       -2.79671269       -0.26390235
 C            2.14436654       -2.46507114        1.12095479
 C            2.60867040       -1.10771546        1.35637464
 C            2.97289027       -1.60631170       -0.89452228
 C            3.31985310       -0.67466135        0.15687450
 C            2.03805767       -1.16285460       -1.91329400
 C            1.17280515       -3.10584060       -0.91006548
 C            0.92378832       -2.10190094       -1.93142098
 C            0.75139670       -2.78340974        1.37122215
 C            0.17753100       -3.28698814        0.12813330
 C            0.00742837       -1.92592639        2.17260576
 C            1.78747659       -0.20281863        2.03774648
 C            0.54826349       -0.61845582        2.52886783
 C            2.03805767        1.16285460        1.91329400
 C            3.31985310        0.67466135       -0.15687450
 C            2.97289027        1.60631170        0.89452228
 C            1.78747659        0.20281863       -2.03774648
 C            2.60867040        1.10771546       -1.35637464
 C            0.54826349        0.61845582       -2.52886783
 C           -0.37462087       -1.62289433       -2.09176520
 C           -0.55833387       -0.32676846       -2.57400919
 C           -1.14007235       -2.98132672       -0.18432786
 C           -1.41607916       -2.27541795       -1.42764906
 C           -1.41955497       -1.77278717        1.93320522
 C           -1.99726449       -2.39188552        0.82865971
 C           -0.55833387        0.32676846        2.57400919
 C           -1.78542427       -0.40688851        2.28905229
 C            0.92378832        2.10190094        1.93142098
 C           -0.37462087        1.62289433        2.09176520
 C            2.43364371        2.79671269        0.26390235
 C            2.14436654        2.46507114       -1.12095479
 C            1.17280515        3.10584060        0.91006548
 C            0.00742837        1.92592639       -2.17260576
 C            0.75139670        2.78340974       -1.37122215
 C            0.17753100        3.28698814       -0.12813330
 C           -1.78542427        0.40688851       -2.28905229
 C           -1.41955497        1.77278717       -1.93320522
 C           -2.70466829       -1.62229147       -1.27130791
 C           -3.09285157       -1.74472530        0.12759810
 C           -2.84423559       -0.22994344       -1.65039363
 C           -2.84423559        0.22994344        1.65039363
 C           -3.55306587       -0.44404622        0.57584511
 C           -3.55306587        0.44404622       -0.57584511
 C           -1.41607916        2.27541795        1.42764906
 C           -1.14007235        2.98132672        0.18432786
 C           -1.99726449        2.39188552       -0.82865971
 C           -2.70466829        1.62229147        1.27130791
 C           -3.09285157        1.74472530       -0.12759810




