%chk=000130.chk
%mem=8GB
%Nproc=48
#p B3LYP/6-31G* opt pop=NPA

Template file

0 1
 C            2.84011942       -2.03286567       -1.17124703
 C            3.32859168       -0.67239604       -1.05483320
 C            3.38364063       -0.33406193        0.35752678
 C            2.45952124       -2.47816658        0.15737419
 C            2.65292650       -1.37103616        1.07858696
 C            1.14059973       -3.06248357        0.05672970
 C            1.63363727       -1.99998876       -1.98043448
 C            0.59775433       -2.69681526       -1.24869475
 C            2.53322172        0.16310492       -1.93693057
 C            1.38821406       -0.62628388       -2.36717204
 C            2.33614742        1.48964376       -1.58010111
 C            3.21702361        0.99553487        0.72143100
 C            2.87531000        1.96326001       -0.31196067
 C            2.41640105        1.30170243        1.89186944
 C            1.62030184       -1.02477081        1.95839459
 C            1.50577556        0.29249682        2.40111381
 C            0.30576070       -2.96725852        1.15936600
 C            0.51489762       -1.86870730        2.09869308
 C           -1.12340914       -3.07365252        0.93030298
 C           -0.71118373       -2.22419118       -1.31491336
 C           -1.61694497       -2.74726615       -0.39169085
 C            0.10464854       -0.10735981       -2.21362966
 C           -0.96007175       -0.96828536       -1.89686187
 C            1.01659135        2.07650774       -1.74100458
 C           -0.06028817        1.28135223       -2.13658148
 C            1.93090162        2.91239958        0.25337762
 C            1.64587691        2.50356366        1.61444553
 C            0.82199358        3.04668086       -0.67214489
 C            0.18258457        0.89430385        2.50526975
 C            0.26414081        2.25108985        1.99075201
 C           -0.78585587       -1.27567280        2.37424893
 C           -1.79225556       -2.17843081        1.85789171
 C           -0.93764342        0.10519835        2.24531346
 C           -2.90693373       -2.11778179       -0.20161800
 C           -2.93568431       -1.62250589        1.16958853
 C           -2.26881653       -0.49071290       -1.97272729
 C           -3.27203722       -1.01823155       -1.06784050
 C           -1.33917680        1.82204280       -2.02985861
 C           -2.48998734        0.94064336       -2.03308287
 C           -0.46000173        3.21252478       -0.16297207
 C           -0.76006491        2.72706846        1.18381323
 C           -1.57384475        2.83175620       -1.01270255
 C           -2.03204197        0.64379741        1.54345059
 C           -3.06795002       -0.18244558        1.09107624
 C           -3.67071364        0.07928419       -0.20515692
 C           -3.32833107        1.30489180       -0.89548286
 C           -1.99775010        1.97258846        1.11008032
 C           -2.62559502        2.32993445       -0.15105427




