%chk=000013.chk
%mem=8GB
%Nproc=48
#p B3LYP/6-31G* opt pop=NPA

Template file

0 1
 C            4.05781331        0.34352047       -1.11830197
 C            4.36883919       -0.02634570        0.25194765
 C            3.87471573        1.02942097        1.11792261
 C            3.26097624        1.55882583       -1.08308432
 C            3.16923605        1.99440326        0.29048213
 C            2.02457133        1.29862907       -1.79554307
 C            3.22587216       -0.70592492       -1.68245545
 C            2.03822517       -0.08062313       -2.24132200
 C            3.62532739       -1.23625665        0.56104998
 C            3.05161665       -1.73742832       -0.67619425
 C            2.89943496        0.44397732        2.02200539
 C            2.73193030       -0.95158853        1.67490131
 C            1.84620163        2.17015691        0.85660093
 C            1.72148814        1.28487415        1.99700317
 C            0.82127753        1.79439292       -1.30417085
 C            0.73919037        2.26920396        0.01744918
 C           -0.34565390        1.30183469       -1.88768907
 C            0.83209735       -0.77683035       -2.20706084
 C           -0.35827159       -0.04562774       -2.29145128
 C            1.82050621       -2.37182649       -0.60966302
 C            0.80226224       -2.03200894       -1.59011409
 C            1.43670672       -1.46196907        1.63731875
 C            1.13094273       -2.41845662        0.66868097
 C            0.47990278        0.69119272        2.18399549
 C            0.39422828       -0.70916609        2.19110053
 C           -0.51270452        2.22933996        0.63428849
 C           -0.63823024        1.42022825        1.77604801
 C           -1.53302336        1.93719256       -1.53494007
 C           -1.61612069        2.44826656       -0.18443500
 C           -2.80729666        1.33274948       -1.86554434
 C           -1.55584336       -0.76363340       -2.30551792
 C           -2.82654197       -0.07483508       -2.18146696
 C           -0.45527053       -2.53413258       -1.05448947
 C           -0.26282861       -2.72282344        0.37972143
 C           -1.63912836       -1.97897688       -1.51873159
 C           -0.86887098       -1.29583764        2.26888655
 C           -1.23814597       -2.28369271        1.26610404
 C           -1.88755794        0.96930273        2.19727648
 C           -2.02507799       -0.44212971        2.48940189
 C           -2.95216267        2.19430380        0.31440682
 C           -3.71110883        1.55543359       -0.74837204
 C           -3.09206117        1.39161746        1.50674365
 C           -3.59754231       -0.75477415       -1.14926122
 C           -2.76327216       -1.82060284       -0.61060445
 C           -2.55816487       -1.93403220        0.76404273
 C           -3.11882475       -0.95068730        1.67842688
 C           -4.14531403        0.25668268       -0.26167606
 C           -3.84434503        0.19466117        1.15628424




