%chk=000043.chk
%mem=8GB
%Nproc=48
#p B3LYP/6-31G* opt pop=NPA

Template file

0 1
 C            3.97624940        0.63193304        0.44993342
 C            3.60320329        1.53597113       -0.62368098
 C            3.08621975        0.73676835       -1.71940510
 C            3.66655857       -0.72096496        0.02323001
 C            3.05899028       -0.65318970       -1.29631346
 C            2.92358919       -1.36299663        1.09320129
 C            3.12881509        0.92387323        1.59119211
 C            2.58464198       -0.33523962        2.07206240
 C            2.51094974        2.36867384       -0.14981259
 C            2.20092336        1.97825744        1.21074875
 C            1.84521427        1.34511015       -2.15454064
 C            1.44712103        2.30653388       -1.13441869
 C            0.87002019        0.51603758       -2.68634556
 C            1.91629458       -1.41365616       -1.54891265
 C            0.95284619       -0.91834842       -2.43557348
 C            1.97212347       -2.31280318        0.74368402
 C            1.58179014       -2.43159663       -0.65376132
 C            0.76259349       -2.44831501        1.53885038
 C            1.31456635       -0.31929295        2.63744543
 C            0.41055797       -1.44087282        2.42696518
 C            0.86289669        1.84650567        1.56901886
 C            0.52192168        0.89461497        2.52830116
 C            0.12635303        2.29706197       -0.68996386
 C           -0.12635303        2.29706197        0.68996386
 C           -0.52192168        0.89461497       -2.52830116
 C           -0.86289669        1.84650567       -1.56901886
 C           -0.41055797       -1.44087282       -2.42696518
 C           -1.31456635       -0.31929295       -2.63744543
 C            0.25619639       -3.02406518       -0.68183273
 C           -0.25619639       -3.02406518        0.68183273
 C           -0.76259349       -2.44831501       -1.53885038
 C           -1.58179014       -2.43159663        0.65376132
 C           -1.97212347       -2.31280318       -0.74368402
 C           -0.95284619       -0.91834842        2.43557348
 C           -0.87002019        0.51603758        2.68634556
 C           -1.91629458       -1.41365616        1.54891265
 C           -1.44712103        2.30653388        1.13441869
 C           -1.84521427        1.34511015        2.15454064
 C           -2.20092336        1.97825744       -1.21074875
 C           -2.51094974        2.36867384        0.14981259
 C           -2.58464198       -0.33523962       -2.07206240
 C           -2.92358919       -1.36299663       -1.09320129
 C           -3.12881509        0.92387323       -1.59119211
 C           -3.05899028       -0.65318970        1.29631346
 C           -3.08621975        0.73676835        1.71940510
 C           -3.60320329        1.53597113        0.62368098
 C           -3.66655857       -0.72096496       -0.02323001
 C           -3.97624940        0.63193304       -0.44993342




