%chk=000177.chk
%mem=8GB
%Nproc=48
#p B3LYP/6-31G* opt pop=NPA

Template file

0 1
 C            3.40331059       -1.33509637        0.27173377
 C            3.72701232       -0.06811751       -0.35055160
 C            3.39161672        0.98325372        0.59864558
 C            2.95921539       -1.05551638        1.62931790
 C            2.67559649        0.36329833        1.70066564
 C            1.90165252       -1.98955145        1.94033624
 C            2.39704760       -2.19186872       -0.33506057
 C            1.69608119       -2.82424070        0.76757282
 C            1.66473119       -1.75632677       -1.44647440
 C            3.09677143        0.26086062       -1.61077987
 C            1.99839506       -0.56162152       -2.09112438
 C            2.74547905        2.05806786       -0.13331866
 C            2.61526838        1.62873233       -1.51917254
 C            1.67629912        2.71452662        0.46236618
 C            1.38646661        0.81056977        2.00075179
 C            1.04256914        2.11165559        1.62854074
 C            0.60650722       -1.46932925        2.32449261
 C            0.38957961       -0.09415968        2.40691458
 C            0.27187877       -3.05976369        0.63631175
 C           -0.40066879       -2.29989245        1.68421000
 C            0.40066879       -2.29989245       -1.68421000
 C           -0.27187877       -3.05976369       -0.63631175
 C           -0.60650722       -1.46932925       -2.32449261
 C            0.93261373        0.33125903       -2.52721937
 C            1.30888539        1.68708589       -2.16213217
 C           -0.38957961       -0.09415968       -2.40691458
 C            0.61288447        3.21661900       -0.38884489
 C            0.34528957        2.53955574       -1.64722191
 C           -0.34528957        2.53955574        1.64722191
 C           -0.61288447        3.21661900        0.38884489
 C           -0.93261373        0.33125903        2.52721937
 C           -1.30888539        1.68708589        2.16213217
 C           -1.66473119       -1.75632677        1.44647440
 C           -1.99839506       -0.56162152        2.09112438
 C           -1.69608119       -2.82424070       -0.76757282
 C           -1.90165252       -1.98955145       -1.94033624
 C           -2.39704760       -2.19186872        0.33506057
 C           -2.95921539       -1.05551638       -1.62931790
 C           -3.40331059       -1.33509637       -0.27173377
 C           -1.38646661        0.81056977       -2.00075179
 C           -1.04256914        2.11165559       -1.62854074
 C           -1.67629912        2.71452662       -0.46236618
 C           -2.67559649        0.36329833       -1.70066564
 C           -2.61526838        1.62873233        1.51917254
 C           -3.09677143        0.26086062        1.61077987
 C           -3.72701232       -0.06811751        0.35055160
 C           -2.74547905        2.05806786        0.13331866
 C           -3.39161672        0.98325372       -0.59864558




