%chk=000026.chk
%mem=8GB
%Nproc=48
#p B3LYP/6-31G* opt pop=NPA

Template file

0 1
 C            4.24703672       -0.51519213       -0.25683182
 C            3.64200714       -1.82456641       -0.11248886
 C            2.87417260       -1.82175013        1.12122645
 C            3.88360514        0.26376788        0.91316867
 C            2.85079307       -0.47157267        1.63286297
 C            3.58223216        1.59437813        0.43533374
 C            3.62447324        0.13438768       -1.39910514
 C            3.32939683        1.48988418       -0.99988915
 C            2.68882251       -1.98943536       -1.19565051
 C            2.53112965       -0.70873097       -1.84655110
 C            1.60810502       -2.43854130        0.82519977
 C            1.50299630       -2.58403450       -0.62035932
 C            0.47299507       -1.98402487        1.47909350
 C            1.61266393        0.13331235        1.88854693
 C            0.43151186       -0.63497700        1.89195709
 C            2.44919599        2.27954524        1.01757755
 C            1.51786281        1.52212843        1.83949647
 C            1.99649776        2.00749588       -1.23717805
 C            1.67534230        2.81298023       -0.08714231
 C            1.23747547       -0.19330463       -1.94314539
 C            0.99158996        1.17754385       -1.73910898
 C            0.26463683       -2.27760975       -1.17899003
 C            0.16103104       -1.09289542       -1.92777056
 C           -0.69985114       -2.56052747        1.02187443
 C           -0.83310920       -2.67690931       -0.42005713
 C           -1.95399307       -2.09795401        1.55347819
 C           -0.81860506        0.00662076        2.05803045
 C           -1.98200162       -0.77369510        2.12590758
 C            0.22446465        2.12707266        1.61561633
 C            0.29718575        2.81821654        0.33580089
 C           -0.92978773        1.39579004        1.86546391
 C           -0.33739934        1.61360128       -1.63375068
 C           -0.68442623        2.50140793       -0.59310411
 C           -1.09778999       -0.61279208       -2.28344457
 C           -1.31854847        0.82001465       -2.23154147
 C           -2.16273164       -2.22634031       -0.77590647
 C           -2.91774519       -2.12491750        0.46645947
 C           -2.29419624       -1.25679667       -1.76225175
 C           -3.27276210       -0.20726531        1.76148821
 C           -3.82007453       -1.00990201        0.67397700
 C           -2.08793596        1.90909932        1.27910278
 C           -1.96734534        2.45325149       -0.06168901
 C           -3.32977200        1.17546211        1.35542385
 C           -2.72458664        1.04503139       -1.94129277
 C           -3.33635877       -0.24570806       -1.66336266
 C           -4.10888034       -0.12287234       -0.43711959
 C           -3.05663991        1.93347553       -0.85489464
 C           -3.96268332        1.23784778        0.04553986




