%chk=000108.chk
%mem=8GB
%Nproc=48
#p B3LYP/6-31G* opt pop=NPA

Template file

0 1
 C            3.64001143       -1.43119764       -0.33127599
 C            3.61527173       -0.17639210       -1.06107169
 C            3.76114558        0.88241071       -0.08437928
 C            3.36837095       -1.12337541        1.06366277
 C            3.50349917        0.30448605        1.22948265
 C            2.10538796       -1.74110070        1.41247763
 C            2.54424069       -2.24708494       -0.82539905
 C            1.69575635       -2.58553560        0.30031099
 C            2.43884175       -0.18937519       -1.91943405
 C            1.93952222       -1.55543428       -1.94337103
 C            1.52921373        0.87259938       -1.88077341
 C            2.92118467        2.05459635       -0.21513272
 C            1.85229554        2.05009654       -1.19778724
 C            2.40246463        1.04190875        1.81947510
 C            2.29278638        2.28330648        1.07428378
 C            1.12399219       -1.01630190        2.09062922
 C            1.22892813        0.38341465        2.19953581
 C           -0.12451299       -1.62821697        2.20272127
 C            0.33068118       -2.75823946        0.08507607
 C           -0.50280139       -2.60066754        1.18911939
 C            0.58889879       -1.76135460       -2.16888858
 C           -0.18364986       -2.53180979       -1.19903758
 C            0.21021911        0.66549008       -2.29988679
 C           -0.23471727       -0.63216997       -2.55835072
 C           -0.72150775        1.69369632       -2.15442911
 C            0.78486774        2.85130448       -0.62622651
 C            0.96728423        2.82292771        0.81999199
 C           -0.49168725        2.71892538       -1.15237702
 C            0.08228325        1.16037559        2.38628297
 C           -0.08086492        2.39063463        1.62266512
 C           -1.30526293       -0.84752888        2.52240498
 C           -1.22166116        0.53550057        2.50995691
 C           -1.94064849       -2.52644340        1.00918823
 C           -2.44871922       -1.51022357        1.91751671
 C           -1.58245459       -2.15568371       -1.38053188
 C           -1.61375310       -1.00062763       -2.27350158
 C           -2.46689683       -2.24461011       -0.31074086
 C           -2.14351239        1.38487095       -2.13325496
 C           -2.56775775       -0.00293188       -2.10781118
 C           -1.63477666        2.69043962       -0.25445706
 C           -1.43530550        2.40843959        1.09415101
 C           -2.17315175        1.32827255        1.73789472
 C           -2.72164072        2.04882771       -0.97342688
 C           -3.42793673       -0.72045471        1.19403628
 C           -3.52010504       -1.25578361       -0.15658489
 C           -3.58092374       -0.13296001       -1.07464008
 C           -3.24162208        0.71573730        1.08474231
 C           -3.56127729        1.08724222       -0.28283576




