%chk=000107.chk
%mem=8GB
%Nproc=48
#p B3LYP/6-31G* opt pop=NPA

Template file

0 1
 C            3.81425351        0.10181778       -1.07481490
 C            3.80579386       -0.24229462        0.33648679
 C            3.52558109        0.97205486        1.07202990
 C            3.19013861        1.40766756       -1.20660761
 C            3.06059268        1.97089852        0.11717379
 C            1.99076301        1.24524083       -1.99982136
 C            2.97741342       -0.86307238       -1.76951571
 C            1.90672719       -0.14208255       -2.42915843
 C            2.92833264       -1.39094244        0.50428233
 C            2.61719874       -1.89795878       -0.82761838
 C            1.93650747       -1.39204430        1.49402281
 C            2.55808238        0.91610180        2.14669388
 C            1.78366653       -0.29945100        2.34829607
 C            1.74990604        2.41942919        0.55530113
 C            1.60928147        1.99481303        1.92874102
 C            0.81194220        1.87829823       -1.62187175
 C            0.64231773        2.29049138       -0.28634588
 C           -0.31140630        1.51960144       -2.35355491
 C            0.64100824       -0.72725011       -2.51520822
 C           -0.44602454        0.12040650       -2.73341887
 C            1.41430967       -2.55758953       -1.02057024
 C            0.42095298       -1.97869705       -1.92558286
 C            0.89884917       -2.31622879        1.40330685
 C            0.70837642       -3.02920955        0.15271413
 C           -0.42095298       -1.97869705        1.92558286
 C            0.44602454        0.12040650        2.73341887
 C            0.31140630        1.51960144        2.35355491
 C           -0.64100824       -0.72725011        2.51520822
 C           -0.64231773        2.29049138        0.28634588
 C           -0.81194220        1.87829823        1.62187175
 C           -1.60928147        1.99481303       -1.92874102
 C           -1.74990604        2.41942919       -0.55530113
 C           -1.78366653       -0.29945100       -2.34829607
 C           -2.55808238        0.91610180       -2.14669388
 C           -0.89884917       -2.31622879       -1.40330685
 C           -0.70837642       -3.02920955       -0.15271413
 C           -1.41430967       -2.55758953        1.02057024
 C           -1.93650747       -1.39204430       -1.49402281
 C           -2.61719874       -1.89795878        0.82761838
 C           -2.92833264       -1.39094244       -0.50428233
 C           -1.90672719       -0.14208255        2.42915843
 C           -1.99076301        1.24524083        1.99982136
 C           -2.97741342       -0.86307238        1.76951571
 C           -3.06059268        1.97089852       -0.11717379
 C           -3.52558109        0.97205486       -1.07202990
 C           -3.80579386       -0.24229462       -0.33648679
 C           -3.19013861        1.40766756        1.20660761
 C           -3.81425351        0.10181778        1.07481490




