%chk=000146.chk
%mem=8GB
%Nproc=48
#p B3LYP/6-31G* opt pop=NPA

Template file

0 1
 C            3.14222615       -1.92820273       -0.52299535
 C            1.96372188       -2.68326747       -0.90694251
 C            1.16012735       -2.90408862        0.28278521
 C            2.99382432       -1.55562426        0.87291112
 C            1.83531820       -2.24821384        1.39861805
 C            3.03400299       -0.10558394        0.95561292
 C            3.15088576       -0.70407706       -1.30268224
 C            3.32819382        0.40112355       -0.38275238
 C            1.34860116       -2.00963677       -2.03530621
 C            1.97110499       -0.69954601       -2.15032686
 C           -0.02425222       -2.10335532       -2.17416095
 C           -0.23037551       -2.83151469        0.17012626
 C           -0.79390610       -2.72195477       -1.10362074
 C           -0.99248677       -2.51451577        1.29721546
 C            1.07342068       -1.61197179        2.36506160
 C           -0.33373097       -1.94614107        2.45964889
 C            2.10628187        0.56349825        1.76346240
 C            1.20217792       -0.16803988        2.53924303
 C            1.84414275        1.91198220        1.52059238
 C            2.80441503        1.62969670       -0.75063863
 C            2.36732510        2.51349813        0.30712447
 C            1.18070291        0.45346531       -2.18012893
 C            1.76407502        1.65436533       -1.77401515
 C           -0.76026090       -0.91863693       -2.56395698
 C           -0.21771380        0.33700198       -2.27620111
 C           -2.16274245       -2.25697330       -1.25591325
 C           -2.14933690       -1.20338848       -2.26216740
 C           -2.27389054       -1.83642836        1.15454635
 C           -2.87419196       -1.75178332       -0.09752988
 C           -1.05615962       -0.74396196        2.83952349
 C           -0.12870436        0.37160330        2.78018764
 C           -2.27216392       -0.68603049        2.05388355
 C            0.49516315        2.42580554        1.72339332
 C           -0.50658473        1.55541028        2.14982648
 C            1.34782340        3.38191749       -0.24973817
 C            0.92198687        2.79950469       -1.51235136
 C            0.20796882        3.35602474        0.64677876
 C           -1.06071959        1.41161038       -1.92263444
 C           -0.50751021        2.59786563       -1.44161351
 C           -0.96831697        3.11895486       -0.15867033
 C           -2.98982047       -0.13026648       -1.79088554
 C           -3.53812234       -0.52381701       -0.50035901
 C           -2.40888458        1.18632576       -1.63266502
 C           -2.71211973        0.55198960        1.60346558
 C           -1.80881942        1.69744166        1.64710149
 C           -2.04768343        2.49536484        0.44674422
 C           -3.47898838        0.63393915        0.37388040
 C           -2.94600424        1.73863094       -0.40347709




