%chk=000076.chk
%mem=8GB
%Nproc=48
#p B3LYP/6-31G* opt pop=NPA

Template file

0 1
 C            3.41904559        1.27436172       -1.38750186
 C            3.77221809       -0.06647240       -0.96013291
 C            3.96400617       -0.02458675        0.47924374
 C            3.09169993        2.04171635       -0.19607266
 C            3.40684310        1.23081605        0.95959687
 C            1.73294953        2.51809327       -0.34426338
 C            2.21414971        1.18255924       -2.19627999
 C            1.24783388        2.11086454       -1.65307799
 C            2.79440169       -0.98589945       -1.52486441
 C            1.82767729       -0.20861610       -2.28900013
 C            2.34729742       -2.06660333       -0.77266101
 C            3.40766511       -1.09080290        1.28985732
 C            2.72029096       -2.18674088        0.63119733
 C            2.34071925        0.91269677        1.89497591
 C            2.47210694       -0.49302697        2.23206320
 C            0.84589672        2.42338366        0.72405940
 C            1.05979437        1.43012058        1.69543899
 C           -0.46503064        2.79114593        0.44082841
 C           -0.10456877        1.80159324       -1.75718024
 C           -0.96050691        2.47997004       -0.89126404
 C            0.47259197       -0.52195556       -2.19638629
 C           -0.47259197        0.52195556       -2.19638629
 C            0.96050691       -2.47997004       -0.89126404
 C            0.10456877       -1.80159324       -1.75718024
 C            1.50727267       -2.44897473        1.38614102
 C            1.27357237       -1.31641099        2.25388590
 C            0.46503064       -2.79114593        0.44082841
 C           -0.03064847        0.69818420        2.18139682
 C            0.03064847       -0.69818420        2.18139682
 C           -1.50727267        2.44897473        1.38614102
 C           -1.27357237        1.31641099        2.25388590
 C           -2.34729742        2.06660333       -0.77266101
 C           -2.72029096        2.18674088        0.63119733
 C           -1.82767729        0.20861610       -2.28900013
 C           -2.79440169        0.98589945       -1.52486441
 C           -1.24783388       -2.11086454       -1.65307799
 C           -2.21414971       -1.18255924       -2.19627999
 C           -0.84589672       -2.42338366        0.72405940
 C           -1.05979437       -1.43012058        1.69543899
 C           -1.73294953       -2.51809327       -0.34426338
 C           -2.47210694        0.49302697        2.23206320
 C           -3.40766511        1.09080290        1.28985732
 C           -2.34071925       -0.91269677        1.89497591
 C           -3.77221809        0.06647240       -0.96013291
 C           -3.41904559       -1.27436172       -1.38750186
 C           -3.09169993       -2.04171635       -0.19607266
 C           -3.96400617        0.02458675        0.47924374
 C           -3.40684310       -1.23081605        0.95959687




