%chk=000190.chk
%mem=8GB
%Nproc=48
#p B3LYP/6-31G* opt pop=NPA

Template file

0 1
 C            3.81587074       -0.00917628        0.16073487
 C            3.38894684       -0.35720729       -1.18301457
 C            2.82854324       -1.69573196       -1.13126433
 C            3.26739938       -1.00373012        1.06734252
 C            2.74505775       -2.09768643        0.26711695
 C            2.36462645       -0.31936354        1.97814430
 C            3.47223029        1.29657896        0.68830324
 C            2.62602799        1.09675348        1.85877378
 C            2.79892625        2.24631078       -0.17816801
 C            2.43631193        0.49698773       -1.87951147
 C            2.19631498        1.78694393       -1.42267292
 C            1.61934770       -1.70552962       -1.94252471
 C            1.31378516       -0.32780319       -2.29944117
 C            0.58156701       -2.54982660       -1.57622130
 C            1.59055546       -2.73574235        0.70212165
 C            0.66303819       -3.23522505       -0.29634548
 C            1.05058964       -0.76762539        2.07585839
 C            0.78853495       -2.09499472        1.73611191
 C           -0.00802039        0.15053381        2.16433700
 C            1.50126275        2.00123789        1.75239010
 C            1.74719326        2.86025645        0.60882076
 C            0.20648713        1.52129266        1.94185009
 C            0.84400749        2.31607287       -1.47367732
 C            0.63438654        3.12667399       -0.27864228
 C            0.00802039        0.15053381       -2.16433700
 C           -0.20648713        1.52129266       -1.94185009
 C           -0.78853495       -2.09499472       -1.73611191
 C           -1.05058964       -0.76762539       -2.07585839
 C           -0.66303819       -3.23522505        0.29634548
 C           -0.58156701       -2.54982660        1.57622130
 C           -1.59055546       -2.73574235       -0.70212165
 C           -1.31378516       -0.32780319        2.29944117
 C           -1.61934770       -1.70552962        1.94252471
 C           -2.43631193        0.49698773        1.87951147
 C           -0.84400749        2.31607287        1.47367732
 C           -0.63438654        3.12667399        0.27864228
 C           -2.19631498        1.78694393        1.42267292
 C           -1.50126275        2.00123789       -1.75239010
 C           -1.74719326        2.86025645       -0.60882076
 C           -2.79892625        2.24631078        0.17816801
 C           -2.36462645       -0.31936354       -1.97814430
 C           -2.62602799        1.09675348       -1.85877378
 C           -3.47223029        1.29657896       -0.68830324
 C           -2.74505775       -2.09768643       -0.26711695
 C           -2.82854324       -1.69573196        1.13126433
 C           -3.38894684       -0.35720729        1.18301457
 C           -3.26739938       -1.00373012       -1.06734252
 C           -3.81587074       -0.00917628       -0.16073487




