%chk=000039.chk
%mem=8GB
%Nproc=48
#p B3LYP/6-31G* opt pop=NPA

Template file

0 1
 C           -3.80112787       -0.72576030       -0.95443164
 C           -3.80112787        0.72576030       -0.95443164
 C           -3.48855905        1.16954926        0.39205609
 C           -3.48855905       -1.16954926        0.39205609
 C           -3.17164051       -0.00000000        1.19308158
 C           -2.48977800       -2.21126073        0.28306052
 C           -2.71648674       -1.17104320       -1.81144852
 C           -1.95374912       -2.16196434       -1.07529230
 C           -2.71648674        1.17104320       -1.81144852
 C           -2.01451299        0.00000000       -2.29834863
 C           -2.48977800        2.21126073        0.28306052
 C           -1.95374912        2.16196434       -1.07529230
 C           -1.59676377        2.35951646        1.33283989
 C           -2.00244411       -0.00000000        1.96000257
 C           -1.33499686        1.20722484        2.19205013
 C           -1.59676377       -2.35951646        1.33283989
 C           -1.33499686       -1.20722484        2.19205013
 C           -0.32134981       -2.98560688        1.04608165
 C           -0.57027928       -2.20574376       -1.25326286
 C            0.18794099       -2.89453322       -0.30783601
 C           -0.62647853        0.00000000       -2.24200921
 C            0.04417241       -1.20778953       -2.01964645
 C           -0.57027928        2.20574376       -1.25326286
 C            0.04417241        1.20778953       -2.01964645
 C           -0.32134981        2.98560688        1.04608165
 C            0.18794099        2.89453322       -0.30783601
 C            0.08904025        1.19901783        2.50324985
 C            0.67183586        2.39518726        1.92264147
 C            0.08904025       -1.19901783        2.50324985
 C            0.67183586       -2.39518726        1.92264147
 C            0.79685707       -0.00000000        2.45456228
 C            1.61626798       -2.64757847       -0.21333572
 C            1.90448993       -2.27192680        1.16980234
 C            1.42410619       -1.24446412       -2.20583765
 C            2.24619918       -1.97728975       -1.25472747
 C            1.42410619        1.24446412       -2.20583765
 C            2.10593575        0.00000000       -2.51219481
 C            1.61626798        2.64757847       -0.21333572
 C            1.90448993        2.27192680        1.16980234
 C            2.24619918        1.97728975       -1.25472747
 C            2.14342887       -0.00000000        2.06425476
 C            2.72008338       -1.17761377        1.42619789
 C            2.72008338        1.17761377        1.42619789
 C            3.42254563       -1.17400307       -0.96701217
 C            3.38323767        0.00000000       -1.82159810
 C            3.42254563        1.17400307       -0.96701217
 C            3.63921709       -0.72699730        0.39597572
 C            3.63921709        0.72699730        0.39597572




