%chk=000050.chk
%mem=8GB
%Nproc=48
#p B3LYP/6-31G* opt pop=NPA

Template file

0 1
 C            3.75029232       -1.05360835        0.85676524
 C            4.05306444        0.14704328        0.10070269
 C            3.38070584        1.25568013        0.75166124
 C            2.82872229       -0.69051394        1.92218960
 C            2.55371011        0.72484518        1.82292578
 C            1.70981583       -1.60135692        1.86186161
 C            3.05093362       -1.96901181       -0.02759055
 C            1.86693603       -2.42837857        0.67279396
 C            3.46408748        0.00463525       -1.22082256
 C            2.88056494       -1.32081145       -1.31309915
 C            2.72573020        2.03045778       -0.28259536
 C            2.61503965        1.16233350       -1.45216512
 C            1.61478077        2.77106156        0.08732872
 C            1.23314617        1.16374057        1.90999493
 C            0.91335008        2.38103513        1.30408422
 C            0.43496231       -1.13172628        2.15920988
 C            0.20598297        0.25453522        2.21669579
 C           -0.61767162       -1.98379135        1.83448823
 C            0.72052585       -2.73715477       -0.05511523
 C           -0.46352976       -2.84003615        0.66952379
 C            1.66310337       -1.46706030       -1.96179335
 C            0.65721024       -2.36288212       -1.40378320
 C            1.36921694        0.98993522       -2.06363707
 C            0.96231799       -0.28656161       -2.45521128
 C            0.60010813        3.00700297       -0.91737604
 C            0.41830192        2.00233689       -1.94857423
 C           -0.47612892        2.77664266        1.15620696
 C           -0.66586343        3.17652233       -0.22913542
 C           -1.10211209        0.73064535        2.34710943
 C           -1.46199552        2.01780826        1.76968192
 C           -1.98658445       -1.50708963        1.86629166
 C           -2.22894961       -0.17038898        2.15395728
 C           -1.73425989       -2.87452306       -0.02957682
 C           -2.70903009       -2.17313426        0.78976173
 C           -0.61568003       -1.97050988       -1.99626852
 C           -0.45704213       -0.61333133       -2.50559508
 C           -1.80143517       -2.32988689       -1.37099766
 C           -1.00186702        1.67855034       -2.00052452
 C           -1.68731571        2.50918191       -1.01524540
 C           -1.40841613        0.35981297       -2.20149935
 C           -2.74174470        1.86015686        1.09349061
 C           -3.27086784        0.55343995        1.43916759
 C           -2.79742869        1.99938789       -0.35546485
 C           -3.54991803       -1.39701868       -0.10256835
 C           -2.92433268       -1.40968631       -1.41691713
 C           -2.68777723       -0.03050099       -1.80711589
 C           -3.84762237       -0.01790321        0.23461858
 C           -3.43503639        0.81007559       -0.88783932




