%chk=000159.chk
%mem=8GB
%Nproc=48
#p B3LYP/6-31G* opt pop=NPA

Template file

0 1
 C            3.43624447       -0.37601177        1.21483602
 C            2.65581932       -1.50236775        1.69529797
 C            2.41120253       -2.37753142        0.56143481
 C            3.65526899       -0.57107761       -0.21052071
 C            2.77617192       -1.64754144       -0.63890432
 C            3.55759605        0.72220710       -0.85271759
 C            2.92550077        0.97144625        1.39750201
 C            3.12718436        1.68610111        0.15132057
 C            1.74677262        1.17490400        2.10618877
 C            1.37849321       -1.25776577        2.34167651
 C            0.99227783        0.04107585        2.63358786
 C            1.05891112       -2.88189550        0.67139917
 C            0.40679524       -2.17380379        1.76843624
 C            0.34566352       -3.07611994       -0.49968853
 C            1.80313137       -1.42812962       -1.62224516
 C            0.67542663       -2.25118707       -1.65772718
 C            2.68307565        0.85809129       -1.99843400
 C            1.76131426       -0.21841179       -2.32179519
 C            2.02876270        2.45418429       -0.41164977
 C            1.89336734        2.06006022       -1.80321059
 C            0.78511872        2.16328576        1.63699919
 C            0.86909034        2.66378596        0.33349518
 C           -0.41596771        0.38642699        2.57839191
 C           -0.50636963        1.78797640        2.19692926
 C           -0.93240681       -1.79107826        1.63218185
 C           -1.34896571       -0.52331341        2.07816635
 C           -1.09940950       -3.13571967       -0.40494215
 C           -1.72958466       -2.52688888        0.74989763
 C           -0.57345187       -1.70731202       -2.16909210
 C           -1.64797057       -2.47619112       -1.57740316
 C            0.46930978        0.38584746       -2.62419840
 C            0.55961392        1.80599253       -2.31874024
 C           -0.69326234       -0.32639275       -2.32622079
 C           -0.30151749        2.97780189       -0.35653930
 C           -0.50815334        2.41725234       -1.68544591
 C           -1.67295902        2.25219755        1.60567283
 C           -1.58039257        2.94310995        0.33359443
 C           -2.63427865       -0.05409039        1.79615203
 C           -2.82420787        1.36593540        1.54242777
 C           -2.98913973       -1.99127854        0.27746352
 C           -2.84707470       -1.78620053       -1.15855792
 C           -3.47259072       -0.75408737        0.84482026
 C           -1.83099464        0.35114056       -1.85124804
 C           -1.78455830        1.73386982       -1.65742267
 C           -2.54217059        2.33512247       -0.57147565
 C           -3.41899425        1.49674083        0.21911110
 C           -2.94393415       -0.35951365       -1.38707942
 C           -3.70375780        0.15935405       -0.26172449




