%chk=000180.chk
%mem=8GB
%Nproc=48
#p B3LYP/6-31G* opt pop=NPA

Template file

0 1
 C            3.60974119       -0.44308606       -0.57364716
 C            3.25773008       -1.76074742       -0.08375310
 C            2.75193668       -1.59605609        1.27546724
 C            3.60974119        0.44308606        0.57364716
 C            2.75756435       -0.18072314        1.57325696
 C            3.25773008        1.76074742        0.08375310
 C            2.75756435        0.18072314       -1.57325696
 C            2.75193668        1.59605609       -1.27546724
 C            1.56425369       -0.44210987       -1.93904609
 C            2.27009478       -2.51967164       -0.82340032
 C            1.45301753       -1.82940380       -1.80489094
 C            1.50190624       -2.31963770        1.37072497
 C            1.35562187       -3.08951713        0.14665435
 C            0.37258803       -1.69070211        1.88902305
 C            1.56425369        0.44210987        1.93904609
 C            0.41908475       -0.32123126        2.21417952
 C            2.27009478        2.51967164        0.82340032
 C            1.45301753        1.82940380        1.80489094
 C            1.50190624        2.31963770       -1.37072497
 C            1.35562187        3.08951713       -0.14665435
 C            0.41908475        0.32123126       -2.21417952
 C            0.37258803        1.69070211       -1.88902305
 C           -0.74138570       -0.34276705       -2.62527355
 C            0.13728708       -2.44340703       -1.74919153
 C            0.04135888       -3.14665468       -0.47464761
 C           -0.95005877       -1.72104134       -2.21834367
 C           -0.85457566       -2.30324730        1.63123705
 C           -1.06546152       -2.92902222        0.33608710
 C           -2.09206446       -1.65799807        2.01381400
 C           -0.74138570        0.34276705        2.62527355
 C           -2.03095554       -0.31899707        2.55103443
 C            0.13728708        2.44340703        1.74919153
 C            0.04135888        3.14665468        0.47464761
 C           -0.95005877        1.72104134        2.21834367
 C           -0.85457566        2.30324730       -1.63123705
 C           -1.06546152        2.92902222       -0.33608710
 C           -2.03095554        0.31899707       -2.55103443
 C           -2.09206446        1.65799807       -2.01381400
 C           -2.21664399       -1.77375154       -1.50170507
 C           -2.26619429       -2.33932111       -0.23192293
 C           -2.95667151       -1.63916538        0.84248932
 C           -2.91389773       -0.52293852       -1.75763454
 C           -2.91389773        0.52293852        1.75763454
 C           -2.21664399        1.77375154        1.50170507
 C           -2.26619429        2.33932111        0.23192293
 C           -2.95667151        1.63916538       -0.84248932
 C           -3.40427597       -0.27055833        0.64069346
 C           -3.40427597        0.27055833       -0.64069346




