%chk=000058.chk
%mem=8GB
%Nproc=48
#p B3LYP/6-31G* opt pop=NPA

Template file

0 1
 C           -3.87178926        0.31754063       -0.65258611
 C           -3.87178926       -0.31754063        0.65258611
 C           -3.20087788       -1.59374121        0.51504044
 C           -3.06347822       -0.49332516       -1.55025513
 C           -2.66504679       -1.68790976       -0.83501891
 C           -2.02600049        0.35630186       -2.10238768
 C           -3.20087788        1.59374121       -0.51504044
 C           -2.26566490        1.70964416       -1.61907326
 C           -3.06347822        0.49332516        1.55025513
 C           -2.66504679        1.68790976        0.83501891
 C           -2.26566490       -1.70964416        1.61907326
 C           -2.02600049       -0.35630186        2.10238768
 C           -1.16929534       -2.53430956        1.42761160
 C           -1.36350861       -2.16082307       -0.97588299
 C           -0.87174467       -2.94435098        0.06702668
 C           -0.71753704       -0.12380949       -2.14701691
 C           -0.45506195       -1.45543850       -1.78259298
 C            0.33379525        0.79414479       -2.27785683
 C           -1.16929534        2.53430956       -1.42761160
 C            0.10416323        2.13882299       -1.99590877
 C           -1.36350861        2.16082307        0.97588299
 C           -0.87174467        2.94435098       -0.06702668
 C           -0.71753704        0.12380949        2.14701691
 C           -0.45506195        1.45543850        1.78259298
 C            0.10416323       -2.13882299        1.99590877
 C            0.33379525       -0.79414479        2.27785683
 C            0.51005177       -3.37972126        0.05019892
 C            1.12241675       -2.89187806        1.27856331
 C            0.82269751       -1.98059591       -1.98621558
 C            1.34446328       -2.96774895       -1.05676507
 C            1.64990526        0.34412284       -2.32281223
 C            1.91435961       -1.07920544       -2.29601341
 C            2.65396336        0.99382449       -1.49178778
 C            1.12241675        2.89187806       -1.27856331
 C            0.51005177        3.37972126       -0.05019892
 C            2.36743904        2.23203832       -0.92417558
 C            0.82269751        1.98059591        1.98621558
 C            1.34446328        2.96774895        1.05676507
 C            2.57855939        2.43797280        0.50054950
 C            1.64990526       -0.34412284        2.32281223
 C            1.91435961        1.07920544        2.29601341
 C            2.97843523        1.31551941        1.32829394
 C            2.36743904       -2.23203832        0.92417558
 C            2.57855939       -2.43797280       -0.50054950
 C            2.97843523       -1.31551941       -1.32829394
 C            3.28975549       -0.04566505       -0.69505475
 C            2.65396336       -0.99382449        1.49178778
 C            3.28975549        0.04566505        0.69505475




