%chk=000132.chk
%mem=8GB
%Nproc=48
#p B3LYP/6-31G* opt pop=NPA

Template file

0 1
 C            2.33871676       -2.87511686        0.31309122
 C            3.10366318       -1.80529890       -0.29700367
 C            3.27230840       -0.77099949        0.70540712
 C            1.77056602       -2.35688003        1.54779135
 C            2.25294363       -1.00699908        1.72153307
 C            0.34449050       -2.56964883        1.49167103
 C            1.23172317       -3.18147115       -0.57199006
 C            0.04831656       -3.28131552        0.25240333
 C            2.46480755       -1.44985955       -1.55371502
 C            1.22380590       -2.20218219       -1.64451906
 C            2.47769694       -0.11941976       -1.94165272
 C            3.48225089        0.53010525        0.26955149
 C            3.21390745        0.84144072       -1.12894350
 C            2.93770393        1.61360756        1.06717655
 C            1.35486753        0.01402703        2.03258056
 C            1.84226178        1.31905975        1.97557339
 C           -0.52017089       -1.55366653        1.89832372
 C           -0.03761715       -0.23040479        2.01353565
 C           -1.87558065       -1.78327836        1.67324750
 C           -1.17002522       -3.02171359       -0.35196674
 C           -2.24294125       -2.56580483        0.50737044
 C            0.02283209       -1.54963464       -1.93649745
 C           -1.17308601       -2.15284386       -1.52608571
 C            1.23410549        0.51033296       -2.35254926
 C            0.03467363       -0.20197691       -2.32784579
 C            2.50378007        2.10827472       -1.17994586
 C            2.48501630        2.65530112        0.15857433
 C            1.24379846        1.88354481       -1.86919155
 C            0.92363148        2.42793829        1.89339794
 C            1.23251494        3.16464831        0.67450068
 C           -0.94177064        0.85124104        2.10310317
 C           -0.49122374        2.14750393        1.87562549
 C           -2.81884415       -0.69597324        1.77376115
 C           -2.30907468        0.64216933        1.94173701
 C           -3.13410499       -1.75374331       -0.29611372
 C           -2.41195678       -1.39170505       -1.50821146
 C           -3.64740016       -0.71142158        0.57357381
 C           -1.15116680        0.53297379       -2.35422695
 C           -2.40584431       -0.07474008       -1.94801683
 C            0.05588336        2.43165694       -1.38268770
 C            0.04124703        3.11460234       -0.15946531
 C           -1.05827816        2.89561393        0.76555343
 C           -1.13852577        1.90733711       -1.87116823
 C           -3.03626184        1.50171915        1.01996513
 C           -3.72395989        0.64541207        0.06946450
 C           -3.18798787        0.93620467       -1.24810867
 C           -2.28958468        2.49697510        0.26753654
 C           -2.37210740        2.13440823       -1.13614433




