%chk=000138.chk
%mem=8GB
%Nproc=48
#p B3LYP/6-31G* opt pop=NPA

Template file

0 1
 C            3.24509610       -1.85981352       -0.00000000
 C            3.56976625       -0.44554196        0.00000000
 C            3.09941441        0.12382307        1.25323886
 C            2.43124959       -2.12664301        1.17372777
 C            2.36840977       -0.91554334        1.96676667
 C            1.18893429       -2.72929461        0.72781310
 C            2.43124959       -2.12664301       -1.17372777
 C            1.18893429       -2.72929461       -0.72781310
 C            3.09941441        0.12382307       -1.25323886
 C            2.36840977       -0.91554334       -1.96676667
 C            2.62559042        1.43172145       -1.25531477
 C            2.62559042        1.43172145        1.25531477
 C            2.58832829        2.16682069        0.00000000
 C            1.42315192        1.76887996        2.00394275
 C            1.17478444       -0.60725970        2.60687677
 C            0.72768205        0.77512015        2.68469091
 C            0.00000000       -2.42456171        1.38661035
 C           -0.00000000       -1.44522489        2.38952578
 C           -1.18893429       -2.72929461        0.72781310
 C           -0.00000000       -2.42456171       -1.38661035
 C           -1.18893429       -2.72929461       -0.72781310
 C            1.17478444       -0.60725970       -2.60687677
 C            0.00000000       -1.44522489       -2.38952578
 C            1.42315192        1.76887996       -2.00394275
 C            0.72768205        0.77512015       -2.68469091
 C            1.39872644        2.99990888        0.00000000
 C            0.69545163        2.78340230        1.25476426
 C            0.69545163        2.78340230       -1.25476426
 C           -0.69545163        2.78340230        1.25476426
 C           -0.72768205        0.77512015        2.68469091
 C           -1.17478444       -0.60725970        2.60687677
 C           -1.42315192        1.76887996        2.00394275
 C           -2.43124959       -2.12664301        1.17372777
 C           -2.36840977       -0.91554334        1.96676667
 C           -2.43124959       -2.12664301       -1.17372777
 C           -3.24509610       -1.85981352       -0.00000000
 C           -1.17478444       -0.60725970       -2.60687677
 C           -0.72768205        0.77512015       -2.68469091
 C           -2.36840977       -0.91554334       -1.96676667
 C           -0.69545163        2.78340230       -1.25476426
 C           -1.39872644        2.99990888        0.00000000
 C           -1.42315192        1.76887996       -2.00394275
 C           -2.62559042        1.43172145        1.25531477
 C           -3.09941441        0.12382307        1.25323886
 C           -3.56976625       -0.44554196       -0.00000000
 C           -3.09941441        0.12382307       -1.25323886
 C           -2.58832829        2.16682069        0.00000000
 C           -2.62559042        1.43172145       -1.25531477




