%chk=000173.chk
%mem=8GB
%Nproc=48
#p B3LYP/6-31G* opt pop=NPA

Template file

0 1
 C            3.36069744       -0.23140700       -1.28513955
 C            2.73744088       -1.52034521       -1.51609429
 C            1.61314919       -1.30957912       -2.41728937
 C            2.63501292        0.75086163       -2.07549751
 C            1.41570507        0.11774644       -2.54612022
 C            2.52690362        1.95767981       -1.28565422
 C            3.45633361        0.28002097        0.07129060
 C            3.07723261        1.68404864        0.03418603
 C            3.05366716       -0.51183280        1.14338577
 C            2.25220225       -2.29003078       -0.38362990
 C            2.43741383       -1.81429345        0.91277462
 C            0.50816906       -2.11230441       -1.93768081
 C            0.96708813       -2.84818507       -0.76695523
 C           -0.77503267       -1.57258006       -1.92684205
 C            0.17704491        0.65517610       -2.19395875
 C           -0.94177290       -0.18980651       -2.12041668
 C            1.21493093        2.53925142       -1.09385530
 C            0.10157884        1.97244665       -1.71196912
 C            2.14298516        2.20879652        1.02243275
 C            1.10910887        2.93239136        0.30068160
 C            2.37847184        0.10683466        2.27277247
 C            1.79627015        1.43082264        2.12182618
 C            1.39141321       -2.00018928        1.91061355
 C            1.32814378       -0.79397894        2.71814119
 C            0.04213809       -3.17606629        0.21774133
 C            0.19838511       -2.61834434        1.55444096
 C           -1.76126297       -2.30676570       -1.26836371
 C           -1.37176710       -3.09749014       -0.11633526
 C           -3.02719943       -1.68952227       -0.93160749
 C           -2.21626065        0.37319897       -2.06277437
 C           -3.28442172       -0.34311412       -1.39363484
 C           -1.13825271        2.51144756       -1.38048472
 C           -2.34475117        1.75869014       -1.66066788
 C           -0.16144818        3.05063530        0.85137934
 C           -1.29199170        3.10656938       -0.06275788
 C            0.40452210        1.35491589        2.54449214
 C            0.08180603       -0.04483393        2.76274460
 C           -0.54374871        2.17912809        1.95678260
 C           -1.05656939       -1.96487154        1.89438345
 C           -2.06747541       -2.53494483        1.02995887
 C           -3.11331986       -1.67462818        0.52303619
 C           -1.06047079       -0.59691619        2.18145213
 C           -3.64113076        0.44170841       -0.22455439
 C           -3.17589761        1.79221615       -0.46235560
 C           -2.40825703        2.44189703        0.58067615
 C           -1.85526858        1.63180173        1.65318755
 C           -3.12527845       -0.28304497        0.92436993
 C           -2.04623700        0.24678966        1.64188914




