%chk=000143.chk
%mem=8GB
%Nproc=48
#p B3LYP/6-31G* opt pop=NPA

Template file

0 1
 C            2.24870480       -2.83886981       -0.69943597
 C            3.10798270       -1.68729062       -0.50714564
 C            2.98216835       -1.25681861        0.87717067
 C            1.52618553       -3.05463283        0.54026893
 C            1.83911178       -1.95741723        1.43921134
 C            0.13808864       -3.26946667        0.19522126
 C            1.26839795       -2.48843505       -1.71312188
 C           -0.03915197       -2.80216265       -1.17744493
 C            2.80368087       -0.72995858       -1.55690092
 C            1.52658550       -1.12578916       -2.13081199
 C            3.02548837        0.61238427       -1.28804856
 C            3.14501777        0.09164139        1.15280165
 C            3.47900302        0.97392925        0.04666565
 C            2.13625471        0.77242520        1.94859012
 C            0.78473951       -1.23612553        2.00588434
 C            0.91820555        0.14412799        2.21178408
 C           -0.81767681       -2.89982881        1.12957793
 C           -0.47765242       -1.83867957        2.07371727
 C           -2.15389483       -2.62487126        0.63934584
 C           -1.10735006       -1.95106246       -1.45377992
 C           -2.28039295       -2.16618824       -0.72904044
 C            0.47109044       -0.21678134       -2.13856225
 C           -0.85001374       -0.68041481       -2.00110381
 C            2.01458905        1.58388188       -1.67236215
 C            0.75268970        1.15597974       -2.08497599
 C            2.96130418        2.29334187        0.35793350
 C            2.13374648        2.17078950        1.54414430
 C            2.09132601        2.69102389       -0.73243875
 C            0.86092621        2.81113699        1.26079027
 C            0.85368316        3.18090227       -0.15169768
 C           -0.21242500        0.93763493        2.42229691
 C           -0.28452663        2.26602025        1.82814757
 C           -1.66703826       -1.02500311        2.27439355
 C           -2.74108051       -1.60374431        1.48717620
 C           -1.53925455        0.35388029        2.35668476
 C           -3.34069794       -1.17987837       -0.74354596
 C           -3.54022227       -0.74279602        0.63244975
 C           -1.90828444        0.19695517       -2.24283023
 C           -3.17452451       -0.00093911       -1.56317865
 C           -0.29323162        2.07130515       -2.00045206
 C           -0.31206231        3.01118252       -0.88866133
 C           -1.65227365        1.62103881       -2.21423838
 C           -1.55447610        2.36484905        1.12471518
 C           -2.37097386        1.22754625        1.53349438
 C           -3.32130367        0.69183579        0.66546869
 C           -3.38692162        1.15653519       -0.70883838
 C           -1.57074080        2.80596767       -0.19556071
 C           -2.47279975        2.19083883       -1.15375755




