%chk=000093.chk
%mem=8GB
%Nproc=48
#p B3LYP/6-31G* opt pop=NPA

Template file

0 1
 C            3.77646374       -0.47381302        0.86347062
 C            3.73807956        0.45432761       -0.25306098
 C            3.20520439        1.70945725        0.24256203
 C            3.01190853        0.11508474        1.95081987
 C            2.72937470        1.48643251        1.60229029
 C            1.89587539       -0.76183277        2.23359489
 C            3.09713058       -1.69057210        0.45156731
 C            2.00496417       -1.93239919        1.37610728
 C            3.06991775       -0.20764602       -1.36134125
 C            2.78689918       -1.57941303       -0.95845444
 C            2.13797267        0.49688976       -2.11975998
 C            2.13233107        2.35948265       -0.49060869
 C            1.70318676        1.82635419       -1.70357785
 C            1.35409404        1.94702789        1.66215076
 C            1.14445334        2.77649743        0.49076999
 C            0.62752350       -0.23586693        2.46426915
 C            0.33039634        1.08364999        2.06820364
 C           -0.39974363       -1.16759871        2.53588778
 C            0.82828182       -2.51243982        0.89966944
 C           -0.33636704       -2.31775253        1.64794771
 C            1.63648394       -2.20594595       -1.41956539
 C            0.73675393       -2.83477563       -0.45946343
 C            0.98739341       -0.19708844       -2.67757244
 C            0.80886552       -1.54986814       -2.41945817
 C            0.31106885        1.98339003       -2.09516264
 C           -0.15382664        0.70820157       -2.62653052
 C           -0.15917463        3.01373339        0.08388601
 C           -0.53969008        2.73633257       -1.29535860
 C           -0.99498725        1.45791061        1.79367855
 C           -1.23876054        2.52170868        0.91947846
 C           -1.77100429       -0.71571062        2.59340839
 C           -2.05314255        0.64687045        2.20614090
 C           -1.64980764       -2.47158760        1.03812604
 C           -2.56524352       -1.59167297        1.74394172
 C           -0.56387424       -2.92856092       -1.10145285
 C           -0.53847150       -2.06843569       -2.27657668
 C           -1.75512029       -2.60684604       -0.33963795
 C           -1.42463554        0.23292308       -2.28825568
 C           -1.64859828       -1.13865833       -2.16630984
 C           -2.52003322       -1.63477020       -1.11225152
 C           -1.95673692        2.41530626       -1.29422717
 C           -2.42265483        2.51196932        0.07897851
 C           -2.38130616        1.12244843       -1.80116431
 C           -3.28594601        0.61264744        1.43356166
 C           -3.47311145       -0.75559037        0.97975131
 C           -3.38406794       -0.75185117       -0.47160459
 C           -3.41764776        1.47804272        0.27909084
 C           -3.42067123        0.63400762       -0.90795819




