%chk=000045.chk
%mem=8GB
%Nproc=48
#p B3LYP/6-31G* opt pop=NPA

Template file

0 1
 C           -3.94202589       -0.62823598       -0.36224489
 C           -3.94202589        0.62823598        0.36224489
 C           -3.26052468        1.60514733       -0.46337150
 C           -3.13861586       -0.45516715       -1.56281189
 C           -2.65635325        0.90843475       -1.58672363
 C           -2.16589814       -1.52563689       -1.59242889
 C           -3.26052468       -1.60514733        0.46337150
 C           -2.38056310       -2.35436587       -0.40844806
 C           -3.13861586        0.45516715        1.56281189
 C           -2.65635325       -0.90843475        1.58672363
 C           -2.38056310        2.35436587        0.40844806
 C           -2.16589814        1.52563689        1.59242889
 C           -1.26891066        2.94362904       -0.17262028
 C           -1.31070737        1.15240699       -1.85798175
 C           -0.77256434        2.36376903       -1.41507948
 C           -0.85726560       -1.24651011       -1.98777144
 C           -0.44862141        0.08704928       -2.16852333
 C            0.10037081       -2.23735819       -1.76876700
 C           -1.26891066       -2.94362904        0.17262028
 C           -0.11336173       -3.16171367       -0.67244515
 C           -1.31070737       -1.15240699        1.85798175
 C           -0.77256434       -2.36376903        1.41507948
 C           -0.85726560        1.24651011        1.98777144
 C           -0.44862141       -0.08704928        2.16852333
 C           -0.11336173        3.16171367        0.67244515
 C            0.10037081        2.23735819        1.76876700
 C            0.66228832        2.58441356       -1.46456891
 C            1.06446850        3.12031847       -0.17341304
 C            0.88936530        0.36126971       -2.46761112
 C            1.46964060        1.63796008       -2.07832965
 C            1.51330378       -1.90605292       -1.78783686
 C            1.90200904       -0.66374166       -2.26585449
 C            1.06446850       -3.12031847        0.17341304
 C            0.66228832       -2.58441356        1.46456891
 C            2.11597399       -2.44890061       -0.57132060
 C            0.88936530       -0.36126971        2.46761112
 C            1.46964060       -1.63796008        2.07832965
 C            1.51330378        1.90605292        1.78783686
 C            2.11597399        2.44890061        0.57132060
 C            1.90200904        0.66374166        2.26585449
 C            2.79185728        1.37876823       -1.52704787
 C            3.09011517       -0.02862310       -1.72227175
 C            3.05653555        1.70470822       -0.13345450
 C            3.05653555       -1.70470822        0.13345450
 C            2.79185728       -1.37876823        1.52704787
 C            3.09011517        0.02862310        1.72227175
 C            3.65948367       -0.53933150       -0.48854656
 C            3.65948367        0.53933150        0.48854656




