%chk=000028.chk
%mem=8GB
%Nproc=48
#p B3LYP/6-31G* opt pop=NPA

Template file

0 1
 C            4.12955991        0.01102539        0.03276318
 C            3.72234754       -0.85341528        1.12346884
 C            2.90502362       -1.91563570        0.56368609
 C            3.54593212       -0.51498829       -1.19046342
 C            2.66877946       -1.61704856       -0.83213285
 C            2.98084562        0.60729512       -1.90529633
 C            3.53482511        1.31711118        0.25944542
 C            2.98727863        1.75399636       -1.00574107
 C            2.86604475       -0.08056356        2.00762850
 C            2.63731271        1.21267565        1.39945741
 C            1.74771680       -2.05621360        1.41899385
 C            1.70924645       -0.89738708        2.30366043
 C            0.54291854       -2.45556634        0.85235339
 C            1.34838271       -1.62670286       -1.28586447
 C            0.38314895       -2.32175497       -0.53827694
 C            1.63447584        0.48045589       -2.42667146
 C            0.94174729       -0.71387912       -2.27474426
 C            1.64962563        2.30984130       -1.01328076
 C            0.93379894        1.71550663       -2.12631615
 C            1.32002517        1.66056020        1.27995200
 C            0.96242622        2.46385330        0.18365229
 C            0.47661341       -0.27585658        2.48923422
 C            0.31916663        1.04993889        2.05776745
 C           -0.57148152       -2.30834007        1.67034275
 C           -0.63463146       -1.11656994        2.49622553
 C           -1.89311760       -2.56997485        1.14376482
 C           -0.85862837       -2.57991259       -1.12241502
 C           -2.03386742       -2.74917622       -0.28369334
 C           -0.39005700       -0.69538571       -2.66658938
 C           -1.25942406       -1.77890770       -2.25946385
 C           -0.46123734        1.69713740       -2.07092164
 C           -1.12915448        0.55473707       -2.53347730
 C           -0.35125120        2.89663301        0.07127758
 C           -1.08267773        2.53128982       -1.13643258
 C           -0.94126048        1.64274575        2.12310332
 C           -1.24069319        2.71385958        1.19619342
 C           -1.97281038       -0.56495115        2.38073268
 C           -2.75680016       -1.47304489        1.55149483
 C           -2.12766619        0.80442452        2.22292415
 C           -3.05472161       -1.82309430       -0.75093830
 C           -2.57200998       -1.21895730       -1.97710542
 C           -2.46859925        0.22777160       -2.05652588
 C           -3.42384653       -0.96430932        0.36245895
 C           -2.46512774        2.29574522       -0.76211116
 C           -2.57981077        2.50883697        0.67130849
 C           -3.10094244        1.28954486        1.25824244
 C           -3.06367523        1.01440407       -1.07702812
 C           -3.51374993        0.41224620        0.17535764




