%chk=000033.chk
%mem=8GB
%Nproc=32
#p B3LYP/6-31G* opt pop=NPA

Template file

0 1
 C            2.69987181       -3.82670663        0.69257386
 C            3.34683284       -2.73814952        1.40004122
 C            2.48469466       -2.34853878        2.50619117
 C            1.48403850       -4.16230414        1.41707610
 C            1.27653139       -3.14323523        2.43019111
 C            0.38367103       -4.64747320        0.72862121
 C            0.38367103       -4.64747320       -0.72862121
 C            2.69987181       -3.82670663       -0.69257386
 C            1.48403850       -4.16230414       -1.41707610
 C            3.34683284       -2.73814952       -1.40004122
 C            4.03058107       -1.74398805        0.70182865
 C            4.03058107       -1.74398805       -0.70182865
 C            4.33414513       -0.57658667        1.40039161
 C            2.40228150       -1.00387515        2.84403758
 C            3.48539452       -0.19207220        2.51788235
 C            1.14846875       -0.41924626        3.05166289
 C            0.04138130       -2.51335498        2.52523454
 C           -0.02156681       -1.18445038        2.93709440
 C           -0.94300306       -4.23857053        1.15655073
 C           -1.09135390       -3.12509440        1.98533347
 C           -0.94300306       -4.23857053       -1.15655073
 C           -1.80586449       -4.37362692        0.00000000
 C           -1.09135390       -3.12509440       -1.98533347
 C            1.27653139       -3.14323523       -2.43019111
 C            2.48469466       -2.34853878       -2.50619117
 C            0.04138130       -2.51335498       -2.52523454
 C            2.40228150       -1.00387515       -2.84403758
 C            4.33414513       -0.57658667       -1.40039161
 C            3.48539452       -0.19207220       -2.51788235
 C            4.71583648        0.63114564        0.69236313
 C            4.71583648        0.63114564       -0.69236313
 C            3.31662175        1.24865384        2.47540539
 C            4.16580254        1.76588792        1.41795395
 C            1.05921137        0.96552731        3.20462286
 C            2.04843915        1.78108747        2.66644282
 C           -0.14297246        1.53673527        3.58451963
 C           -1.26776101       -0.59156622        3.13340991
 C           -1.33572197        0.71308775        3.61264042
 C           -2.31477265       -2.45126082        2.00053933
 C           -2.41303428       -1.20228964        2.61855684
 C           -3.00748505       -3.69372127        0.00000000
 C           -3.33987717       -2.88704957        1.15818919
 C           -2.31477265       -2.45126082       -2.00053933
 C           -3.33987717       -2.88704957       -1.15818919
 C           -2.41303428       -1.20228964       -2.61855684
 C           -0.02156681       -1.18445038       -2.93709440
 C            1.14846875       -0.41924626       -3.05166289
 C           -1.26776101       -0.59156622       -3.13340991
 C            1.05921137        0.96552731       -3.20462286
 C            3.31662175        1.24865384       -2.47540539
 C            4.16580254        1.76588792       -1.41795395
 C            2.04843915        1.78108747       -2.66644282
 C            3.76243889        2.89879779        0.72790728
 C            3.76243889        2.89879779       -0.72790728
 C            1.70010845        3.00043766        2.07505121
 C            2.56759880        3.60136305        1.16408640
 C           -0.50292065        2.82910653        3.03056180
 C            0.38675821        3.46900009        2.17379580
 C           -2.45814413        1.55717571        3.24384653
 C           -1.91150603        2.77578338        2.67481169
 C           -3.59396393       -0.46750213        2.50137841
 C           -3.55976895        0.97559933        2.64446058
 C           -4.36667134       -1.95365620        0.72838251
 C           -4.36667134       -1.95365620       -0.72838251
 C           -4.51561558       -0.76264402        1.42035187
 C           -3.59396393       -0.46750213       -2.50137841
 C           -4.51561558       -0.76264402       -1.42035187
 C           -3.55976895        0.97559933       -2.64446058
 C           -1.33572197        0.71308775       -3.61264042
 C           -0.14297246        1.53673527       -3.58451963
 C           -2.45814413        1.55717571       -3.24384653
 C           -0.50292065        2.82910653       -3.03056180
 C           -1.91150603        2.77578338       -2.67481169
 C            1.70010845        3.00043766       -2.07505121
 C            2.56759880        3.60136305       -1.16408640
 C            2.01702456        4.26839306       -0.00000000
 C            0.38675821        3.46900009       -2.17379580
 C           -0.12978208        4.28873081        1.17069797
 C            0.67334464        4.59940540       -0.00000000
 C           -0.12978208        4.28873081       -1.17069797
 C           -2.30743175        3.18876832        1.40438631
 C           -2.30743175        3.18876832       -1.40438631
 C           -1.50103350        4.09094626        0.72477255
 C           -1.50103350        4.09094626       -0.72477255
 C           -4.05486604        1.53884882        1.40091194
 C           -4.74819063        0.47684656        0.69298833
 C           -4.74819063        0.47684656       -0.69298833
 C           -4.05486604        1.53884882       -1.40091194
 C           -3.25926005        2.44586008        0.70117214
 C           -3.25926005        2.44586008       -0.70117214




