%chk=000041.chk
%mem=8GB
%Nproc=32
#p B3LYP/6-31G* opt pop=NPA

Template file

0 1
 C           -4.47124278       -0.44463373        0.27960866
 C           -4.45655174        0.74527303       -0.55966940
 C           -4.15510337        1.88636157        0.29211522
 C           -4.27738021       -0.02278727        1.65657166
 C           -3.92800821        1.38552221        1.63796093
 C           -3.61723585       -0.86625436        2.53147111
 C           -3.22805786       -2.18208760        2.06672162
 C           -3.87275037       -1.61315799       -0.18528682
 C           -3.16256448       -2.43382889        0.69616432
 C           -3.70013194       -1.76023586       -1.55319206
 C           -3.91601107        0.67470782       -1.84105617
 C           -3.64929553       -0.57494159       -2.39584996
 C           -3.28745097        1.79512045       -2.37882758
 C           -3.35531234        2.91889149       -0.18909453
 C           -3.04224300        2.96104009       -1.54335877
 C           -2.58439718        3.64694608        0.71339867
 C           -2.81855352        1.83657641        2.34522952
 C           -2.31954919        3.09137113        2.03215738
 C           -2.50734523       -0.34080693        3.31036425
 C           -2.00170986        0.91796470        3.00890630
 C           -2.15021770       -2.62280735        2.92923728
 C           -1.58968486       -1.43624473        3.55545903
 C           -1.29234889       -3.60331029        2.46770662
 C           -2.25123142       -3.38166552        0.20956174
 C           -1.44644151       -4.08516013        1.10620254
 C           -2.72312291       -2.70407078       -2.05384079
 C           -2.02061362       -3.50677848       -1.16449539
 C           -2.51729739       -0.72339706       -3.29680851
 C           -2.00038065       -2.06622270       -3.14382527
 C           -2.13115017        1.61541884       -3.24464454
 C           -1.63624381        0.33700049       -3.45068214
 C           -1.79331236        3.56578431       -1.98114393
 C           -1.21575388        2.70769555       -3.00477518
 C           -1.37666106        4.32132898        0.26161304
 C           -0.95214531        4.17664245       -1.05512200
 C           -0.96006229        3.42803858        2.39670257
 C           -0.40608266        4.26605585        1.34483222
 C           -0.63012868        1.16453774        3.14103323
 C           -0.14993744        2.46919336        2.98912599
 C           -0.22055774       -1.20917663        3.47982928
 C            0.26005914        0.10177575        3.37214834
 C            0.13063733       -3.47138548        2.72400571
 C            0.63658758       -2.29131316        3.26201603
 C           -0.15057928       -4.57798848        0.67422909
 C            0.84113215       -4.09499187        1.61937638
 C           -0.84113215       -4.09499187       -1.61937638
 C            0.15057928       -4.57798848       -0.67422909
 C           -0.63658758       -2.29131316       -3.26201603
 C           -0.13063733       -3.47138548       -2.72400571
 C           -0.26005914        0.10177575       -3.37214834
 C            0.22055774       -1.20917663       -3.47982928
 C            0.14993744        2.46919336       -2.98912599
 C            0.63012868        1.16453774       -3.14103323
 C            0.40608266        4.26605585       -1.34483222
 C            0.96006229        3.42803858       -2.39670257
 C            0.95214531        4.17664245        1.05512200
 C            1.37666106        4.32132898       -0.26161304
 C            1.21575388        2.70769555        3.00477518
 C            1.79331236        3.56578431        1.98114393
 C            1.63624381        0.33700049        3.45068214
 C            2.13115017        1.61541884        3.24464454
 C            2.00038065       -2.06622270        3.14382527
 C            2.51729739       -0.72339706        3.29680851
 C            2.02061362       -3.50677848        1.16449539
 C            2.72312291       -2.70407078        2.05384079
 C            1.44644151       -4.08516013       -1.10620254
 C            1.29234889       -3.60331029       -2.46770662
 C            2.25123142       -3.38166552       -0.20956174
 C            1.58968486       -1.43624473       -3.55545903
 C            2.15021770       -2.62280735       -2.92923728
 C            2.00170986        0.91796470       -3.00890630
 C            2.50734523       -0.34080693       -3.31036425
 C            2.31954919        3.09137113       -2.03215738
 C            2.58439718        3.64694608       -0.71339867
 C            2.81855352        1.83657641       -2.34522952
 C            3.04224300        2.96104009        1.54335877
 C            3.28745097        1.79512045        2.37882758
 C            3.35531234        2.91889149        0.18909453
 C            3.64929553       -0.57494159        2.39584996
 C            3.70013194       -1.76023586        1.55319206
 C            3.91601107        0.67470782        1.84105617
 C            3.16256448       -2.43382889       -0.69616432
 C            3.22805786       -2.18208760       -2.06672162
 C            3.61723585       -0.86625436       -2.53147111
 C            3.87275037       -1.61315799        0.18528682
 C            3.92800821        1.38552221       -1.63796093
 C            4.15510337        1.88636157       -0.29211522
 C            4.45655174        0.74527303        0.55966940
 C            4.27738021       -0.02278727       -1.65657166
 C            4.47124278       -0.44463373       -0.27960866




