%chk=000042.chk
%mem=8GB
%Nproc=32
#p B3LYP/6-31G* opt pop=NPA

Template file

0 1
 C            1.88957367       -4.07397973       -0.08630034
 C            3.01619661       -3.34752942       -0.65517290
 C            3.70370162       -2.66991784        0.43438526
 C            1.94852924       -3.92772799        1.35833227
 C            2.95839651       -2.92896499        1.65525757
 C            0.76966988       -3.92393983        2.08139383
 C           -0.47392452       -4.17069818        1.38090692
 C            0.66086557       -4.04912335       -0.74176454
 C           -0.52517816       -4.00407283       -0.00307471
 C            0.64315771       -3.73317719       -2.09166393
 C            2.87352802       -2.71072047       -1.88535796
 C            1.74810376       -2.97772221       -2.66193692
 C            3.60726992       -1.55567141       -2.14297747
 C            4.24744070       -1.40528264        0.22914427
 C            4.34794070       -0.91301544       -1.06752715
 C            4.32024194       -0.52254440        1.30381357
 C            2.65647652       -1.86464475        2.49830043
 C            3.50159670       -0.76622863        2.48212973
 C            0.52436963       -2.83794034        3.01680358
 C            1.36087343       -1.72857481        3.00232756
 C           -1.52818514       -3.62029421        2.20847253
 C           -0.91056611       -2.64751951        3.09557331
 C           -2.73879071       -3.31066756        1.61764313
 C           -1.72635108       -3.60796131       -0.60794286
 C           -2.86806400       -3.44104054        0.17709734
 C           -0.58066872       -3.25270479       -2.69699208
 C           -1.75045340       -3.21386825       -1.95026324
 C            1.18183263       -1.91657323       -3.48086824
 C           -0.24876047       -2.10907823       -3.53345847
 C            3.01898701       -0.50955119       -2.96570084
 C            1.69809355       -0.63517771       -3.37322747
 C            4.32024194        0.52254440       -1.30381357
 C            3.50159670        0.76622863       -2.48212973
 C            4.34794070        0.91301544        1.06752715
 C            4.24744070        1.40528264       -0.22914427
 C            3.01898701        0.50955119        2.96570084
 C            3.60726992        1.55567141        2.14297747
 C            0.83136401       -0.45545122        3.24555144
 C            1.69809355        0.63517771        3.37322747
 C           -1.42637485       -1.35846928        3.15458561
 C           -0.56034777       -0.27096077        3.32707398
 C           -3.41666969       -2.08685284        2.00452835
 C           -2.75868139       -1.14557089        2.79140553
 C           -3.90608453       -2.51828684       -0.24819593
 C           -4.19306584       -1.62845560        0.86327217
 C           -2.77560640       -2.39068467       -2.41168137
 C           -3.86187998       -2.00388146       -1.52917551
 C           -1.09286595       -1.00799803       -3.52379135
 C           -2.43065381       -1.23989546       -3.23158036
 C            0.83136401        0.45545122       -3.24555144
 C           -0.56034777        0.27096077       -3.32707398
 C            2.65647652        1.86464475       -2.49830043
 C            1.36087343        1.72857481       -3.00232756
 C            3.70370162        2.66991784       -0.43438526
 C            2.95839651        2.92896499       -1.65525757
 C            2.87352802        2.71072047        1.88535796
 C            3.01619661        3.34752942        0.65517290
 C            1.18183263        1.91657323        3.48086824
 C            1.74810376        2.97772221        2.66193692
 C           -1.09286595        1.00799803        3.52379135
 C           -0.24876047        2.10907823        3.53345847
 C           -3.28106353        0.13794290        2.83503690
 C           -2.43065381        1.23989546        3.23158036
 C           -4.33153652       -0.25717542        0.65166060
 C           -4.12243680        0.59123526        1.73775346
 C           -4.12243680       -0.59123526       -1.73775346
 C           -3.28106353       -0.13794290       -2.83503690
 C           -4.33153652        0.25717542       -0.65166060
 C           -1.42637485        1.35846928       -3.15458561
 C           -2.75868139        1.14557089       -2.79140553
 C            0.52436963        2.83794034       -3.01680358
 C           -0.91056611        2.64751951       -3.09557331
 C            1.94852924        3.92772799       -1.35833227
 C            1.88957367        4.07397973        0.08630034
 C            0.76966988        3.92393983       -2.08139383
 C            0.64315771        3.73317719        2.09166393
 C           -0.58066872        3.25270479        2.69699208
 C            0.66086557        4.04912335        0.74176454
 C           -2.77560640        2.39068467        2.41168137
 C           -3.86187998        2.00388146        1.52917551
 C           -1.75045340        3.21386825        1.95026324
 C           -4.19306584        1.62845560       -0.86327217
 C           -3.41666969        2.08685284       -2.00452835
 C           -3.90608453        2.51828684        0.24819593
 C           -1.52818514        3.62029421       -2.20847253
 C           -0.47392452        4.17069818       -1.38090692
 C           -0.52517816        4.00407283        0.00307471
 C           -1.72635108        3.60796131        0.60794286
 C           -2.73879071        3.31066756       -1.61764313
 C           -2.86806400        3.44104054       -0.17709734




