%chk=000007.chk
%mem=8GB
%Nproc=32
#p B3LYP/6-31G* opt pop=NPA

Template file

0 1
 C            3.34927927       -0.66715170       -0.29154831
 C            2.70896309       -1.91893897        0.07279050
 C            1.99256310       -1.70706066        1.31761931
 C            3.08116658        0.28865875        0.76719692
 C            2.06707414       -0.29084426        1.63637867
 C            2.79900923        1.54982146        0.11627505
 C            2.69019425       -0.15964597       -1.48494079
 C            2.44913990        1.24705205       -1.26912228
 C            1.70622217       -2.20587811       -0.93356628
 C            1.55879951       -1.02225076       -1.76392348
 C            0.68172855       -2.31101619        1.16894883
 C            0.52870037       -2.68906380       -0.23813434
 C           -0.38649577       -1.71070018        1.82739557
 C            0.88405055        0.41228885        1.89165528
 C           -0.28692140       -0.29851683        2.18190640
 C            1.73283139        2.37002568        0.65503444
 C            0.81719326        1.78308688        1.61935082
 C            1.11459270        1.76578271       -1.49172921
 C            0.91781961        2.78061241       -0.47148351
 C            0.27579376       -0.48862126       -1.92570057
 C            0.05634898        0.90110246       -1.80038185
 C           -0.69849085       -2.47772131       -0.85438812
 C           -0.79419437       -1.38396657       -1.81261814
 C           -1.73381426       -1.95462337        1.33992282
 C           -1.88664870       -2.41710571       -0.02469830
 C           -1.59392996        0.31023288        1.96365893
 C           -2.49731452       -0.72527462        1.48227823
 C           -0.47344054        2.40719939        1.37173946
 C           -0.42185405        2.99618516        0.03722510
 C           -1.67905295        1.60220789        1.45269123
 C           -1.24577695        1.40949346       -1.70136086
 C           -1.52692187        2.44263804       -0.71799405
 C           -2.44523483        1.85786664        0.24000013
 C           -2.16067305       -0.90329146       -1.79763322
 C           -2.84595211       -1.55187018       -0.69030221
 C           -3.23684019       -0.51433094        0.24870627
 C           -2.38914528        0.51688073       -1.68381239
 C           -3.10876879        0.75673742       -0.43743606




