%chk=000032.chk
%mem=8GB
%Nproc=32
#p B3LYP/6-31G* opt pop=NPA

Template file

0 1
 C            2.60008846       -1.80612069        1.06409718
 C            2.69898139       -0.47260312        1.62991211
 C            3.32055990        0.36850912        0.62977460
 C            2.74671519       -1.67335069       -0.37622072
 C            3.32055990       -0.36850912       -0.62977460
 C            1.46562800       -2.01939896       -0.97706378
 C            1.25773954       -2.29834547        1.32104183
 C            0.69029588       -2.70254824        0.05384156
 C            1.38668724       -0.11105526        2.14526360
 C            0.54211285       -1.29683058        2.08873797
 C            0.82317929        1.13485988        1.85811513
 C            2.74671519        1.67335069        0.37622072
 C            1.46562800        2.01939896        0.97706378
 C            2.69898139        0.47260312       -1.62991211
 C            2.60008846        1.80612069       -1.06409718
 C            0.82317929       -1.13485988       -1.85811513
 C            1.38668724        0.11105526       -2.14526360
 C           -0.54211285       -1.29683058       -2.08873797
 C           -0.69029588       -2.70254824       -0.05384156
 C           -1.25773954       -2.29834547       -1.32104183
 C           -0.82317929       -1.13485988        1.85811513
 C           -1.46562800       -2.01939896        0.97706378
 C           -0.54211285        1.29683058        2.08873797
 C           -1.38668724        0.11105526        2.14526360
 C           -1.25773954        2.29834547        1.32104183
 C            0.69029588        2.70254824       -0.05384156
 C            1.25773954        2.29834547       -1.32104183
 C            0.54211285        1.29683058       -2.08873797
 C           -0.69029588        2.70254824        0.05384156
 C           -1.38668724       -0.11105526       -2.14526360
 C           -0.82317929        1.13485988       -1.85811513
 C           -1.46562800        2.01939896       -0.97706378
 C           -2.60008846       -1.80612069       -1.06409718
 C           -2.74671519       -1.67335069        0.37622072
 C           -2.69898139       -0.47260312       -1.62991211
 C           -2.69898139        0.47260312        1.62991211
 C           -2.60008846        1.80612069        1.06409718
 C           -2.74671519        1.67335069       -0.37622072
 C           -3.32055990       -0.36850912        0.62977460
 C           -3.32055990        0.36850912       -0.62977460




