%chk=000010.chk
%mem=8GB
%Nproc=32
#p B3LYP/6-31G* opt pop=NPA

Template file

0 1
 C            3.58909827       -0.30083020        0.30117568
 C            3.09643707       -1.61695047       -0.06701847
 C            2.37658944       -1.48958814       -1.32082576
 C            3.20684150        0.62602558       -0.74954332
 C            2.31118547       -0.07634247       -1.65672618
 C            2.73702044        1.82647646       -0.09340584
 C            2.88977047        0.11794013        1.50576447
 C            2.46657597        1.48212354        1.29911243
 C            2.12335248       -2.01818310        0.92997087
 C            1.88191237       -0.88080970        1.80484208
 C            1.12919898       -2.22301847       -1.18383731
 C            0.98774229       -2.58738605        0.22370355
 C            0.01985992       -1.74941463       -1.87533449
 C            1.07008625        0.47370296       -1.99260217
 C            0.05202258       -0.39028715       -2.39950291
 C            1.55207788        2.47419901       -0.61814180
 C            0.75152247        1.78497447       -1.61613342
 C            1.08501382        1.82591622        1.56590707
 C            0.67564097        2.73109275        0.50942801
 C            0.55652991       -0.50568681        2.04470215
 C            0.17529802        0.85295510        1.99061677
 C           -0.25857183       -2.47299746        0.82708675
 C           -0.40722561       -1.50860496        1.90457691
 C           -1.31089249       -1.96720936       -1.33193589
 C           -1.44723560       -2.34962907        0.00098400
 C           -1.31984887        0.08701539       -2.46980567
 C           -2.17630242       -0.94290824       -1.90104775
 C           -0.63390752        2.14874636       -1.34396051
 C           -0.69179770        2.63934895        0.03215321
 C           -1.66045203        1.34954803       -1.84100313
 C           -1.18055098        1.19864630        1.94308224
 C           -1.63789356        2.10761443        0.89865620
 C           -1.81780719       -1.19809905        2.01522526
 C           -2.47858765       -1.75323083        0.84088554
 C           -2.20245860        0.18699742        2.12877986
 C           -3.16983668       -0.28610854       -1.06981060
 C           -2.85923531        1.13574371       -1.04245271
 C           -2.86213792        1.56459047        0.34339915
 C           -3.35642881       -0.73063038        0.29909754
 C           -3.26260579        0.43425779        1.16393819




