%chk=000040.chk
%mem=8GB
%Nproc=32
#p B3LYP/6-31G* opt pop=NPA

Template file

0 1
 C            2.85054732        0.71873448       -0.54646030
 C            2.72075719       -0.06339720        0.67420715
 C            2.39320884       -1.43089166        0.29358932
 C            2.70766568       -0.18191485       -1.67654754
 C            2.32313434       -1.48318265       -1.15932489
 C            1.61486711        0.30835870       -2.49758629
 C            1.96312060        1.85302249       -0.75733699
 C            1.19570487        1.59815977       -1.96907831
 C            1.34757388        2.43416056        0.34641185
 C            2.10521047        0.51774087        1.77795598
 C            1.61612284        1.88415545        1.66701031
 C            1.13300768       -0.24113491        2.55328058
 C            1.46490336       -2.15550236        1.03390613
 C            0.82024893       -1.54688368        2.18984857
 C            0.46149986       -2.93632529        0.32531498
 C            1.07139626       -1.86987243       -1.79353877
 C            0.63152888       -0.75724070       -2.62466226
 C            0.14309078       -2.59448313       -1.05322195
 C           -0.71678290       -0.41945769       -2.67794169
 C           -0.15260691        1.93594279       -2.02235774
 C           -1.08905285        0.98575265       -2.60443348
 C           -0.06449628        2.78791652        0.29061296
 C           -0.79726134        2.54456146       -0.86641531
 C            0.40254778        1.99434849        2.45680432
 C            0.05069787        0.66222612        2.91542526
 C           -0.65756937        2.45376748        1.57716385
 C           -1.29917091        0.36818159        2.45717143
 C           -1.73903829        1.48081332        1.62604794
 C           -0.57651213       -1.95633748        2.18659452
 C           -0.76868061       -2.89545881        1.09581317
 C           -1.61192966       -0.93756718        2.09373942
 C           -1.26897938       -2.24072718       -1.10902084
 C           -1.68898568       -1.17833346       -1.90261709
 C           -1.81219235       -2.36671325        0.23546852
 C           -2.37934539       -1.19242990        0.88199810
 C           -2.34153285        1.08302516       -1.87606996
 C           -2.12706484        1.96574046       -0.74315394
 C           -2.47180334        1.23745827        0.46901968
 C           -2.65447782       -0.23617667       -1.35601853
 C           -2.79935169       -0.13003618        0.08840185




