%chk=000004.chk
%mem=8GB
%Nproc=32
#p B3LYP/6-31G* opt pop=NPA

Template file

0 1
 C            3.33778058       -0.42358740       -1.18504818
 C            3.58274002        0.79891716       -0.44034296
 C            3.43294990        0.50095570        0.97552463
 C            3.01705443       -1.46903669       -0.22944515
 C            3.01707737       -0.88433280        1.09812993
 C            1.80161618       -2.11583319       -0.68182529
 C            2.16057892       -0.21755585       -2.01470701
 C            1.25710934       -1.32048827       -1.77922800
 C            2.54357503        1.74712607       -0.79875882
 C            1.66760400        1.12146557       -1.78222223
 C            2.35516308        1.32885264        1.48978934
 C            1.94914193        2.24072040        0.43352157
 C            1.78051919       -0.91828261        1.86593362
 C            1.34501172        0.45589733        2.07524755
 C            0.91354442       -2.58625900        0.27743442
 C            0.82711028       -1.87839765        1.55556845
 C           -0.44727272       -2.84304168       -0.15308822
 C           -0.11736254       -1.08674017       -1.80728575
 C           -0.93029817       -2.10278397       -1.30013952
 C            0.29495166        1.32052809       -1.64957312
 C           -0.59205116        0.24106742       -1.83589102
 C            0.61430872        2.60957810        0.38925379
 C           -0.10040763        2.39378798       -0.85194226
 C           -0.00191690        0.79581437        1.90893703
 C           -0.27982473        2.06531485        1.39299696
 C           -0.57199998       -1.55887642        1.77047097
 C           -1.32131718       -2.49140272        0.94811605
 C           -0.97267125       -0.22024770        1.83441012
 C           -2.33896962       -1.86462768       -1.06650695
 C           -2.57286775       -2.05336991        0.36337500
 C           -1.97217895        0.48618966       -1.80144562
 C           -2.88884239       -0.58058483       -1.43602661
 C           -1.50138534        2.56922176       -0.52790274
 C           -1.61347718        2.38117336        0.91645693
 C           -2.46283729        1.69197326       -1.15518762
 C           -2.31802399        0.09935341        1.60240936
 C           -3.16131532       -0.82878617        0.86124617
 C           -3.67105140       -0.12177678       -0.29987418
 C           -2.67436152        1.42998210        1.14844921
 C           -3.38740376        1.28809226       -0.11082987




