%chk=000875.chk
%mem=8GB
%Nproc=32
#p B3LYP/6-31G* opt pop=NPA

Template file

0 1
c 1.929 -0.144 -2.156
c 2.656 0.911 -1.516
c 3.336 0.685 -0.338
c 2.781 1.572 0.660
c 2.349 1.088 1.900
c 0.909 1.288 2.206
c 0.205 0.165 2.777
c -1.167 -0.033 2.411
c -1.498 -1.379 2.011
c -2.381 -1.620 1.000
c -1.682 -2.352 -0.012
c -1.747 -1.935 -1.348
c -0.463 -1.712 -1.981
c -0.405 -0.544 -2.793
c 0.735 0.255 -2.789
c 0.279 1.611 -2.781
c 0.905 2.498 -1.921
c 0.143 3.117 -0.893
c 0.795 2.861 0.329
c 0.130 2.255 1.440
c 2.008 -1.441 -1.555
c 0.763 -2.187 -1.357
c 0.664 -2.959 -0.126
c -0.549 -2.818 0.560
c -0.548 -2.344 1.916
c 0.574 -2.278 2.603
c 0.981 -0.994 3.102
c 2.357 -1.027 3.030
c 3.030 -0.062 2.318
c 3.819 -0.806 1.359
c 3.704 -0.531 0.018
c 3.068 -1.658 -0.623
c 2.999 -2.617 0.361
c 1.783 -3.173 0.700
c 1.671 -2.937 2.117
c 2.753 -2.274 2.542
c 3.581 -2.112 1.524
c -1.303 2.163 1.316
c -1.973 0.988 1.834
c -3.199 0.587 1.178
c -3.314 -0.750 0.686
c -3.741 -0.704 -0.625
c -2.879 -1.137 -1.667
c -2.787 -0.034 -2.539
c -1.530 0.297 -3.007
c -1.084 1.639 -2.896
c -1.833 2.555 -2.107
c -1.185 3.118 -0.971
c -1.939 2.811 0.177
c -3.160 2.411 -0.309
c -3.809 1.355 0.208
c -4.154 0.533 -0.865
c -3.612 0.990 -2.011
c -3.072 2.221 -1.714
c 2.060 2.136 -1.368
c 2.047 2.451 -0.015




