%chk=000728.chk
%mem=8GB
%Nproc=16
#p B3LYP/6-31G* opt pop=NPA

Template file

0 1
c 2.910 1.213 0.120
c 3.047 0.624 -1.129
c 2.407 1.031 -2.256
c 1.789 -0.122 -2.840
c 0.584 -0.012 -3.548
c -0.354 -1.050 -3.281
c -1.712 -0.739 -3.240
c -2.250 -1.302 -2.120
c -2.946 -0.325 -1.389
c -2.789 -0.302 -0.021
c -2.449 0.970 0.621
c -1.961 0.891 1.951
c -0.806 1.667 2.268
c 0.204 1.159 3.122
c 1.421 1.356 2.452
c 2.340 0.267 2.307
c 2.942 0.177 1.067
c 2.867 -1.051 0.333
c 2.913 -0.724 -0.984
c 2.050 -1.201 -1.938
c 2.008 2.289 0.254
c 1.201 2.249 1.400
c -0.208 2.455 1.304
c -0.821 2.767 0.097
c -2.057 2.069 -0.238
c -2.411 2.008 -1.615
c -2.869 0.815 -2.143
c -2.174 0.534 -3.333
c -1.332 1.538 -3.579
c 0.046 1.320 -3.714
c 0.631 2.366 -2.993
c 1.724 2.221 -2.209
c 1.423 2.781 -0.923
c 0.056 3.145 -0.959
c -0.353 3.021 -2.261
c -1.542 2.508 -2.591
c 1.064 -2.125 -1.530
c -0.137 -2.002 -2.229
c -1.359 -2.146 -1.530
c -1.405 -2.364 -0.179
c -2.323 -1.502 0.583
c -2.213 -1.537 1.933
c -2.065 -0.316 2.664
c -1.228 -0.623 3.740
c -0.007 0.045 3.894
c 0.986 -0.963 3.890
c 1.999 -0.926 2.945
c 1.857 -2.137 2.150
c 2.080 -2.100 0.778
c 1.036 -2.564 -0.141
c -0.245 -2.883 0.466
c -0.330 -3.055 1.849
c -1.418 -2.482 2.550
c -0.961 -1.963 3.716
c 0.356 -2.162 3.797
c 0.782 -2.809 2.666




