%chk=000730.chk
%mem=8GB
%Nproc=16
#p B3LYP/6-31G* opt pop=NPA

Template file

0 1
c 1.772 -2.894 -1.335
c 1.819 -3.479 -0.066
c 0.613 -3.615 0.411
c 0.506 -2.871 1.633
c -0.672 -2.189 1.893
c -0.658 -0.799 2.384
c -1.870 0.008 2.188
c -1.777 1.444 1.979
c -2.800 2.070 1.121
c -2.421 2.987 0.161
c -2.743 2.492 -1.131
c -1.575 2.403 -1.883
c -1.102 1.137 -2.403
c 0.350 0.918 -2.406
c 0.890 -0.430 -2.400
c 2.297 -0.642 -1.964
c 2.646 -1.873 -1.349
c 3.281 -1.900 -0.022
c 2.570 -2.759 0.748
c 1.750 -2.291 1.832
c 0.458 -2.749 -1.691
c -0.051 -1.543 -2.277
c -1.463 -1.299 -2.118
c -2.019 0.020 -2.254
c -3.297 0.280 -1.562
c -3.536 1.492 -0.970
c -3.712 1.302 0.446
c -3.819 0.038 0.656
c -2.997 -0.641 1.552
c -2.811 -1.848 0.942
c -1.720 -2.559 1.027
c -1.442 -2.987 -0.330
c -0.258 -3.394 -0.629
c -2.153 -2.185 -1.185
c -3.181 -1.743 -0.426
c -3.751 -0.608 -0.607
c 1.867 -0.963 2.265
c 0.639 -0.159 2.510
c 0.708 1.290 2.325
c -0.471 2.045 1.978
c -0.268 3.119 1.010
c -1.222 3.441 0.108
c -0.709 3.205 -1.197
c 0.577 2.999 -1.110
c 1.208 1.982 -1.854
c 2.494 1.714 -1.416
c 3.044 0.443 -1.485
c 3.822 0.295 -0.285
c 3.673 -0.781 0.525
c 3.022 -0.313 1.759
c 3.066 1.029 1.685
c 1.960 1.817 1.866
c 2.000 2.723 0.755
c 0.897 3.197 0.290
c 2.917 2.255 -0.155
c 3.650 1.371 0.462




