%chk=000129.chk
%mem=8GB
%Nproc=16
#p B3LYP/6-31G* opt pop=NPA

Template file

0 1
c -1.596 -0.628 -2.649
c -2.321 -1.069 -1.532
c -2.661 -0.080 -0.510
c -2.828 -0.572 0.807
c -2.442 0.193 1.932
c -1.945 -0.710 2.870
c -0.714 -0.521 3.434
c 0.057 -1.627 3.174
c 1.277 -1.198 2.625
c 1.815 -1.830 1.495
c 2.474 -0.989 0.496
c 2.471 -1.475 -0.834
c 2.371 -0.596 -1.938
c 1.602 -1.254 -2.895
c 0.511 -0.646 -3.449
c -0.591 -1.431 -3.213
c -1.130 0.683 -2.718
c 0.236 0.630 -3.169
c 1.192 1.438 -2.569
c 2.250 0.777 -1.773
c 2.591 1.341 -0.508
c 2.544 0.455 0.668
c 1.993 1.024 1.886
c 1.282 0.192 2.729
c -0.023 0.593 3.184
c -0.646 1.692 2.610
c -1.862 1.448 1.801
c -1.986 2.126 0.553
c -2.237 1.307 -0.645
c -1.520 1.686 -1.851
c -0.669 2.797 -1.818
c 0.742 2.638 -2.159
c 1.453 3.374 -1.271
c 2.311 2.717 -0.346
c 1.910 3.217 0.891
c 1.569 2.359 1.885
c 0.186 2.678 2.228
c -0.230 3.633 1.361
c -1.256 3.330 0.425
c -0.704 3.695 -0.802
c 0.582 4.161 -0.586
c 0.859 4.096 0.693
c -2.602 -1.941 1.138
c -1.992 -1.967 2.382
c -0.729 -2.589 2.597
c -0.201 -3.317 1.591
c 1.101 -3.010 1.066
c 1.079 -3.377 -0.271
c 1.796 -2.678 -1.198
c 1.219 -2.465 -2.440
c -0.179 -2.616 -2.665
c -0.927 -3.149 -1.675
c -2.051 -2.432 -1.137
c -2.160 -2.817 0.191
c -1.010 -3.590 0.498
c -0.263 -3.706 -0.592




