%chk=000434.chk
%mem=8GB
%Nproc=32
#p B3LYP/6-31G* opt pop=NPA

Template file

0 1
c -1.788 -2.565 -2.597
c -0.392 -2.460 -2.560
c 0.347 -2.744 -1.361
c 1.588 -2.026 -1.124
c 2.148 -1.890 0.211
c 3.008 -0.794 0.516
c 3.033 -0.140 1.788
c 3.373 1.194 1.554
c 2.696 2.227 2.128
c 2.202 3.042 1.113
c 0.856 3.299 1.370
c -0.049 3.188 0.344
c -1.298 2.534 0.527
c -1.745 2.116 -0.715
c -2.673 1.089 -0.894
c -2.705 0.504 -2.193
c -3.164 -0.791 -2.373
c -2.298 -1.448 -3.213
c -2.486 -2.715 -1.449
c -3.342 -1.589 -1.298
c -3.240 -1.125 -0.019
c -2.966 0.258 0.270
c -2.345 0.575 1.540
c -1.579 1.780 1.701
c -0.564 1.850 2.709
c 0.553 2.647 2.554
c 1.685 1.966 2.990
c 1.329 0.685 3.325
c 2.054 -0.442 2.757
c 1.309 -1.585 2.513
c 1.369 -2.332 1.282
c 0.106 -2.906 1.055
c -0.441 -3.120 -0.204
c -1.875 -2.954 -0.281
c -2.537 -2.119 0.672
c -1.946 -1.840 1.824
c -1.914 -0.535 2.341
c -0.763 -0.468 3.148
c -0.095 0.679 3.338
c -0.017 -1.615 2.887
c -0.712 -2.407 2.070
c 3.250 0.211 -0.444
c 3.403 1.410 0.207
c 2.628 2.547 -0.113
c 1.735 2.466 -1.191
c 0.390 2.897 -0.960
c -0.678 2.327 -1.644
c -0.502 1.452 -2.715
c -1.565 0.640 -3.060
c -1.317 -0.642 -3.574
c -0.104 -1.282 -3.302
c 0.947 -0.518 -2.960
c 1.875 -0.943 -2.023
c 2.568 0.184 -1.615
c 1.845 1.342 -2.039
c 0.802 0.888 -2.814




