%chk=000507.chk
%mem=8GB
%Nproc=48
#p B3LYP/6-31G* opt pop=NPA

Template file

0 1
c -2.206 2.649 -1.047
c -2.767 2.271 0.170
c -2.050 2.446 1.360
c -2.169 1.247 2.143
c -1.094 0.690 2.879
c -0.917 -0.746 2.856
c 0.402 -1.238 3.090
c 0.801 -2.435 2.550
c 2.054 -2.309 1.965
c 2.040 -2.908 0.706
c 2.577 -2.230 -0.399
c 1.861 -2.357 -1.612
c 1.869 -1.331 -2.520
c 0.650 -1.219 -3.112
c 0.373 0.094 -3.347
c -0.918 0.493 -3.257
c -1.163 1.758 -2.809
c -2.323 1.772 -2.109
c -0.881 3.163 -1.097
c -0.204 2.552 -2.172
c 1.142 2.086 -2.067
c 1.423 0.869 -2.754
c 2.358 -0.059 -2.261
c 2.996 0.145 -1.065
c 3.149 -0.930 -0.145
c 3.120 -0.361 1.139
c 2.512 -1.051 2.194
c 1.534 -0.395 2.995
c 1.364 0.947 2.891
c 0.076 1.500 2.928
c 0.142 2.658 2.155
c -0.836 3.095 1.321
c -0.207 3.395 0.072
c 1.157 3.050 0.178
c 1.846 2.332 -0.837
c 2.777 1.333 -0.366
c 2.909 1.013 1.007
c 2.129 1.677 1.937
c 1.350 2.703 1.508
c 0.021 -3.143 1.710
c 0.762 -3.483 0.602
c -0.032 -3.371 -0.507
c 0.524 -2.889 -1.654
c -0.245 -2.108 -2.524
c -1.555 -1.663 -2.191
c -1.913 -0.374 -2.688
c -2.801 0.455 -1.998
c -3.306 0.066 -0.779
c -3.346 1.011 0.243
c -2.984 0.416 1.414
c -2.730 -0.915 1.205
c -1.767 -1.560 1.958
c -1.213 -2.698 1.332
c -1.301 -2.897 -0.085
c -2.087 -2.065 -0.901
c -2.907 -1.151 -0.205




