%chk=000727.chk
%mem=8GB
%Nproc=16
#p B3LYP/6-31G* opt pop=NPA

Template file

0 1
c 2.638 1.101 -1.896
c 3.074 -0.124 -1.423
c 2.547 -1.317 -1.781
c 2.269 -2.050 -0.573
c 1.180 -2.929 -0.490
c 0.437 -2.929 0.755
c -0.986 -3.159 0.635
c -1.887 -2.440 1.402
c -2.768 -1.715 0.510
c -2.974 -0.321 0.652
c -2.669 0.528 -0.502
c -2.157 1.852 -0.232
c -1.357 2.453 -1.246
c -0.359 3.351 -0.911
c 0.788 3.076 -1.618
c 1.873 3.042 -0.726
c 2.731 1.988 -0.809
c 3.002 1.205 0.373
c 3.199 -0.069 -0.063
c 2.648 -1.211 0.503
c 1.513 1.123 -2.791
c 0.533 2.091 -2.521
c -0.859 1.731 -2.347
c -1.319 0.479 -2.657
c -2.323 -0.123 -1.780
c -2.411 -1.544 -1.844
c -2.581 -2.261 -0.684
c -1.575 -3.245 -0.592
c -0.902 -3.257 -1.718
c 0.468 -3.132 -1.733
c 0.714 -2.285 -2.821
c 1.657 -1.336 -2.824
c 1.039 -0.104 -3.230
c -0.356 -0.366 -3.313
c -0.492 -1.718 -3.237
c -1.476 -2.288 -2.563
c 1.933 -1.114 1.692
c 0.858 -2.085 1.871
c -0.122 -1.740 2.826
c -1.520 -1.882 2.530
c -2.153 -0.718 2.903
c -2.753 0.151 1.947
c -2.205 1.421 2.190
c -1.874 2.269 1.152
c -0.689 3.051 1.391
c -0.018 3.594 0.368
c 1.350 3.357 0.505
c 1.548 2.602 1.645
c 2.339 1.409 1.592
c 1.874 0.233 2.322
c 0.839 0.447 3.236
c -0.034 -0.566 3.544
c -1.298 -0.021 3.630
c -1.288 1.251 3.268
c 0.029 1.642 3.173
c 0.324 2.601 2.309




