%chk=000283.chk
%mem=8GB
%Nproc=32
#p B3LYP/6-31G* opt pop=NPA

Template file

0 1
c -3.097 0.483 -0.163
c -2.584 1.783 0.192
c -1.656 2.388 -0.735
c -0.436 2.901 -0.202
c 0.798 2.717 -0.864
c 1.753 2.363 0.127
c 2.763 1.421 -0.142
c 3.031 0.500 0.899
c 3.217 -0.837 0.568
c 2.539 -1.615 1.439
c 1.815 -2.561 0.721
c 0.540 -2.818 1.138
c -0.494 -2.901 0.189
c -1.652 -2.463 0.846
c -2.586 -1.704 0.153
c -3.155 -0.570 0.772
c -2.791 -0.079 -1.380
c -2.385 -1.437 -1.182
c -1.318 -2.006 -1.943
c -0.263 -2.689 -1.208
c 1.121 -2.527 -1.646
c 2.111 -2.389 -0.634
c 3.076 -1.326 -0.696
c 3.064 -0.450 -1.732
c 2.854 0.950 -1.473
c 2.003 1.423 -2.494
c 0.879 2.249 -2.178
c -0.366 1.917 -2.794
c -1.560 1.878 -2.033
c -2.206 0.655 -2.361
c -1.454 0.016 -3.288
c -0.975 -1.306 -3.111
c 0.326 -1.270 -3.553
c 1.367 -1.799 -2.830
c 2.357 -0.778 -2.832
c 1.840 0.359 -3.391
c 0.645 0.052 -3.919
c -0.422 0.829 -3.668
c -0.197 2.884 1.166
c 1.129 2.438 1.380
c 1.429 1.521 2.442
c 2.323 0.508 2.121
c 2.010 -0.854 2.450
c 0.793 -1.207 3.029
c 0.043 -2.230 2.324
c -1.345 -2.128 2.181
c -2.039 -1.125 2.840
c -2.963 -0.320 2.104
c -2.749 0.995 2.488
c -2.406 1.994 1.565
c -1.187 2.555 2.051
c -0.838 1.858 3.203
c 0.384 1.199 3.319
c 0.063 -0.180 3.617
c -1.327 -0.256 3.658
c -1.822 0.986 3.470




