%chk=000056.chk
%mem=8GB
%Nproc=32
#p B3LYP/6-31G* opt pop=NPA

Template file

0 1
c -0.253 -2.807 1.019
c -0.802 -2.061 2.056
c -2.022 -1.390 1.813
c -1.851 -0.071 2.206
c -2.250 1.001 1.344
c -1.242 2.038 1.173
c -0.972 2.498 -0.142
c 0.418 2.517 -0.587
c 0.699 1.800 -1.823
c 1.751 0.871 -1.834
c 1.423 -0.525 -2.124
c 2.007 -1.498 -1.231
c 1.137 -2.436 -0.697
c 1.085 -2.625 0.720
c -0.977 -2.958 -0.159
c -0.115 -2.658 -1.243
c -0.591 -1.966 -2.383
c 0.198 -0.808 -2.797
c -0.531 0.301 -3.293
c -0.323 1.577 -2.683
c -1.578 2.090 -2.413
c -1.956 2.319 -1.093
c -3.117 1.517 -0.877
c -3.176 0.715 0.293
c -3.511 -0.676 0.065
c -2.799 -1.676 0.733
c -2.298 -2.578 -0.243
c -2.811 -2.198 -1.432
c -2.012 -1.922 -2.556
c -2.622 -0.843 -3.164
c -1.894 0.224 -3.566
c -2.493 1.342 -3.019
c -3.468 0.986 -2.145
c -3.654 -0.354 -2.310
c -3.694 -1.147 -1.238
c 0.015 -1.263 2.824
c -0.685 -0.024 2.954
c 0.034 1.117 3.049
c -0.177 2.120 2.073
c 1.104 2.588 1.715
c 1.461 2.667 0.338
c 2.747 2.142 0.002
c 2.826 1.160 -1.033
c 3.614 0.134 -0.538
c 3.080 -1.133 -0.427
c 3.139 -1.454 0.982
c 1.993 -1.997 1.591
c 1.436 -1.294 2.748
c 2.118 -0.139 3.214
c 1.368 1.052 3.317
c 2.014 2.052 2.635
c 3.240 1.615 2.293
c 3.653 1.730 1.000
c 4.136 0.508 0.635
c 3.852 -0.429 1.596
c 3.325 0.245 2.660




