%chk=000492.chk
%mem=8GB
%Nproc=16
#p B3LYP/6-31G* opt pop=NPA

Template file

0 1
c 1.564 -2.848 1.797
c 0.451 -3.286 1.023
c 0.380 -2.983 -0.354
c -0.859 -2.448 -0.905
c -0.836 -1.783 -2.181
c -1.940 -0.971 -2.525
c -1.817 0.075 -3.449
c -2.506 1.152 -2.981
c -1.680 2.245 -2.870
c -1.734 2.695 -1.570
c -0.552 3.056 -0.881
c -0.650 3.017 0.499
c 0.462 2.859 1.288
c 0.146 2.201 2.439
c 1.157 1.332 2.802
c 0.837 0.104 3.406
c 1.681 -0.991 3.078
c 1.126 -2.276 2.958
c 2.548 -2.092 1.272
c 2.632 -0.876 2.036
c 2.892 0.362 1.373
c 2.141 1.461 1.778
c 1.668 2.428 0.820
c 1.850 2.323 -0.571
c 0.753 2.703 -1.464
c 0.700 2.075 -2.748
c -0.489 1.890 -3.410
c -0.587 0.532 -3.803
c 0.525 -0.115 -3.434
c 0.451 -1.379 -2.751
c 1.597 -1.743 -2.071
c 1.585 -2.523 -0.923
c 2.655 -2.050 -0.077
c 3.140 -0.923 -0.653
c 3.185 0.311 -0.004
c 2.690 1.257 -0.950
c 2.432 0.552 -2.145
c 1.428 0.898 -2.963
c 2.602 -0.776 -1.872
c -2.810 -0.478 -1.504
c -3.050 0.867 -1.802
c -2.711 1.862 -0.900
c -2.612 1.551 0.432
c -1.696 2.313 1.175
c -1.189 1.857 2.399
c -1.539 0.640 2.894
c -0.579 -0.185 3.529
c -1.028 -1.479 3.334
c -0.201 -2.492 3.041
c -0.629 -3.072 1.833
c -1.756 -2.414 1.389
c -1.915 -2.064 0.049
c -2.694 -0.883 -0.206
c -2.787 0.167 0.825
c -2.398 -0.187 2.113
c -2.035 -1.465 2.385




