%chk=000546.chk
%mem=8GB
%Nproc=16
#p B3LYP/6-31G* opt pop=NPA

Template file

0 1
c -1.491 1.108 -3.361
c -0.825 2.050 -2.515
c 0.629 1.897 -2.218
c 1.203 2.352 -0.960
c 2.310 1.637 -0.307
c 2.516 1.784 1.108
c 3.083 0.775 1.933
c 2.389 0.796 3.165
c 1.868 -0.349 3.732
c 0.481 -0.189 3.793
c -0.139 -1.292 3.200
c -1.212 -1.120 2.312
c -1.276 -2.024 1.172
c -2.245 -1.805 0.227
c -2.109 -2.212 -1.125
c -2.973 -1.409 -1.867
c -2.614 -0.861 -3.065
c -2.711 0.527 -2.943
c -0.773 0.055 -3.881
c -1.430 -1.158 -3.598
c -0.531 -2.010 -2.946
c -0.834 -2.566 -1.650
c 0.221 -2.705 -0.703
c -0.074 -2.701 0.716
c 0.989 -2.736 1.613
c 0.904 -2.151 2.861
c 2.125 -1.542 3.179
c 2.915 -1.621 2.066
c 3.367 -0.467 1.384
c 3.102 -0.668 0.032
c 2.712 0.374 -0.852
c 2.105 -0.034 -2.019
c 1.243 0.765 -2.783
c 0.518 -0.101 -3.582
c 0.695 -1.394 -3.107
c 1.645 -1.388 -2.170
c 1.553 -2.211 -1.072
c 2.470 -1.957 -0.090
c 2.278 -2.418 1.162
c 1.520 2.404 1.892
c 1.389 1.696 3.063
c 0.152 1.088 3.431
c -0.974 1.337 2.659
c -1.780 0.216 2.168
c -2.695 0.445 1.088
c -3.029 -0.624 0.247
c -3.445 -0.413 -1.059
c -3.283 0.813 -1.722
c -2.782 1.826 -0.993
c -1.617 2.533 -1.462
c -1.027 3.021 -0.358
c 0.313 3.008 -0.083
c 0.413 2.870 1.304
c -0.863 2.442 1.794
c -1.713 2.599 0.776
c -2.663 1.712 0.414




