%chk=000636.chk
%mem=8GB
%Nproc=32
#p B3LYP/6-31G* opt pop=NPA

Template file

0 1
c -3.756 -1.833 0.116
c -3.264 -1.734 -1.158
c -2.185 -2.454 -1.481
c -1.333 -1.974 -2.428
c -0.095 -2.445 -2.216
c 0.840 -1.525 -2.599
c 2.063 -1.467 -1.969
c 2.750 -0.270 -2.047
c 3.697 0.050 -1.104
c 3.740 1.395 -0.919
c 3.921 1.630 0.429
c 3.135 2.514 1.057
c 2.497 1.856 2.119
c 1.182 2.237 2.159
c 0.168 1.343 2.442
c -1.108 1.669 1.933
c -2.140 0.872 2.252
c -3.313 0.925 1.542
c -3.917 -0.278 1.630
c -4.323 -0.651 0.426
c -2.880 -2.216 1.192
c -3.010 -1.193 2.124
c -1.899 -0.504 2.578
c -0.600 -1.007 2.480
c 0.491 -0.075 2.602
c 1.836 -0.472 2.284
c 2.850 0.517 2.122
c 3.803 0.405 1.088
c 3.721 -0.594 0.152
c 2.836 -1.623 0.351
c 2.144 -2.180 -0.711
c 1.020 -2.830 -0.194
c -0.070 -3.077 -0.974
c -1.359 -3.032 -0.457
c -1.600 -2.715 0.910
c -0.450 -2.200 1.661
c 0.841 -2.410 1.140
c 1.946 -1.621 1.466
c -3.296 1.332 0.181
c -3.931 0.301 -0.504
c -3.290 -0.325 -1.537
c -2.158 0.270 -2.172
c -1.252 -0.617 -2.767
c 0.109 -0.331 -2.918
c 0.649 0.911 -2.619
c 2.053 0.946 -2.368
c 2.669 1.971 -1.642
c 1.857 2.889 -0.990
c 2.160 3.184 0.354
c 1.008 3.100 1.059
c -0.065 2.973 0.219
c -1.201 2.369 0.644
c -2.133 1.914 -0.322
c -1.586 1.476 -1.607
c -0.218 1.847 -1.930
c 0.446 2.759 -1.081




