%chk=000617.chk
%mem=8GB
%Nproc=32
#p B3LYP/6-31G* opt pop=NPA

Template file

0 1
c 1.037 1.867 -3.844
c 1.885 1.925 -2.719
c 2.143 0.777 -1.948
c 2.342 0.939 -0.543
c 2.583 -0.171 0.229
c 2.433 -0.215 1.608
c 2.416 -1.559 2.028
c 1.843 -1.939 3.239
c 1.014 -3.087 3.266
c -0.139 -2.754 3.937
c -1.219 -2.886 3.085
c -1.832 -1.624 2.943
c -2.208 -1.143 1.676
c -2.128 0.263 1.437
c -2.480 0.751 0.203
c -2.114 2.001 -0.280
c -2.330 2.039 -1.671
c -1.663 2.947 -2.489
c -1.121 2.486 -3.713
c 0.173 2.944 -3.796
c 0.274 0.746 -4.013
c -1.076 1.123 -3.937
c -1.712 0.215 -3.123
c -2.465 0.676 -2.051
c -2.552 -0.098 -0.902
c -1.989 -1.374 -0.768
c -1.958 -1.973 0.502
c -1.070 -3.046 0.698
c -0.766 -3.509 1.957
c 0.626 -3.644 2.061
c 1.169 -3.260 0.858
c 2.175 -2.302 0.841
c 2.276 -1.447 -0.247
c 1.472 -1.528 -1.391
c 1.520 -0.486 -2.331
c 0.458 -0.383 -3.249
c -0.812 -0.832 -2.827
c -0.934 -1.657 -1.714
c 0.237 -2.252 -1.195
c 0.119 -3.053 -0.064
c 1.128 -0.936 3.921
c -0.060 -1.480 4.325
c -1.074 -0.761 3.762
c -0.558 0.411 3.237
c -1.133 1.026 2.150
c -0.387 1.965 1.398
c -0.991 2.644 0.312
c -0.209 3.374 -0.578
c -0.637 3.689 -1.873
c 0.448 3.659 -2.704
c 1.489 3.090 -2.029
c 1.170 3.020 -0.685
c 1.678 2.031 0.125
c 1.048 1.739 1.358
c 1.598 0.761 2.222
c 0.863 0.293 3.306




