%chk=000259.chk
%mem=8GB
%Nproc=32
#p B3LYP/6-31G* opt pop=NPA

Template file

0 1
c -2.683 -0.217 -1.425
c -1.674 -0.267 -2.423
c -0.710 -1.349 -2.391
c 0.603 -1.044 -2.885
c 1.752 -1.690 -2.419
c 2.712 -0.680 -2.158
c 3.366 -0.553 -0.947
c 3.021 0.746 -0.439
c 2.584 0.926 0.911
c 1.532 1.873 1.169
c 0.574 1.557 2.247
c -0.690 2.196 2.201
c -1.908 1.465 2.364
c -2.806 1.868 1.358
c -3.336 0.872 0.481
c -3.188 1.026 -0.906
c -2.699 -1.150 -0.397
c -3.124 -0.454 0.781
c -2.563 -0.802 1.989
c -1.850 0.180 2.746
c -0.644 -0.383 3.144
c 0.611 0.273 2.896
c 1.690 -0.581 2.645
c 2.694 -0.231 1.728
c 3.178 -1.443 1.200
c 3.400 -1.635 -0.142
c 2.619 -2.767 -0.509
c 1.676 -2.717 -1.545
c 0.421 -3.084 -1.008
c -0.792 -2.382 -1.366
c -1.794 -2.251 -0.339
c -1.470 -2.708 0.979
c -1.855 -1.939 2.070
c -0.767 -1.744 2.887
c 0.238 -2.530 2.499
c 1.517 -2.014 2.558
c 2.422 -2.482 1.674
c 2.031 -3.262 0.590
c 0.683 -3.500 0.325
c -0.215 -3.216 1.306
c 0.981 0.298 -3.108
c 2.205 0.489 -2.506
c 2.402 1.436 -1.479
c 1.457 2.412 -1.283
c 1.090 2.756 0.078
c -0.137 3.452 0.224
c -0.966 3.152 1.278
c -2.285 2.996 0.814
c -2.294 3.226 -0.509
c -2.742 2.243 -1.414
c -1.793 2.190 -2.395
c -1.254 1.022 -2.891
c 0.106 1.288 -3.045
c 0.427 2.460 -2.295
c -0.741 3.060 -2.052
c -1.014 3.616 -0.869




