%chk=000700.chk
%mem=8GB
%Nproc=32
#p B3LYP/6-31G* opt pop=NPA

Template file

0 1
c 2.577 0.651 2.223
c 1.720 1.609 2.631
c 0.506 1.305 3.088
c -0.393 2.190 2.399
c -1.667 1.810 2.237
c -2.239 1.775 0.938
c -3.105 0.657 0.909
c -3.160 -0.199 -0.216
c -3.199 -1.615 0.095
c -2.389 -2.455 -0.627
c -1.561 -3.173 0.241
c -0.267 -3.063 -0.195
c 0.753 -2.612 0.679
c 1.881 -2.000 0.037
c 2.619 -1.099 0.826
c 3.300 0.003 0.234
c 3.148 1.066 1.064
c 2.536 2.276 0.634
c 1.634 2.563 1.614
c 0.308 2.821 1.367
c 2.179 -0.679 2.109
c 0.967 -1.100 2.671
c 0.321 -2.218 2.050
c -1.044 -2.444 2.421
c -1.944 -2.920 1.479
c -3.060 -2.069 1.416
c -2.977 -1.230 2.428
c -3.080 0.103 2.208
c -2.108 0.717 2.919
c -1.214 -0.264 3.447
c 0.141 -0.049 3.325
c -1.759 -1.461 3.104
c -0.183 2.825 0.034
c -1.507 2.213 -0.184
c -1.774 1.534 -1.411
c -2.448 0.223 -1.385
c -1.869 -0.817 -2.240
c -1.678 -2.068 -1.677
c -0.345 -2.588 -1.508
c 0.698 -2.045 -2.185
c 1.900 -1.774 -1.422
c 2.727 -0.726 -1.952
c 3.249 0.228 -1.091
c 2.861 1.532 -1.574
c 2.201 2.430 -0.691
c 0.801 2.806 -1.018
c 0.352 2.472 -2.297
c -0.907 1.802 -2.469
c -0.684 0.833 -3.448
c -0.946 -0.483 -3.177
c 0.328 -1.175 -3.250
c 1.218 -0.275 -3.761
c 2.371 -0.032 -3.096
c 2.413 1.351 -2.818
c 1.231 1.903 -3.235
c 0.569 0.935 -3.902




