%chk=000396.chk
%mem=8GB
%Nproc=16
#p B3LYP/6-31G* opt pop=NPA

Template file

0 1
c -1.752 -1.629 2.558
c -2.163 -2.070 1.325
c -1.292 -2.761 0.530
c -1.537 -2.667 -0.849
c -0.549 -2.976 -1.783
c -0.645 -2.012 -2.789
c 0.438 -1.273 -3.257
c 0.052 0.078 -3.176
c 0.955 1.072 -2.755
c 0.362 2.212 -2.201
c 1.008 2.974 -1.214
c 0.045 3.603 -0.475
c 0.063 3.615 0.887
c -1.177 3.284 1.336
c -1.060 2.508 2.447
c -2.014 1.595 2.682
c -1.652 0.433 3.317
c -2.449 -0.535 2.871
c -0.403 -1.398 2.842
c -0.323 -0.047 3.302
c 0.719 0.798 2.900
c 0.330 2.148 2.574
c 1.010 2.890 1.601
c 2.034 2.305 0.891
c 2.085 2.409 -0.542
c 2.687 1.286 -1.036
c 2.241 0.638 -2.237
c 2.606 -0.715 -2.373
c 1.696 -1.677 -2.889
c 1.800 -2.824 -2.067
c 0.700 -3.348 -1.375
c 1.021 -3.289 0.027
c 0.092 -2.875 0.973
c 0.561 -1.971 2.044
c 1.788 -1.223 1.866
c 1.803 0.204 2.173
c 2.500 1.046 1.234
c 3.098 0.519 0.094
c 3.304 -0.799 -0.034
c 3.255 -1.355 -1.300
c 2.760 -2.594 -1.174
c 2.310 -2.798 0.098
c 2.650 -1.695 0.868
c -2.303 -1.560 -1.352
c -1.674 -1.176 -2.501
c -1.322 0.119 -2.746
c -1.859 1.144 -1.965
c -1.048 2.277 -1.898
c -1.202 3.159 -0.874
c -1.991 2.913 0.234
c -2.781 1.754 0.308
c -2.939 1.230 1.616
c -3.182 -0.106 1.801
c -3.033 -1.028 0.799
c -2.912 -0.619 -0.525
c -2.712 0.808 -0.810




