%chk=000483.chk
%mem=8GB
%Nproc=16
#p B3LYP/6-31G* opt pop=NPA

Template file

0 1
c 0.524 1.550 3.056
c 1.265 0.361 3.079
c 2.156 0.079 2.060
c 2.195 -1.307 1.591
c 2.946 -1.572 0.469
c 2.525 -2.518 -0.455
c 2.773 -2.046 -1.741
c 1.663 -2.246 -2.486
c 1.019 -1.213 -3.150
c -0.368 -1.405 -2.920
c -1.276 -0.351 -2.931
c -2.390 -0.475 -2.077
c -2.960 0.655 -1.499
c -3.390 0.376 -0.247
c -3.049 1.409 0.628
c -2.699 1.104 1.943
c -1.634 1.876 2.499
c -0.779 1.295 3.422
c 0.553 2.414 2.010
c -0.819 2.683 1.664
c -1.164 2.978 0.349
c -2.331 2.346 -0.162
c -2.362 1.882 -1.514
c -1.292 2.052 -2.353
c -0.735 0.955 -3.084
c 0.669 1.153 -3.146
c 1.582 0.098 -3.125
c 2.744 0.278 -2.278
c 3.299 -0.807 -1.641
c 3.450 -0.517 -0.294
c 3.131 0.790 -0.060
c 2.458 1.155 1.118
c 1.562 2.305 1.049
c 1.248 2.827 -0.217
c -0.097 3.152 -0.555
c -0.243 2.793 -1.891
c 0.916 2.287 -2.371
c 1.874 2.340 -1.383
c 2.783 1.334 -1.324
c 1.257 -3.076 -0.410
c 0.750 -2.922 -1.707
c -0.503 -2.467 -1.957
c -1.445 -2.430 -0.926
c -2.483 -1.497 -1.090
c -3.160 -0.956 0.022
c -2.816 -1.298 1.289
c -2.724 -0.300 2.299
c -1.816 -0.790 3.211
c -0.862 -0.011 3.763
c 0.375 -0.603 3.524
c 0.186 -1.800 2.846
c 1.029 -2.163 1.821
c 0.437 -2.870 0.684
c -0.995 -2.729 0.430
c -1.779 -2.246 1.491
c -1.196 -1.909 2.679




