%chk=000788.chk
%mem=8GB
%Nproc=16
#p B3LYP/6-31G* opt pop=NPA

Template file

0 1
c -2.408 0.705 -1.829
c -2.007 1.826 -2.546
c -0.927 1.811 -3.360
c -0.095 2.880 -2.997
c 1.182 2.389 -2.923
c 1.967 2.492 -1.770
c 2.517 1.206 -1.505
c 2.723 0.673 -0.191
c 2.688 -0.773 -0.002
c 2.451 -1.378 1.283
c 1.971 -2.724 1.380
c 1.149 -3.150 2.434
c 0.187 -3.997 1.938
c -1.026 -3.569 2.317
c -1.763 -3.248 1.206
c -2.286 -1.976 1.367
c -2.473 -1.117 0.285
c -2.593 0.274 0.565
c -2.702 1.146 -0.519
c -2.335 2.518 -0.448
c -1.899 2.905 -1.701
c -0.659 3.550 -1.936
c -1.806 -0.556 -2.044
c -1.930 -1.536 -1.016
c -1.036 -2.673 -1.010
c -1.007 -3.548 0.076
c 0.250 -3.998 0.595
c 1.414 -3.346 0.224
c 1.418 -2.659 -0.924
c 2.196 -1.532 -1.112
c 1.722 -0.913 -2.237
c 2.021 0.365 -2.525
c 1.150 1.079 -3.298
c -0.186 0.664 -3.494
c -0.613 -0.548 -2.892
c 0.405 -1.415 -2.497
c 0.204 -2.451 -1.644
c 0.141 3.804 -0.822
c 1.474 3.241 -0.726
c 1.661 2.765 0.578
c 2.285 1.510 0.885
c 1.825 0.848 2.047
c 1.964 -0.508 2.282
c 0.894 -0.917 3.137
c 0.495 -2.211 3.229
c -0.892 -2.471 3.089
c -1.743 -1.475 2.599
c -1.412 -0.140 2.693
c -1.996 0.788 1.793
c -1.441 2.086 1.727
c -1.640 2.952 0.651
c -0.420 3.626 0.419
c 0.500 3.112 1.268
c -0.104 2.272 2.152
c 0.591 1.232 2.651
c -0.046 0.112 3.093




