%chk=000601.chk
%mem=8GB
%Nproc=32
#p B3LYP/6-31G* opt pop=NPA

Template file

0 1
c 2.626 -1.618 -1.970
c 2.959 -0.549 -1.213
c 3.024 -0.660 0.171
c 2.982 0.501 0.876
c 2.538 0.566 2.199
c 2.207 1.884 2.424
c 1.158 2.245 3.163
c 0.366 3.104 2.402
c -0.940 2.782 2.612
c -1.770 2.778 1.538
c -2.716 1.782 1.465
c -2.975 1.512 0.196
c -3.228 0.171 0.056
c -3.002 -0.376 -1.116
c -2.571 -1.687 -1.220
c -2.097 -1.792 -2.492
c -1.079 -2.549 -2.830
c -0.224 -1.777 -3.632
c 1.011 -2.144 -3.358
c 1.933 -1.203 -3.071
c 1.987 -2.750 -1.423
c 0.978 -3.065 -2.284
c -0.344 -3.222 -1.863
c -0.691 -3.052 -0.468
c -1.891 -2.312 -0.113
c -1.998 -1.639 1.171
c -2.827 -0.470 1.244
c -2.619 0.556 2.174
c -1.649 0.468 3.120
c -0.934 1.618 3.443
c 0.349 1.281 3.705
c 0.539 -0.077 3.411
c 1.693 -0.481 2.706
c 1.568 -1.604 1.891
c 2.344 -1.782 0.748
c 1.730 -2.725 -0.070
c 0.405 -2.916 0.420
c 0.311 -2.229 1.633
c -0.884 -1.654 2.094
c -0.738 -0.610 3.060
c 2.570 1.717 0.224
c 2.115 2.529 1.190
c 0.918 3.205 1.101
c 0.120 3.036 -0.071
c -1.265 2.946 0.189
c -2.083 2.207 -0.652
c -1.644 1.580 -1.814
c -2.358 0.399 -2.144
c -1.875 -0.490 -3.003
c -0.632 -0.422 -3.555
c 0.266 0.609 -3.090
c 1.601 0.161 -2.908
c 2.344 0.607 -1.826
c 1.976 1.688 -1.048
c 0.655 2.281 -1.212
c -0.240 1.640 -2.178




