%chk=000110.chk
%mem=8GB
%Nproc=16
#p B3LYP/6-31G* opt pop=NPA

Template file

0 1
c 1.429 2.276 1.662
c 0.166 2.512 2.184
c -0.548 1.483 2.934
c -1.869 1.598 2.572
c -2.572 0.540 2.050
c -3.088 0.995 0.763
c -3.139 0.147 -0.334
c -2.506 0.581 -1.590
c -1.929 -0.455 -2.461
c -0.818 -0.134 -3.228
c 0.399 -0.938 -3.173
c 1.444 -0.050 -3.252
c 2.422 0.005 -2.289
c 2.436 1.382 -1.807
c 2.639 1.674 -0.466
c 1.655 2.520 0.228
c 2.106 1.229 2.272
c 3.120 0.581 1.610
c 3.259 0.656 0.245
c 3.245 -0.721 -0.237
c 2.613 -1.063 -1.424
c 1.611 -2.140 -1.404
c 0.489 -2.053 -2.352
c -0.740 -2.578 -1.978
c -1.956 -1.774 -2.033
c -2.695 -2.129 -0.930
c -3.109 -1.201 -0.006
c -2.593 -1.656 1.281
c -2.113 -0.758 2.224
c -0.760 -0.961 2.765
c 0.011 0.232 3.151
c 1.392 0.201 3.022
c 2.036 -0.982 2.749
c 3.097 -0.718 1.964
c 3.100 -1.512 0.877
c 2.071 -2.414 0.996
c 1.380 -2.840 -0.130
c 0.109 -3.328 0.140
c -0.847 -3.351 -0.847
c -2.046 -3.114 -0.282
c -1.911 -2.821 1.025
c -0.591 -2.979 1.371
c -0.012 -2.147 2.318
c 1.370 -2.065 2.228
c -0.784 3.161 1.434
c -1.990 2.645 1.734
c -2.653 2.290 0.617
c -1.913 2.688 -0.470
c -1.906 1.924 -1.628
c -0.796 2.132 -2.434
c -0.404 1.172 -3.336
c 0.939 1.187 -3.417
c 1.464 2.043 -2.519
c 0.434 2.705 -1.897
c 0.538 3.063 -0.560
c -0.684 3.261 0.067




