%chk=000545.chk
%mem=8GB
%Nproc=16
#p B3LYP/6-31G* opt pop=NPA

Template file

0 1
c -3.009 0.040 -2.287
c -2.031 -0.617 -3.062
c -1.608 -1.925 -2.681
c -0.238 -1.959 -2.856
c 0.654 -2.443 -1.932
c 1.757 -1.522 -1.878
c 2.545 -1.390 -0.754
c 3.034 -0.066 -0.373
c 3.464 0.083 0.985
c 3.190 1.242 1.682
c 2.606 0.904 2.930
c 1.488 1.637 3.075
c 0.199 1.059 3.161
c -0.642 1.868 2.378
c -1.784 1.389 1.730
c -2.197 2.072 0.494
c -3.029 1.391 -0.413
c -2.760 1.345 -1.836
c -3.545 -0.638 -1.215
c -3.493 0.165 -0.082
c -3.004 -0.569 1.003
c -2.077 -0.021 1.904
c -1.056 -0.914 2.458
c 0.064 -0.356 3.174
c 1.312 -1.081 3.181
c 2.545 -0.408 3.023
c 3.206 -0.936 1.914
c 2.572 -2.043 1.562
c 2.238 -2.324 0.283
c 0.973 -2.956 0.334
c 0.168 -3.065 -0.765
c -1.226 -3.011 -0.543
c -2.121 -2.530 -1.529
c -3.126 -1.879 -0.855
c -2.829 -1.852 0.495
c -1.715 -2.574 0.739
c -0.863 -2.207 1.771
c 0.436 -2.686 1.634
c 1.434 -2.180 2.372
c -0.867 0.094 -3.455
c 0.206 -0.752 -3.305
c 1.413 -0.421 -2.669
c 1.668 0.894 -2.245
c 2.464 1.100 -1.046
c 2.163 2.281 -0.219
c 2.495 2.273 1.138
c 1.476 2.571 2.094
c 0.201 2.831 1.738
c -0.041 3.201 0.472
c -1.267 2.958 -0.107
c -1.031 2.880 -1.471
c -1.676 2.048 -2.320
c -0.668 1.392 -3.074
c 0.607 1.805 -2.557
c 0.334 2.804 -1.677
c 0.989 2.994 -0.519




