%chk=000314.chk
%mem=8GB
%Nproc=32
#p B3LYP/6-31G* opt pop=NPA

Template file

0 1
c 0.347 2.169 2.435
c 1.256 1.145 2.802
c 2.177 0.723 1.747
c 2.263 -0.718 1.458
c 2.425 -1.164 0.109
c 1.488 -2.157 -0.457
c 1.197 -2.148 -1.881
c -0.126 -2.426 -2.277
c -0.727 -1.653 -3.299
c -1.971 -1.356 -2.905
c -2.157 -0.008 -2.866
c -2.670 0.308 -1.611
c -2.259 1.443 -0.940
c -2.394 1.402 0.513
c -1.602 2.297 1.250
c -1.065 1.963 2.511
c 0.550 2.882 1.315
c -0.637 2.999 0.601
c -0.380 2.983 -0.734
c -1.186 2.231 -1.602
c -0.544 1.768 -2.835
c -1.046 0.591 -3.410
c -0.154 -0.508 -3.778
c 1.170 -0.362 -3.635
c 1.886 -1.223 -2.696
c 2.859 -0.430 -2.142
c 3.022 -0.285 -0.771
c 3.016 1.119 -0.501
c 2.463 1.617 0.665
c 1.561 2.705 0.451
c 1.032 3.001 -0.843
c 1.636 2.540 -1.939
c 0.867 1.957 -2.979
c 1.666 0.901 -3.467
c 2.762 0.811 -2.687
c 2.763 1.737 -1.738
c -1.140 -2.642 -1.311
c -2.247 -1.899 -1.727
c -2.814 -0.937 -0.909
c -2.683 -1.045 0.439
c -2.717 0.158 1.209
c -2.404 0.012 2.582
c -1.534 0.941 3.231
c -0.646 0.218 4.017
c 0.753 0.213 3.701
c 1.067 -1.135 3.522
c 1.614 -1.572 2.324
c 0.710 -2.555 1.797
c 0.506 -2.677 0.439
c -0.881 -2.715 0.020
c -1.889 -2.179 0.919
c -1.648 -2.266 2.256
c -2.056 -1.230 3.106
c -1.075 -1.057 4.052
c -0.053 -1.874 3.779
c -0.351 -2.616 2.687




