%chk=000240.chk
%mem=8GB
%Nproc=32
#p B3LYP/6-31G* opt pop=NPA

Template file

0 1
c 0.905 0.366 -3.158
c 2.012 0.883 -2.438
c 2.754 -0.056 -1.590
c 3.222 0.411 -0.331
c 2.994 -0.318 0.870
c 2.468 0.607 1.837
c 1.388 0.278 2.661
c 0.231 1.193 2.695
c -1.085 0.584 2.875
c -2.154 1.102 2.105
c -2.985 0.253 1.285
c -3.121 0.843 0.035
c -2.876 0.111 -1.159
c -2.250 0.871 -2.182
c -1.347 0.257 -3.003
c -0.272 1.094 -3.234
c 0.506 -0.970 -3.040
c -0.923 -1.023 -2.858
c -1.546 -1.884 -1.921
c -2.557 -1.310 -1.042
c -2.672 -1.897 0.254
c -2.889 -1.083 1.402
c -2.129 -1.579 2.427
c -1.179 -0.789 3.124
c -0.046 -1.574 3.164
c 1.184 -1.098 2.818
c 1.753 -2.060 1.913
c 2.603 -1.641 0.862
c 2.378 -2.203 -0.415
c 2.378 -1.408 -1.598
c 1.282 -1.855 -2.375
c 0.662 -2.865 -1.691
c -0.711 -2.916 -1.419
c -0.822 -3.408 -0.118
c -1.845 -2.963 0.687
c -1.561 -2.747 2.033
c -0.281 -2.775 2.518
c 0.779 -3.079 1.719
c 0.510 -3.519 0.428
c 1.364 -3.144 -0.561
c -2.004 2.246 1.408
c -2.627 2.131 0.179
c -1.909 2.806 -0.755
c -1.740 2.199 -1.980
c -0.486 2.296 -2.627
c 0.589 2.898 -2.002
c 1.853 2.234 -1.979
c 2.432 2.604 -0.793
c 3.071 1.724 -0.004
c 2.555 1.834 1.281
c 1.531 2.757 1.295
c 0.328 2.453 1.952
c -0.833 2.928 1.276
c -0.807 3.388 -0.084
c 0.397 3.516 -0.734
c 1.526 3.297 -0.011




