%chk=000303.chk
%mem=8GB
%Nproc=32
#p B3LYP/6-31G* opt pop=NPA

Template file

0 1
c -2.443 -1.277 -1.505
c -2.721 0.090 -1.474
c -1.831 0.977 -2.092
c -1.697 2.102 -1.223
c -0.447 2.752 -1.045
c -0.049 3.103 0.305
c 1.318 2.889 0.648
c 1.628 2.269 1.851
c 2.530 1.264 1.623
c 2.113 0.122 2.270
c 2.225 -1.104 1.598
c 1.149 -2.004 1.858
c 0.703 -2.887 0.871
c -0.697 -2.959 0.938
c -1.450 -2.875 -0.257
c -2.552 -2.026 -0.310
c -1.370 -1.755 -2.243
c -0.787 -2.805 -1.471
c 0.574 -3.014 -1.533
c 1.346 -2.957 -0.335
c 2.491 -2.183 -0.591
c 2.879 -1.132 0.292
c 3.281 0.136 -0.349
c 2.971 1.312 0.343
c 2.237 2.398 -0.269
c 1.911 2.307 -1.579
c 0.545 2.394 -1.968
c 0.344 1.388 -2.958
c -0.785 0.534 -2.919
c -0.565 -0.908 -3.056
c 0.762 -1.362 -3.294
c 1.285 -2.391 -2.492
c 2.503 -1.989 -1.963
c 2.839 -0.827 -2.528
c 3.208 0.251 -1.766
c 2.498 1.335 -2.323
c 1.586 0.859 -3.239
c 1.794 -0.456 -3.397
c 0.711 1.872 2.757
c 0.977 0.493 3.047
c -0.088 -0.392 3.288
c 0.024 -1.652 2.648
c -1.114 -2.278 2.065
c -2.346 -1.632 2.073
c -3.041 -1.439 0.844
c -3.493 -0.108 0.819
c -3.227 0.679 -0.319
c -2.593 1.942 -0.171
c -2.273 2.418 1.102
c -0.981 2.902 1.353
c -0.571 2.322 2.610
c -1.580 1.530 3.049
c -1.389 0.174 3.375
c -2.474 -0.481 2.792
c -3.219 0.426 2.054
c -2.649 1.652 2.196




