%chk=000827.chk
%mem=8GB
%Nproc=32
#p B3LYP/6-31G* opt pop=NPA

Template file

0 1
c -2.166 -0.500 2.943
c -3.081 0.386 2.413
c -3.526 0.233 1.168
c -3.325 1.435 0.468
c -2.943 1.146 -0.808
c -1.868 1.829 -1.455
c -1.181 1.170 -2.514
c 0.229 1.435 -2.766
c 0.976 0.451 -3.515
c 2.281 0.161 -3.168
c 2.416 -1.230 -2.933
c 2.995 -1.425 -1.707
c 2.352 -2.245 -0.728
c 2.599 -1.870 0.589
c 1.719 -2.184 1.567
c 1.725 -1.223 2.536
c 0.513 -1.132 3.105
c 0.097 0.093 3.537
c -1.225 0.331 3.584
c -1.460 1.650 3.243
c -2.606 1.702 2.536
c -2.660 2.317 1.288
c -1.706 -1.629 2.166
c -0.370 -1.993 2.363
c 0.417 -2.614 1.361
c -0.015 -2.836 0.057
c 1.011 -2.794 -1.017
c 0.550 -2.595 -2.336
c 1.268 -1.803 -3.249
c 0.419 -0.803 -3.746
c -0.803 -1.084 -3.348
c -1.629 -0.171 -2.794
c -2.365 -0.887 -1.840
c -3.038 -0.261 -0.908
c -3.155 -0.814 0.373
c -2.220 -1.818 0.825
c -1.399 -2.447 -0.200
c -1.674 -2.088 -1.535
c -0.759 -2.224 -2.519
c -1.495 2.888 0.768
c -1.132 2.686 -0.587
c 0.256 2.726 -0.674
c 0.961 2.175 -1.742
c 2.290 1.773 -1.425
c 2.899 0.795 -2.172
c 3.442 -0.147 -1.319
c 3.377 0.318 -0.050
c 3.104 -0.560 0.945
c 2.458 -0.129 2.093
c 1.882 1.170 2.196
c 0.748 1.277 3.029
c -0.276 2.201 2.775
c -0.301 2.862 1.535
c 0.768 2.733 0.665
c 1.930 1.995 1.007
c 2.696 1.566 -0.076




