%chk=000355.chk
%mem=8GB
%Nproc=16
#p B3LYP/6-31G* opt pop=NPA

Template file

0 1
c 2.574 1.988 -0.020
c 2.791 0.822 0.780
c 2.644 -0.490 0.141
c 2.026 -1.579 0.906
c 1.370 -2.675 0.186
c 0.220 -3.278 0.774
c -0.943 -3.503 0.005
c -2.018 -2.896 0.638
c -2.638 -2.026 -0.229
c -2.839 -0.651 0.173
c -2.681 0.336 -0.868
c -2.245 1.625 -0.496
c -1.348 2.380 -1.308
c -0.579 3.183 -0.449
c 0.806 3.288 -0.673
c 1.694 3.051 0.389
c 2.392 1.863 -1.346
c 1.316 2.655 -1.754
c 0.595 1.977 -2.681
c -0.823 1.846 -2.507
c -1.391 0.669 -2.976
c -2.309 -0.086 -2.184
c -2.082 -1.448 -2.488
c -2.146 -2.373 -1.491
c -1.016 -3.269 -1.293
c 0.165 -3.046 -1.969
c 1.350 -2.661 -1.222
c 1.971 -1.644 -1.947
c 2.557 -0.537 -1.313
c 2.378 0.697 -2.018
c 1.381 0.855 -3.032
c 0.807 -0.220 -3.574
c -0.594 -0.256 -3.649
c -1.011 -1.508 -3.366
c 0.113 -2.280 -3.078
c 1.202 -1.466 -3.119
c -0.253 -2.813 1.962
c -1.631 -2.529 1.839
c -1.884 -1.310 2.359
c -2.512 -0.287 1.559
c -2.151 1.058 1.901
c -2.031 1.995 0.838
c -1.039 3.024 0.848
c -0.160 3.136 1.916
c 1.262 3.096 1.656
c 1.808 2.198 2.545
c 2.441 0.991 2.119
c 1.819 -0.044 2.836
c 1.561 -1.281 2.258
c 0.322 -1.852 2.671
c -0.762 -1.024 3.136
c -0.515 0.196 3.547
c -1.262 1.282 3.006
c -0.371 2.353 3.012
c 0.856 1.884 3.426
c 0.813 0.582 3.627




