%chk=000446.chk
%mem=8GB
%Nproc=32
#p B3LYP/6-31G* opt pop=NPA

Template file

0 1
c -0.178 3.485 0.199
c 1.130 3.265 -0.153
c 1.439 2.756 -1.443
c 2.575 1.978 -1.276
c 2.778 0.775 -1.882
c 3.187 -0.153 -0.872
c 2.806 -1.507 -0.928
c 2.508 -2.118 0.302
c 1.525 -3.090 0.360
c 0.833 -2.980 1.523
c -0.511 -3.200 1.283
c -1.414 -2.444 1.981
c -2.540 -1.912 1.312
c -2.830 -0.719 1.909
c -3.120 0.445 1.230
c -2.443 1.483 1.933
c -1.985 2.578 1.250
c -0.673 3.064 1.453
c -1.153 3.182 -0.737
c -2.224 2.633 -0.110
c -2.715 1.570 -0.857
c -3.183 0.422 -0.196
c -2.922 -0.824 -0.827
c -2.631 -1.994 -0.076
c -1.712 -2.765 -0.788
c -0.650 -3.394 -0.110
c 0.646 -3.369 -0.673
c 0.877 -2.764 -1.884
c 1.994 -1.900 -2.041
c 1.596 -0.938 -2.957
c 1.888 0.389 -2.854
c 0.669 1.115 -3.041
c 0.418 2.310 -2.343
c -0.908 2.517 -1.926
c -1.909 1.499 -2.024
c -1.630 0.276 -2.634
c -2.180 -0.896 -2.021
c -1.470 -2.124 -2.005
c -0.211 -2.197 -2.590
c 0.266 -1.090 -3.234
c -0.357 0.149 -3.231
c 1.999 2.643 0.776
c 2.866 1.871 0.055
c 3.186 0.557 0.360
c 2.693 -0.011 1.555
c 2.405 -1.375 1.520
c 1.325 -1.916 2.268
c 0.431 -1.108 2.989
c -0.950 -1.460 2.901
c -1.898 -0.460 2.890
c -1.617 0.875 2.907
c -0.286 1.267 3.036
c 0.181 2.383 2.342
c 1.503 2.133 1.970
c 1.843 0.812 2.363
c 0.735 0.279 3.047




