%chk=000062.chk
%mem=8GB
%Nproc=32
#p B3LYP/6-31G* opt pop=NPA

Template file

0 1
c -0.839 2.415 1.225
c -2.005 1.818 0.680
c -2.257 0.476 1.075
c -2.499 -0.482 -0.015
c -2.101 -1.822 0.235
c -1.275 -2.417 -0.754
c -0.064 -3.059 -0.373
c 0.942 -2.478 -1.116
c 2.056 -1.857 -0.472
c 2.403 -0.536 -1.011
c 2.604 0.542 -0.104
c 2.059 1.862 -0.444
c 1.322 2.480 0.612
c 0.094 3.059 0.366
c -0.142 1.828 2.226
c 1.242 1.922 1.853
c 2.081 0.956 2.247
c 2.720 0.176 1.252
c 2.695 -1.152 1.738
c 2.256 -2.204 0.901
c 1.354 -3.160 1.533
c 0.138 -3.468 0.875
c -0.905 -3.276 1.777
c -1.870 -2.272 1.530
c -1.762 -1.373 2.618
c -1.726 0.006 2.340
c -0.613 0.741 2.952
c 0.371 0.035 3.702
c 1.716 0.149 3.268
c 2.235 -1.095 3.073
c 1.386 -1.991 3.615
c 1.001 -3.061 2.893
c -0.379 -3.108 2.974
c -0.869 -1.965 3.540
c 0.208 -1.281 4.010
c -1.070 -1.829 -1.956
c 0.342 -1.920 -2.206
c 0.933 -0.952 -2.918
c 1.932 -0.171 -2.288
c 1.700 1.157 -2.717
c 1.655 2.208 -1.773
c 0.569 3.162 -1.962
c -0.254 3.468 -0.849
c -1.580 3.273 -1.223
c -2.348 2.267 -0.590
c -2.710 1.368 -1.622
c -2.556 -0.011 -1.386
c -1.806 -0.744 -2.413
c -1.235 -0.036 -3.510
c 0.167 -0.147 -3.687
c 0.717 1.098 -3.731
c -0.284 1.992 -3.860
c -0.328 3.061 -3.043
c -1.612 3.106 -2.531
c -2.294 1.961 -2.835
c -1.517 1.280 -3.719




