%chk=000693.chk
%mem=8GB
%Nproc=32
#p B3LYP/6-31G* opt pop=NPA

Template file

0 1
c 2.794 -1.776 -1.333
c 3.096 -0.464 -1.527
c 3.391 0.432 -0.534
c 2.763 1.657 -0.913
c 2.413 2.554 0.025
c 1.116 3.147 -0.013
c 0.731 3.254 1.322
c -0.478 2.794 1.755
c -0.197 1.744 2.721
c -0.934 0.554 2.711
c -0.219 -0.704 2.649
c -0.883 -1.828 1.987
c -0.054 -2.843 1.492
c -0.306 -3.401 0.236
c 0.869 -3.516 -0.465
c 0.695 -2.947 -1.717
c 1.654 -2.055 -2.155
c 1.238 -0.833 -2.747
c 2.167 0.102 -2.380
c 1.884 1.384 -1.985
c 2.852 -2.264 -0.021
c 1.890 -3.156 0.357
c 1.332 -2.750 1.559
c 1.980 -1.651 2.013
c 1.265 -0.655 2.680
c 1.904 0.586 2.711
c 1.163 1.729 2.878
c 1.692 2.705 2.094
c 2.690 2.231 1.359
c 2.950 0.918 1.759
c 3.389 -0.009 0.832
c 3.008 -1.343 1.046
c 0.552 1.857 -2.027
c 0.145 2.790 -0.981
c -1.227 2.782 -0.556
c -1.513 2.681 0.894
c -2.523 1.806 1.308
c -2.177 0.652 2.100
c -2.847 -0.442 1.537
c -2.140 -1.627 1.288
c -2.319 -2.203 -0.068
c -1.284 -2.944 -0.574
c -0.652 -2.601 -1.823
c -1.092 -1.464 -2.521
c -0.104 -0.448 -2.854
c -0.429 0.976 -2.628
c -1.763 1.282 -2.410
c -2.174 2.210 -1.399
c -3.382 1.718 -0.887
c -3.491 1.440 0.456
c -3.737 0.075 0.604
c -3.864 -0.455 -0.647
c -3.046 -1.481 -1.023
c -2.368 -1.049 -2.231
c -2.726 0.269 -2.416
c -3.693 0.578 -1.538




