%chk=000404.chk
%mem=8GB
%Nproc=32
#p B3LYP/6-31G* opt pop=NPA

Template file

0 1
c -3.369 2.293 0.685
c -3.071 1.543 1.794
c -1.837 1.568 2.373
c -1.468 0.198 2.628
c -0.158 -0.216 2.797
c 0.259 -1.525 2.321
c 1.681 -1.803 2.106
c 2.073 -2.880 1.296
c 3.086 -2.685 0.299
c 2.683 -3.290 -0.841
c 2.546 -2.344 -1.833
c 1.218 -2.386 -2.294
c 0.532 -1.209 -2.569
c -0.888 -1.146 -2.246
c -1.614 0.052 -2.437
c -2.844 0.227 -1.769
c -3.297 1.512 -1.399
c -3.932 1.426 -0.224
c -2.378 3.014 0.048
c -2.418 2.570 -1.335
c -1.264 2.471 -2.038
c -0.854 1.230 -2.632
c 0.553 1.190 -2.616
c 1.285 0.022 -2.509
c 2.537 0.071 -1.740
c 3.100 -1.161 -1.389
c 3.501 -1.414 -0.025
c 3.345 -0.433 0.878
c 2.515 -0.666 2.027
c 2.056 0.555 2.403
c 0.772 0.834 2.762
c 0.449 2.127 2.230
c -0.862 2.494 1.933
c -1.117 3.220 0.682
c -0.004 3.382 -0.183
c -0.140 3.030 -1.523
c 0.955 2.324 -1.928
c 1.904 2.313 -0.962
c 2.744 1.192 -0.840
c 3.142 0.885 0.483
c 2.489 1.514 1.528
c 1.534 2.484 1.401
c 1.293 2.984 0.161
c -3.209 -0.630 -0.689
c -3.881 0.153 0.242
c -3.407 0.213 1.523
c -2.397 -0.603 1.948
c -1.924 -1.649 1.149
c -0.705 -2.259 1.499
c -0.201 -3.185 0.600
c 1.097 -3.635 0.649
c 1.515 -3.879 -0.637
c 0.598 -3.370 -1.500
c -0.533 -3.054 -0.799
c -1.376 -2.063 -1.210
c -2.314 -1.608 -0.276




