%chk=000657.chk
%mem=8GB
%Nproc=32
#p B3LYP/6-31G* opt pop=NPA

Template file

0 1
c 2.329 -1.578 2.149
c 3.275 -1.821 1.151
c 4.185 -0.908 0.746
c 3.968 -0.690 -0.643
c 3.933 0.653 -0.849
c 2.784 1.252 -1.380
c 2.414 2.290 -0.480
c 1.073 2.617 -0.295
c 0.655 2.736 1.058
c -0.659 2.413 1.403
c -0.562 1.595 2.513
c -1.202 0.390 2.561
c -0.180 -0.550 2.814
c -0.177 -1.727 2.066
c 1.104 -2.159 1.697
c 1.314 -2.562 0.359
c 2.597 -2.271 0.043
c 2.922 -1.482 -1.061
c 2.321 -0.315 2.798
c 1.036 0.151 3.124
c 0.729 1.483 2.896
c 1.510 2.298 2.120
c 2.796 1.952 1.894
c 3.296 2.178 0.619
c 4.206 1.246 0.355
c 4.244 0.305 1.361
c 3.283 0.663 2.317
c 1.836 -0.960 -1.807
c 1.764 0.484 -1.977
c 0.476 1.047 -2.117
c 0.102 2.132 -1.211
c -1.284 2.236 -0.895
c -1.649 2.163 0.493
c -2.695 1.240 0.860
c -2.284 0.158 1.737
c -2.491 -1.169 1.272
c -1.290 -1.967 1.191
c -1.005 -2.509 -0.124
c 0.314 -2.439 -0.567
c 0.601 -1.644 -1.761
c -0.501 -1.162 -2.454
c -0.571 0.273 -2.661
c -1.861 0.817 -2.767
c -2.227 1.778 -1.785
c -3.514 1.440 -1.376
c -3.702 1.001 -0.045
c -4.266 -0.278 -0.157
c -3.535 -1.370 0.357
c -3.298 -2.183 -0.766
c -1.992 -2.476 -1.077
c -1.723 -1.847 -2.338
c -2.923 -1.325 -2.786
c -2.995 0.040 -3.009
c -4.028 0.511 -2.216
c -4.545 -0.512 -1.492
c -3.907 -1.637 -1.857




