%chk=000640.chk
%mem=8GB
%Nproc=32
#p B3LYP/6-31G* opt pop=NPA

Template file

0 1
c -0.777 0.792 -3.032
c 0.510 1.113 -2.731
c 1.466 0.085 -2.572
c 2.735 0.478 -2.124
c 3.620 -0.402 -1.569
c 4.326 0.255 -0.569
c 4.314 -0.470 0.527
c 3.651 0.222 1.533
c 2.729 -0.614 2.097
c 1.485 -0.158 2.558
c 0.481 -1.138 2.726
c -0.785 -0.753 3.040
c -1.874 -1.558 2.686
c -2.924 -0.785 2.482
c -3.533 -1.081 1.317
c -3.821 0.090 0.689
c -3.827 0.100 -0.651
c -3.488 1.256 -1.282
c -2.906 0.930 -2.453
c -1.821 1.650 -2.668
c -1.263 -0.536 -2.825
c -2.609 -0.402 -2.487
c -3.173 -0.987 -1.385
c -2.476 -1.996 -0.707
c -2.787 -2.104 0.681
c -1.793 -2.454 1.610
c -0.558 -2.770 1.186
c 0.564 -2.305 1.876
c 1.638 -2.482 1.076
c 2.786 -1.829 1.311
c 3.654 -1.628 0.282
c 3.161 -1.612 -1.062
c 1.828 -2.028 -1.329
c 0.981 -1.257 -2.205
c -0.454 -1.499 -2.216
c -1.096 -2.277 -1.148
c -0.219 -2.795 -0.185
c 1.159 -2.657 -0.263
c -1.206 0.597 2.837
c -2.561 0.530 2.512
c -3.106 1.143 1.416
c -2.367 2.116 0.731
c -2.686 2.239 -0.653
c -1.684 2.541 -1.593
c -0.432 2.795 -1.181
c 0.659 2.275 -1.882
c 1.748 2.398 -1.093
c 2.861 1.689 -1.339
c 3.728 1.444 -0.319
c 3.248 1.453 1.030
c 1.940 1.934 1.311
c 1.064 1.206 2.195
c -0.357 1.519 2.220
c -0.970 2.328 1.158
c -0.078 2.803 0.187
c 1.292 2.596 0.251




