%chk=000315.chk
%mem=8GB
%Nproc=32
#p B3LYP/6-31G* opt pop=NPA

Template file

0 1
c -1.123 -2.662 -1.028
c -0.247 -3.042 -0.018
c -0.495 -2.501 1.322
c 0.677 -2.061 2.073
c 0.609 -0.776 2.713
c 1.613 0.251 2.372
c 1.186 1.592 2.082
c 1.616 2.190 0.830
c 0.711 3.076 0.202
c 0.618 3.073 -1.155
c -0.723 3.134 -1.522
c -0.903 2.279 -2.545
c -1.868 1.320 -2.521
c -1.219 0.144 -3.023
c -1.613 -1.076 -2.590
c -0.658 -2.044 -2.230
c -2.317 -2.079 -0.729
c -2.626 -1.125 -1.665
c -3.201 -0.027 -1.047
c -2.797 1.280 -1.419
c -2.651 2.262 -0.346
c -1.513 3.141 -0.419
c -0.605 3.284 0.682
c -0.954 2.833 1.894
c -0.048 1.987 2.613
c -0.842 1.038 3.238
c -0.616 -0.323 3.103
c -1.818 -0.882 2.574
c -1.762 -1.866 1.593
c -2.665 -1.648 0.505
c -3.364 -0.405 0.300
c -3.360 0.526 1.273
c -3.011 1.881 0.963
c -2.229 2.306 2.051
c -2.132 1.291 2.929
c -2.729 0.189 2.467
c 1.292 2.179 -1.972
c 0.327 1.714 -2.859
c 0.175 0.399 -3.160
c 1.161 -0.525 -2.770
c 0.714 -1.864 -2.433
c 1.547 -2.656 -1.662
c 1.056 -3.262 -0.429
c 2.089 -3.205 0.465
c 1.936 -2.480 1.659
c 3.000 -1.552 1.647
c 2.748 -0.200 1.765
c 3.218 0.412 0.550
c 2.519 1.449 -0.019
c 2.226 1.313 -1.453
c 2.340 0.002 -2.079
c 3.195 -0.906 -1.484
c 2.840 -2.270 -1.410
c 3.199 -2.742 -0.184
c 3.737 -1.756 0.523
c 3.740 -0.612 -0.219




