%chk=000102.chk
%mem=8GB
%Nproc=16
#p B3LYP/6-31G* opt pop=NPA

Template file

0 1
c -1.332 2.349 2.402
c -0.881 1.307 3.136
c 0.363 0.763 2.934
c 0.185 -0.636 2.925
c 1.084 -1.457 2.263
c 0.492 -2.576 1.610
c 1.050 -3.057 0.414
c 0.017 -3.266 -0.461
c -0.051 -2.649 -1.723
c -1.341 -2.118 -1.806
c -1.563 -0.841 -2.366
c -2.665 -0.121 -1.797
c -2.610 1.259 -1.546
c -3.253 1.541 -0.310
c -2.667 2.421 0.602
c -2.593 2.037 1.929
c -0.562 2.889 1.410
c -1.421 3.001 0.284
c -0.879 2.832 -0.967
c -1.469 1.927 -1.890
c -0.441 1.301 -2.598
c -0.408 -0.116 -2.835
c 0.910 -0.737 -2.885
c 1.080 -2.021 -2.229
c 2.285 -2.236 -1.463
c 2.188 -2.562 -0.074
c 2.920 -1.611 0.655
c 2.266 -0.869 1.689
c 2.383 0.603 1.617
c 1.303 1.390 2.087
c 0.801 2.511 1.260
c 1.381 2.704 -0.013
c 0.477 2.770 -1.136
c 0.722 1.999 -2.298
c 1.934 1.478 -2.522
c 2.065 0.115 -2.899
c 3.278 -0.290 -2.331
c 3.330 -1.398 -1.561
c 3.733 -1.010 -0.253
c 3.931 0.326 -0.259
c 3.168 1.145 0.570
c 2.609 2.146 -0.281
c 2.940 1.766 -1.596
c 3.763 0.738 -1.555
c -2.938 0.750 2.377
c -1.847 0.323 3.132
c -1.233 -0.894 2.961
c -1.816 -1.860 2.122
c -0.919 -2.726 1.506
c -1.148 -3.138 0.188
c -2.058 -2.542 -0.629
c -3.012 -1.768 -0.051
c -3.395 -0.647 -0.724
c -3.717 0.329 0.168
c -3.485 -0.134 1.472
c -2.954 -1.437 1.342




