%chk=000478.chk
%mem=8GB
%Nproc=16
#p B3LYP/6-31G* opt pop=NPA

Template file

0 1
c 2.169 -1.189 -2.962
c 1.627 0.074 -3.041
c 1.831 1.027 -2.024
c 0.846 2.054 -1.878
c 0.861 2.843 -0.734
c -0.340 3.328 -0.195
c -0.271 3.341 1.159
c -1.443 2.804 1.700
c -1.334 1.909 2.803
c -2.120 0.720 2.698
c -1.562 -0.575 2.945
c -1.951 -1.437 1.889
c -1.055 -2.294 1.213
c -1.308 -2.579 -0.181
c -0.291 -3.185 -0.900
c -0.231 -3.126 -2.285
c 1.088 -3.090 -2.659
c 1.285 -2.091 -3.514
c 2.583 -1.691 -1.729
c 1.852 -2.894 -1.561
c 1.066 -3.075 -0.441
c 1.353 -2.425 0.717
c 0.314 -2.285 1.690
c 0.624 -1.537 2.833
c -0.323 -0.679 3.472
c 0.348 0.493 3.826
c -0.049 1.751 3.371
c 1.126 2.297 2.714
c 0.987 2.976 1.548
c 1.690 2.564 0.355
c 2.531 1.416 0.343
c 2.551 0.595 -0.827
c 2.733 -0.846 -0.647
c 2.403 -1.396 0.632
c 2.572 -0.611 1.721
c 1.831 -0.850 2.869
c 1.645 0.317 3.506
c 2.109 1.337 2.762
c 2.698 0.802 1.599
c -0.908 -2.124 -2.983
c 0.109 -1.472 -3.748
c 0.313 -0.117 -3.602
c -0.699 0.649 -3.146
c -0.459 1.803 -2.437
c -1.630 2.111 -1.724
c -1.575 2.894 -0.592
c -2.283 2.543 0.580
c -3.052 1.393 0.548
c -2.961 0.547 1.621
c -2.871 -0.747 1.154
c -2.950 -0.779 -0.215
c -2.214 -1.713 -0.952
c -1.862 -1.363 -2.311
c -1.865 0.038 -2.601
c -2.452 0.970 -1.768
c -3.084 0.575 -0.612




