%chk=000182.chk
%mem=8GB
%Nproc=16
#p B3LYP/6-31G* opt pop=NPA

Template file

0 1
c 2.792 -1.910 -0.303
c 2.755 -0.995 0.745
c 1.736 -1.231 1.804
c 1.440 -0.159 2.630
c 0.109 0.133 3.040
c -0.067 1.541 2.887
c -1.201 2.042 2.211
c -0.966 2.797 0.976
c -1.687 2.372 -0.235
c -0.960 2.149 -1.462
c -1.222 0.938 -2.254
c -0.143 0.397 -2.993
c 0.055 -0.995 -3.131
c 1.448 -1.193 -3.201
c 2.076 -2.133 -2.451
c 3.000 -1.489 -1.622
c 1.808 -2.883 -0.391
c 1.346 -2.956 -1.706
c -0.028 -2.921 -1.689
c -0.758 -1.903 -2.428
c -1.957 -1.424 -1.859
c -2.241 0.031 -1.839
c -3.156 0.500 -0.872
c -2.826 1.626 -0.047
c -3.224 1.285 1.253
c -2.303 1.264 2.285
c -2.229 -0.110 2.731
c -0.947 -0.732 2.869
c -0.675 -1.956 2.144
c 0.664 -2.202 1.624
c 0.754 -2.986 0.459
c -0.382 -3.195 -0.372
c -1.586 -2.894 0.070
c -2.481 -2.175 -0.764
c -3.416 -1.673 0.061
c -3.841 -0.390 -0.042
c -3.856 0.118 1.220
c -3.262 -0.761 2.099
c -3.013 -1.891 1.404
c -1.783 -2.489 1.396
c 1.148 0.990 -2.960
c 2.077 -0.013 -2.987
c 3.061 -0.167 -1.964
c 3.175 0.800 -0.988
c 3.175 0.372 0.426
c 2.889 1.357 1.376
c 2.071 1.047 2.451
c 1.149 2.068 2.644
c 1.345 2.998 1.698
c 0.307 3.342 0.814
c 0.892 3.317 -0.430
c 0.334 2.714 -1.528
c 1.389 2.051 -2.173
c 2.518 2.034 -1.290
c 2.227 2.906 -0.312
c 2.468 2.637 0.978




