%chk=000785.chk
%mem=8GB
%Nproc=16
#p B3LYP/6-31G* opt pop=NPA

Template file

0 1
c 1.226 3.692 -0.048
c 1.130 3.297 -1.320
c 0.005 2.728 -1.813
c 0.418 1.660 -2.662
c -0.435 0.623 -2.960
c 0.084 -0.743 -2.936
c -0.827 -1.799 -2.715
c -0.554 -2.842 -1.791
c -1.789 -3.156 -1.123
c -1.784 -3.435 0.222
c -2.587 -2.624 1.075
c -1.845 -2.263 2.154
c -1.933 -0.889 2.366
c -0.807 -0.166 2.757
c -0.755 1.232 2.441
c 0.452 1.887 2.713
c 0.856 2.989 2.003
c 2.238 2.882 1.718
c 2.440 3.231 0.449
c 2.999 2.329 -0.483
c 2.225 2.489 -1.624
c 1.790 1.461 -2.410
c 0.197 3.420 0.877
c -0.983 2.755 0.457
c -1.577 1.743 1.338
c -2.611 0.896 0.822
c -2.824 -0.390 1.400
c -3.278 -1.522 0.623
c -3.459 -1.396 -0.727
c -2.729 -2.264 -1.590
c -2.177 -1.515 -2.585
c -2.605 -0.231 -2.442
c -1.765 0.816 -2.536
c -2.055 1.679 -1.426
c -1.140 2.581 -0.978
c -2.902 0.974 -0.564
c -3.335 -0.145 -1.270
c 2.221 0.181 -2.144
c 1.386 -0.907 -2.409
c 1.649 -1.898 -1.447
c 0.688 -2.871 -1.098
c 0.647 -3.234 0.265
c -0.569 -3.543 0.861
c -0.636 -2.882 2.070
c 0.508 -2.208 2.297
c 0.467 -0.918 2.832
c 1.632 -0.210 2.735
c 1.624 1.124 2.878
c 2.650 1.683 2.163
c 3.182 0.704 1.312
c 3.334 0.995 -0.074
c 2.962 -0.064 -0.961
c 2.548 -1.329 -0.507
c 2.392 -1.592 0.868
c 1.394 -2.500 1.218
c 2.618 -0.516 1.731




