%chk=000561.chk
%mem=8GB
%Nproc=48
#p B3LYP/6-31G* opt pop=NPA

Template file

0 1
c -0.928 3.133 0.436
c -1.928 2.639 -0.431
c -2.870 1.716 0.031
c -3.088 0.773 -0.988
c -3.332 -0.556 -0.662
c -2.748 -1.526 -1.435
c -2.305 -2.539 -0.636
c -1.124 -3.017 -1.125
c -0.166 -3.395 -0.224
c 1.139 -3.180 -0.557
c 1.837 -2.836 0.552
c 2.799 -1.929 0.220
c 3.081 -0.939 1.122
c 3.417 0.291 0.634
c 2.882 1.256 1.435
c 2.464 2.310 0.664
c 1.260 2.922 0.991
c 0.378 3.322 -0.026
c -0.858 2.650 1.750
c 0.498 2.433 2.073
c 0.910 1.261 2.815
c 2.117 0.667 2.434
c 2.238 -0.738 2.259
c 1.150 -1.613 2.527
c 0.968 -2.696 1.634
c -0.312 -3.087 1.167
c -1.486 -2.473 1.653
c -2.521 -2.219 0.697
c -3.248 -0.996 0.680
c -3.042 -0.071 1.676
c -2.842 1.295 1.365
c -1.829 1.781 2.218
c -1.423 0.720 3.002
c -0.105 0.384 3.225
c -0.013 -1.029 3.035
c -1.305 -1.496 2.649
c -2.139 -0.389 2.671
c -1.587 2.292 -1.745
c -2.238 1.083 -2.070
c -1.556 0.045 -2.814
c -1.816 -1.275 -2.435
c -0.773 -2.224 -2.262
c 0.582 -1.889 -2.530
c 1.554 -2.403 -1.639
c 2.642 -1.623 -1.171
c 2.867 -0.318 -1.655
c 3.293 0.659 -0.699
c 2.762 1.978 -0.679
c 1.901 2.377 -1.674
c 0.694 3.047 -1.361
c -0.308 2.537 -2.214
c 0.289 1.572 -3.000
c -0.244 0.321 -3.224
c 0.824 -0.610 -3.037
c 1.979 0.133 -2.650
c 1.605 1.467 -2.670




