%chk=000615.chk
%mem=8GB
%Nproc=32
#p B3LYP/6-31G* opt pop=NPA

Template file

0 1
c 3.817 -0.231 -0.566
c 3.131 -1.233 0.047
c 2.157 -1.899 -0.610
c 1.259 -2.608 0.179
c 0.147 -3.199 -0.329
c -0.846 -3.217 0.672
c -2.183 -3.227 0.322
c -3.013 -2.388 1.016
c -3.824 -1.712 0.085
c -3.867 -0.435 0.444
c -3.467 0.595 -0.399
c -2.895 1.526 0.430
c -2.043 2.427 -0.041
c -1.114 2.932 0.802
c -0.055 3.343 0.112
c 1.052 3.245 0.873
c 2.229 3.104 0.267
c 3.221 2.458 0.932
c 4.003 1.860 0.006
c 4.253 0.627 0.387
c 3.192 0.510 -1.608
c 3.332 1.839 -1.212
c 2.234 2.640 -1.121
c 1.010 2.294 -1.764
c -0.145 2.836 -1.202
c -1.412 2.250 -1.307
c -1.664 1.092 -2.042
c -2.852 0.308 -1.679
c -2.906 -1.051 -2.053
c -3.424 -2.041 -1.163
c -2.505 -3.057 -1.046
c -1.526 -2.836 -1.961
c -0.205 -2.901 -1.652
c 0.442 -1.809 -2.278
c 1.642 -1.314 -1.842
c 1.980 0.042 -2.145
c 0.869 0.981 -2.355
c -0.463 0.443 -2.582
c -0.571 -0.942 -2.751
c -1.766 -1.613 -2.583
c -2.539 -1.460 1.971
c -3.193 -0.287 1.660
c -2.595 0.906 1.704
c -1.333 1.090 2.320
c -0.678 2.263 1.967
c 0.693 2.421 2.008
c 1.544 1.381 2.414
c 2.887 1.499 1.953
c 3.581 0.360 1.569
c 2.917 -0.821 1.425
c 1.672 -1.059 2.018
c 0.965 -2.133 1.492
c -0.362 -2.383 1.729
c -1.166 -1.386 2.336
c -0.535 -0.089 2.607
c 0.918 0.060 2.549




