%chk=000818.chk
%mem=8GB
%Nproc=32
#p B3LYP/6-31G* opt pop=NPA

Template file

0 1
c 0.908 -2.073 3.112
c 0.840 -2.876 2.057
c 1.553 -2.660 0.940
c 0.716 -3.003 -0.150
c 1.000 -2.581 -1.414
c -0.099 -2.198 -2.227
c 0.056 -1.262 -3.264
c -1.091 -0.437 -3.253
c -0.948 0.954 -3.453
c -1.561 1.826 -2.544
c -0.570 2.764 -2.125
c -0.477 3.095 -0.797
c 0.759 2.897 -0.088
c 0.442 2.643 1.226
c 1.195 1.765 2.045
c 0.524 1.285 3.190
c 0.788 0.041 3.691
c -0.438 -0.604 4.005
c -0.386 -1.850 3.554
c -1.293 -2.324 2.565
c -0.507 -3.061 1.715
c -0.613 -3.062 0.362
c 1.611 -0.851 3.052
c 2.278 -0.478 1.852
c 2.172 0.915 1.383
c 2.538 1.226 0.023
c 1.869 2.307 -0.714
c 1.802 2.257 -2.146
c 0.570 2.480 -2.796
c 0.323 1.454 -3.693
c 1.417 0.665 -3.728
c 1.324 -0.702 -3.516
c 2.337 -0.998 -2.611
c 2.183 -1.832 -1.557
c 2.757 -1.175 -0.413
c 2.412 -1.522 0.853
c 3.009 0.150 -0.781
c 2.911 0.185 -2.158
c 2.354 1.199 -2.826
c -1.644 -2.370 -0.278
c -1.379 -2.024 -1.633
c -1.949 -0.911 -2.242
c -2.677 -0.035 -1.450
c -2.466 1.352 -1.598
c -2.520 1.904 -0.330
c -1.508 2.810 0.070
c -0.986 2.700 1.336
c -1.620 1.956 2.291
c -0.888 1.408 3.271
c -1.433 0.200 3.625
c -2.375 -0.171 2.644
c -2.273 -1.455 2.000
c -2.477 -1.502 0.553
c -2.933 -0.318 -0.096
c -2.940 0.917 0.573
c -2.592 0.981 1.895




