%chk=000486.chk
%mem=8GB
%Nproc=16
#p B3LYP/6-31G* opt pop=NPA

Template file

0 1
c 1.314 -2.477 2.046
c 0.304 -3.197 1.536
c 0.201 -3.489 0.215
c -1.182 -3.343 -0.090
c -1.563 -3.054 -1.357
c -2.514 -2.062 -1.542
c -2.119 -1.241 -2.590
c -2.311 0.072 -2.264
c -1.299 1.064 -2.510
c -1.296 2.228 -1.656
c -0.051 2.937 -1.371
c 0.089 3.616 -0.111
c 1.250 3.426 0.662
c 0.892 3.063 1.952
c 1.580 1.935 2.319
c 0.886 0.855 2.918
c 1.509 -0.375 2.783
c 0.783 -1.509 2.877
c 2.298 -1.936 1.269
c 2.523 -0.629 1.791
c 3.009 0.400 1.002
c 2.550 1.704 1.305
c 2.281 2.656 0.265
c 2.306 2.247 -1.034
c 1.133 2.360 -1.868
c 1.120 1.228 -2.692
c -0.043 0.555 -3.045
c 0.113 -0.872 -3.224
c -0.941 -1.700 -3.054
c -0.575 -2.811 -2.302
c 0.770 -2.728 -1.995
c 1.228 -3.034 -0.687
c 2.310 -2.215 -0.129
c 2.824 -1.170 -0.918
c 3.201 0.084 -0.359
c 2.891 1.052 -1.316
c 2.260 0.474 -2.351
c 2.277 -0.889 -2.195
c 1.234 -1.588 -2.679
c -0.610 -1.545 2.805
c -0.890 -2.649 2.007
c -1.806 -2.664 1.015
c -2.632 -1.529 0.831
c -3.003 -1.279 -0.523
c -3.022 0.033 -1.042
c -2.963 1.070 -0.224
c -2.278 2.238 -0.599
c -2.041 2.889 0.576
c -0.930 3.571 0.816
c -0.435 3.145 2.058
c -1.201 2.077 2.523
c -0.597 0.878 2.941
c -1.329 -0.362 2.683
c -2.433 -0.384 1.705
c -2.804 0.864 1.180
c -2.267 2.012 1.647




