%chk=000769.chk
%mem=8GB
%Nproc=16
#p B3LYP/6-31G* opt pop=NPA

Template file

0 1
c 0.816 -3.747 1.349
c 1.288 -3.611 0.067
c 2.156 -2.612 -0.290
c 1.683 -2.027 -1.497
c 1.968 -0.713 -1.851
c 1.022 -0.007 -2.693
c 1.217 1.386 -2.844
c 0.128 2.310 -2.894
c 0.477 3.415 -2.088
c -0.283 3.790 -0.958
c 0.600 3.710 0.159
c 0.178 3.072 1.323
c 1.007 2.124 1.959
c 0.196 1.208 2.641
c 0.624 -0.081 2.973
c -0.357 -1.072 3.112
c -0.042 -2.404 2.902
c -1.086 -3.022 2.250
c -0.562 -3.840 1.280
c -0.957 -3.700 -0.051
c 0.215 -3.585 -0.794
c 0.419 -2.602 -1.761
c 1.160 -2.819 2.331
c 2.081 -1.829 2.015
c 1.873 -0.500 2.416
c 2.535 0.337 1.518
c 2.222 1.682 1.351
c 2.552 2.262 0.129
c 1.847 3.359 -0.345
c 1.732 3.231 -1.688
c 2.199 2.023 -2.089
c 2.802 1.414 -1.016
c 2.779 0.048 -0.903
c 2.911 -0.464 0.405
c 2.646 -1.773 0.709
c -0.635 -1.807 -2.220
c -0.337 -0.523 -2.778
c -1.381 0.450 -2.777
c -1.135 1.833 -2.807
c -1.991 2.419 -1.851
c -1.554 3.274 -0.845
c -2.010 2.697 0.371
c -1.144 2.609 1.454
c -1.143 1.461 2.255
c -2.050 0.385 2.063
c -1.665 -0.863 2.581
c -2.051 -2.080 1.973
c -2.578 -2.032 0.685
c -1.966 -2.808 -0.352
c -1.867 -1.975 -1.476
c -2.664 -0.880 -1.237
c -2.501 0.259 -1.938
c -2.760 1.456 -1.316
c -2.811 1.578 0.072
c -2.837 0.411 0.861
c -2.962 -0.828 0.152




