%chk=000749.chk
%mem=8GB
%Nproc=16
#p B3LYP/6-31G* opt pop=NPA

Template file

0 1
c 2.979 1.454 2.348
c 3.844 0.875 1.465
c 3.689 1.422 0.216
c 3.401 0.403 -0.680
c 2.386 0.561 -1.658
c 1.751 -0.624 -2.142
c 0.616 -0.505 -2.902
c -0.422 -1.490 -2.909
c -1.538 -0.879 -3.386
c -2.761 -1.037 -2.793
c -3.275 0.218 -2.629
c -3.667 0.393 -1.368
c -3.069 1.557 -0.887
c -2.717 1.610 0.429
c -1.570 2.281 0.829
c -1.135 1.738 2.061
c 0.202 1.825 2.482
c 0.819 0.652 3.112
c 2.208 0.458 2.932
c 2.691 -0.790 2.385
c 3.642 -0.441 1.420
c 3.460 -0.805 0.086
c 2.373 2.482 1.678
c 1.023 2.645 1.677
c 0.642 2.922 0.327
c -0.639 2.760 -0.135
c -0.842 2.405 -1.504
c -2.147 2.006 -1.887
c -2.342 1.165 -2.972
c -1.282 0.497 -3.500
c -0.003 0.747 -3.099
c 0.302 1.807 -2.220
c 1.571 1.791 -1.615
c 1.754 2.617 -0.486
c 2.822 2.461 0.348
c 2.603 -1.827 -0.197
c 1.821 -1.799 -1.342
c 0.681 -2.610 -1.132
c -0.511 -2.420 -1.848
c -1.788 -2.512 -1.130
c -2.865 -1.718 -1.589
c -3.526 -0.815 -0.675
c -3.195 -0.799 0.674
c -2.865 0.481 1.256
c -1.926 0.610 2.297
c -1.338 -0.502 2.850
c 0.034 -0.507 3.171
c 0.553 -1.758 2.715
c 1.819 -1.844 2.143
c 1.849 -2.433 0.825
c 0.697 -2.971 0.219
c -0.495 -3.018 0.901
c -1.708 -2.708 0.256
c -2.440 -1.868 1.150
c -1.651 -1.718 2.277
c -0.514 -2.440 2.155




