%chk=000531.chk
%mem=8GB
%Nproc=48
#p B3LYP/6-31G* opt pop=NPA

Template file

0 1
c -0.338 2.004 2.982
c -0.548 3.001 2.086
c -1.618 3.004 1.238
c -1.117 3.344 -0.030
c -1.726 2.851 -1.154
c -0.921 2.468 -2.199
c -1.433 1.347 -2.795
c -0.405 0.492 -3.159
c -0.522 -0.915 -2.978
c 0.667 -1.667 -2.633
c 0.572 -2.813 -1.710
c 1.682 -3.122 -0.877
c 1.473 -3.309 0.504
c 2.379 -2.545 1.211
c 1.720 -1.834 2.176
c 2.013 -0.468 2.361
c 1.034 0.243 3.015
c 0.965 1.589 2.866
c -1.160 0.898 3.055
c -0.327 -0.230 3.122
c -0.702 -1.465 2.573
c 0.368 -2.298 2.186
c 0.252 -3.206 1.104
c -0.848 -3.163 0.316
c -0.686 -3.037 -1.113
c -1.780 -2.360 -1.537
c -1.765 -1.317 -2.419
c -2.740 -0.383 -1.931
c -2.567 0.961 -2.123
c -2.756 1.883 -1.062
c -3.138 1.416 0.207
c -2.558 1.955 1.351
c -2.301 0.877 2.255
c -2.692 -0.311 1.650
c -1.930 -1.521 1.808
c -1.968 -2.421 0.710
c -2.590 -2.042 -0.462
c -3.183 -0.838 -0.670
c -3.286 0.036 0.405
c 1.587 2.270 1.815
c 0.626 3.169 1.363
c 0.324 3.350 0.050
c 1.136 2.737 -0.932
c 0.456 2.360 -2.123
c 0.780 1.185 -2.829
c 1.876 0.496 -2.506
c 1.887 -0.914 -2.570
c 2.903 -1.296 -1.740
c 2.832 -2.363 -0.943
c 3.209 -1.954 0.341
c 3.412 -0.575 0.354
c 2.813 0.235 1.331
c 2.408 1.579 0.932
c 2.239 1.899 -0.495
c 2.678 0.918 -1.402
c 3.313 -0.199 -0.974




