%chk=000032.chk
%mem=8GB
%Nproc=32
#p B3LYP/6-31G* opt pop=NPA

Template file

0 1
c 0.385 -2.534 1.565
c 0.421 -1.682 2.711
c -0.566 -0.663 2.872
c 0.119 0.547 3.040
c -0.228 1.654 2.240
c 0.903 2.287 1.623
c 0.797 2.736 0.319
c 1.992 2.354 -0.357
c 1.892 1.784 -1.660
c 2.568 0.580 -1.867
c 1.827 -0.591 -2.260
c 2.250 -1.624 -1.422
c 1.297 -2.406 -0.742
c 1.537 -2.591 0.709
c -0.842 -2.645 1.004
c -1.048 -2.764 -0.390
c -0.041 -2.394 -1.278
c -0.453 -1.473 -2.360
c 0.540 -0.501 -2.756
c 0.114 0.816 -3.008
c 0.701 1.908 -2.291
c -0.364 2.638 -1.741
c -0.425 2.839 -0.332
c -1.645 2.433 0.353
c -1.500 1.655 1.576
c -2.372 0.483 1.749
c -1.762 -0.732 2.249
c -1.960 -1.934 1.513
c -2.917 -1.991 0.582
c -2.357 -2.450 -0.617
c -2.822 -1.682 -1.648
c -1.879 -1.128 -2.552
c -2.202 0.203 -2.984
c -1.188 1.102 -3.153
c -1.469 2.272 -2.424
c -2.654 2.134 -1.856
c -2.795 2.203 -0.459
c -3.671 1.183 -0.160
c -3.471 0.312 0.875
c -3.720 -0.964 0.317
c -3.828 -0.858 -1.053
c -3.937 0.435 -1.345
c -3.217 0.953 -2.326
c 1.589 -1.165 3.127
c 1.438 0.211 3.292
c 2.529 0.836 2.731
c 2.249 1.859 1.830
c 2.908 1.875 0.575
c 3.778 0.820 0.219
c 3.528 0.186 -0.997
c 3.394 -1.177 -0.783
c 3.664 -1.425 0.504
c 2.771 -2.122 1.285
c 2.745 -1.409 2.494
c 3.407 -0.192 2.340
c 3.991 -0.201 1.129




