%chk=000809.chk
%mem=8GB
%Nproc=32
#p B3LYP/6-31G* opt pop=NPA

Template file

0 1
c 1.750 -1.448 -2.672
c 1.953 -2.636 -1.921
c 0.955 -3.344 -1.395
c 1.219 -3.446 0.034
c 0.164 -3.446 0.898
c 0.114 -2.497 1.954
c -1.247 -2.141 2.092
c -1.605 -0.891 2.459
c -2.625 -0.194 1.755
c -2.496 1.131 2.034
c -2.884 2.082 1.104
c -2.234 3.299 1.082
c -1.984 3.608 -0.224
c -0.670 3.870 -0.413
c -0.199 3.045 -1.439
c 1.055 2.473 -1.372
c 1.323 1.328 -2.182
c 2.557 0.704 -1.980
c 2.760 -0.615 -2.280
c 3.464 -1.222 -1.213
c 2.899 -2.392 -0.947
c 2.347 -2.689 0.308
c 0.435 -0.937 -2.841
c 0.200 0.481 -2.626
c -1.131 0.926 -2.283
c -1.301 2.240 -1.860
c -2.367 2.593 -1.028
c -3.020 1.644 -0.263
c -2.929 0.311 -0.611
c -3.018 -0.651 0.459
c -2.736 -1.965 0.178
c -1.949 -2.731 1.065
c -1.118 -3.536 0.368
c -1.351 -3.316 -0.974
c -0.327 -3.082 -1.830
c -0.604 -1.832 -2.495
c -1.842 -1.372 -1.999
c -2.107 -0.031 -1.786
c -2.280 -2.316 -1.079
c 2.331 -1.669 1.348
c 1.151 -1.532 2.167
c 0.734 -0.205 2.634
c -0.663 0.033 2.874
c -1.262 1.292 2.753
c -0.507 2.423 2.534
c -1.036 3.448 1.761
c -0.078 3.825 0.832
c 1.043 3.084 1.024
c 1.746 2.586 -0.066
c 2.673 1.636 0.229
c 3.204 0.892 -0.743
c 3.603 -0.314 -0.246
c 3.041 -0.478 1.032
c 2.542 0.778 1.385
c 1.483 0.966 2.255
c 0.826 2.225 2.154




