%chk=000245.chk
%mem=8GB
%Nproc=32
#p B3LYP/6-31G* opt pop=NPA

Template file

0 1
c 2.677 -2.272 0.208
c 2.300 -2.101 -1.176
c 2.252 -0.722 -1.708
c 1.158 -0.285 -2.569
c 0.667 1.104 -2.539
c -0.739 1.311 -2.748
c -1.459 2.338 -2.105
c -2.637 1.748 -1.594
c -3.016 1.838 -0.264
c -3.093 0.490 0.222
c -2.474 0.104 1.453
c -1.877 -1.193 1.544
c -0.671 -1.334 2.379
c 0.095 -2.496 2.214
c 1.492 -2.389 2.124
c 1.939 -3.122 1.042
c 2.960 -1.175 0.984
c 2.137 -1.221 2.178
c 1.500 -0.083 2.665
c 0.042 -0.149 2.825
c -0.637 1.063 2.798
c -1.907 1.174 2.191
c -2.006 2.497 1.737
c -2.460 2.823 0.476
c -1.438 3.612 -0.112
c -0.839 3.267 -1.337
c 0.544 3.170 -1.130
c 1.320 2.089 -1.721
c 2.407 1.641 -0.963
c 2.820 0.288 -0.923
c 3.195 0.022 0.426
c 2.923 1.134 1.153
c 2.080 1.141 2.276
c 1.360 2.311 2.208
c 0.039 2.312 2.608
c -0.827 3.151 1.969
c -0.469 3.818 0.802
c 0.764 3.603 0.221
c 1.716 2.974 0.971
c 2.586 2.148 0.336
c -1.612 0.214 -2.807
c -2.683 0.483 -1.975
c -3.020 -0.349 -0.889
c -2.511 -1.621 -0.838
c -2.074 -2.146 0.439
c -1.257 -3.303 0.387
c -0.240 -3.461 1.289
c 0.931 -3.862 0.596
c 0.665 -3.896 -0.705
c 1.336 -3.033 -1.627
c 0.349 -2.582 -2.450
c 0.217 -1.295 -2.894
c -1.161 -1.028 -2.835
c -1.771 -2.015 -2.013
c -0.899 -3.020 -1.953
c -0.697 -3.720 -0.845




