%chk=000804.chk
%mem=8GB
%Nproc=32
#p B3LYP/6-31G* opt pop=NPA

Template file

0 1
c -3.401 -0.204 -0.920
c -3.910 1.103 -0.715
c -3.336 2.167 -1.325
c -2.757 3.001 -0.320
c -1.447 3.261 -0.659
c -0.372 3.046 0.250
c 0.911 2.794 -0.309
c 1.930 2.354 0.539
c 3.051 1.711 0.038
c 3.438 0.694 0.866
c 3.718 -0.467 0.111
c 3.290 -1.714 0.562
c 2.656 -2.563 -0.426
c 1.667 -3.439 -0.048
c 0.564 -3.283 -0.886
c -0.597 -3.209 -0.134
c -1.589 -2.295 -0.462
c -2.263 -1.676 0.644
c -3.212 -0.745 0.377
c -3.396 0.309 1.277
c -3.856 1.362 0.624
c -3.058 2.456 0.879
c -2.408 -0.474 -1.918
c -1.476 -1.536 -1.700
c -0.144 -1.481 -2.316
c 0.847 -2.394 -1.874
c 2.209 -2.015 -1.666
c 2.620 -0.779 -2.049
c 3.462 -0.074 -1.208
c 3.084 1.245 -1.233
c 2.008 1.417 -2.047
c 0.995 2.308 -1.702
c -0.186 2.130 -2.365
c -1.306 2.735 -1.949
c -2.401 1.957 -2.253
c -1.928 0.683 -2.603
c -0.566 0.826 -2.850
c 0.331 -0.221 -2.807
c 1.685 0.130 -2.575
c -2.045 2.052 1.751
c -0.694 2.403 1.540
c 0.298 1.596 2.184
c 1.631 1.720 1.761
c 2.606 0.693 1.956
c 2.250 -0.508 2.482
c 2.689 -1.732 1.871
c 1.709 -2.653 2.160
c 1.209 -3.501 1.221
c -0.170 -3.346 1.187
c -0.549 -2.436 2.159
c -1.537 -1.532 1.900
c -1.390 -0.193 2.452
c -2.350 0.705 2.109
c -0.074 0.298 2.733
c 0.929 -0.678 2.937
c 0.638 -2.008 2.750




