%chk=000262.chk
%mem=8GB
%Nproc=32
#p B3LYP/6-31G* opt pop=NPA

Template file

0 1
c -0.138 2.765 1.368
c 1.001 2.607 0.581
c 0.788 2.538 -0.859
c 1.847 1.978 -1.614
c 1.599 1.101 -2.689
c 2.389 -0.073 -2.496
c 1.766 -1.368 -2.462
c 1.907 -2.150 -1.229
c 0.689 -2.704 -0.590
c 0.499 -2.613 0.853
c -0.824 -2.331 1.418
c -0.878 -1.565 2.637
c -1.895 -0.609 2.887
c -1.289 0.502 3.470
c -1.428 1.761 2.921
c -0.172 2.246 2.656
c -1.453 2.638 0.848
c -2.235 1.977 1.858
c -3.093 0.959 1.486
c -2.858 -0.393 1.953
c -2.968 -1.243 0.859
c -1.955 -2.217 0.542
c -1.755 -2.453 -0.832
c -0.468 -2.730 -1.365
c -0.455 -2.210 -2.653
c 0.583 -1.444 -3.146
c -0.040 -0.261 -3.621
c 0.379 0.995 -3.220
c -0.718 1.657 -2.629
c -0.565 2.411 -1.411
c -1.693 2.427 -0.524
c -2.814 1.576 -0.831
c -3.428 0.863 0.197
c -3.506 -0.463 -0.163
c -3.197 -0.597 -1.455
c -2.466 -1.706 -1.835
c -1.650 -1.584 -2.906
c -1.372 -0.348 -3.457
c -1.841 0.824 -2.869
c -2.813 0.720 -1.925
c 0.294 -1.034 3.217
c 0.026 0.261 3.621
c 0.776 1.366 3.139
c 1.935 1.154 2.444
c 2.153 1.916 1.209
c 3.151 1.427 0.356
c 2.969 1.495 -1.002
c 3.304 0.256 -1.580
c 3.664 -0.576 -0.606
c 2.963 -1.780 -0.386
c 2.787 -1.827 0.974
c 1.623 -2.178 1.597
c 1.488 -1.279 2.674
c 2.406 -0.204 2.473
c 3.268 -0.635 1.547
c 3.711 0.151 0.569




