%chk=000381.chk
%mem=8GB
%Nproc=16
#p B3LYP/6-31G* opt pop=NPA

Template file

0 1
c 1.692 0.699 -2.672
c 0.445 1.051 -2.924
c -0.179 2.120 -2.240
c -1.515 1.918 -2.386
c -2.441 2.156 -1.411
c -3.225 0.971 -1.383
c -3.574 0.379 -0.228
c -2.984 -0.940 -0.252
c -2.369 -1.467 0.908
c -1.163 -2.194 0.724
c -0.139 -2.062 1.759
c 1.103 -2.564 1.496
c 2.284 -1.780 1.719
c 3.234 -2.227 0.824
c 3.851 -1.347 -0.004
c 3.618 -1.785 -1.328
c 3.272 -0.713 -2.045
c 2.101 -0.637 -2.765
c 2.363 1.308 -1.588
c 3.334 0.421 -1.229
c 3.566 0.021 0.074
c 2.705 0.546 1.057
c 2.115 -0.416 1.999
c 0.953 -0.055 2.663
c -0.198 -0.977 2.654
c -1.446 -0.468 2.973
c -2.541 -0.709 2.095
c -3.284 0.494 2.084
c -3.569 1.120 0.899
c -2.866 2.399 0.913
c -2.070 2.763 -0.213
c -0.615 2.994 -0.002
c 0.344 2.608 -1.013
c 1.648 2.074 -0.643
c 1.923 1.730 0.735
c 0.991 2.141 1.648
c 0.641 1.304 2.734
c -0.555 1.727 3.203
c -1.577 0.845 3.433
c -2.690 1.381 2.892
c -2.375 2.526 2.183
c -1.042 2.744 2.376
c -0.158 2.915 1.330
c -0.512 0.042 -3.144
c -1.700 0.634 -2.922
c -2.670 0.046 -2.221
c -2.425 -1.133 -1.531
c -1.215 -1.829 -1.736
c -0.711 -2.559 -0.629
c 0.555 -3.121 -0.768
c 1.347 -3.304 0.359
c 2.639 -3.183 0.027
c 2.765 -2.861 -1.280
c 1.459 -2.763 -1.822
c 1.107 -1.693 -2.668
c -0.247 -1.290 -2.713




