%chk=000246.chk
%mem=8GB
%Nproc=32
#p B3LYP/6-31G* opt pop=NPA

Template file

0 1
c 3.105 0.911 -1.727
c 2.741 -0.258 -2.423
c 1.379 -0.395 -2.889
c 0.610 -1.578 -2.500
c -0.818 -1.440 -2.126
c -1.354 -2.236 -1.000
c -2.454 -1.756 -0.195
c -2.376 -1.915 1.247
c -2.783 -0.883 2.136
c -1.710 -0.687 3.016
c -1.047 0.536 3.150
c 0.331 0.282 2.950
c 1.150 1.143 2.187
c 2.324 0.552 1.589
c 2.878 1.253 0.489
c 3.599 0.569 -0.484
c 2.298 1.955 -1.600
c 2.151 2.243 -0.190
c 0.972 2.797 0.310
c 0.483 2.309 1.567
c -0.914 2.521 1.828
c -1.656 1.636 2.626
c -2.920 1.475 2.027
c -3.431 0.203 1.677
c -3.710 0.265 0.320
c -3.143 -0.623 -0.621
c -2.655 0.160 -1.680
c -1.491 -0.210 -2.423
c -0.702 0.874 -2.882
c 0.684 0.796 -2.996
c 1.209 2.010 -2.403
c 0.176 2.742 -1.996
c 0.016 3.202 -0.685
c -1.341 3.182 -0.451
c -1.809 2.975 0.811
c -3.000 2.281 0.954
c -3.528 1.542 -0.106
c -2.925 1.532 -1.322
c -1.964 2.478 -1.561
c -0.982 2.169 -2.415
c -1.245 -2.487 1.818
c -0.810 -1.644 2.835
c 0.488 -1.122 2.871
c 1.492 -1.734 2.155
c 2.538 -0.920 1.612
c 3.314 -1.519 0.550
c 3.788 -0.742 -0.467
c 3.331 -1.259 -1.716
c 2.701 -2.388 -1.477
c 1.364 -2.602 -1.865
c 0.810 -3.271 -0.807
c -0.440 -3.082 -0.343
c -0.314 -3.059 1.072
c 1.053 -2.887 1.386
c 1.714 -3.245 0.278
c 2.822 -2.654 -0.108




