%chk=000666.chk
%mem=8GB
%Nproc=32
#p B3LYP/6-31G* opt pop=NPA

Template file

0 1
c 3.049 -0.230 -0.468
c 3.047 -0.903 0.762
c 2.531 -2.139 0.924
c 1.469 -2.001 1.884
c 0.233 -2.640 1.653
c -0.924 -1.831 1.898
c -1.975 -1.954 0.926
c -2.717 -0.837 0.564
c -2.680 -0.710 -0.830
c -2.355 0.553 -1.397
c -1.218 0.525 -2.307
c -0.237 1.540 -2.181
c 1.170 1.136 -2.027
c 1.932 1.846 -1.019
c 2.710 1.079 -0.175
c 2.503 1.189 1.248
c 2.581 -0.073 1.716
c 1.549 -0.691 2.407
c 2.583 -0.897 -1.597
c 1.561 -0.193 -2.385
c 0.574 -1.009 -2.987
c -0.798 -0.704 -2.804
c -1.436 -1.921 -2.454
c -2.223 -1.900 -1.321
c -1.859 -2.738 -0.209
c -0.860 -3.664 -0.341
c 0.217 -3.606 0.588
c 1.372 -3.820 -0.199
c 2.407 -2.924 -0.162
c 2.507 -2.321 -1.483
c 1.652 -3.039 -2.274
c 0.681 -2.391 -2.982
c -0.549 -2.939 -2.621
c -0.319 -3.876 -1.619
c 1.013 -3.981 -1.486
c 0.461 0.087 2.776
c -0.829 -0.541 2.571
c -1.897 0.364 2.425
c -2.774 0.252 1.321
c -2.960 1.515 0.759
c -2.631 1.716 -0.638
c -1.890 2.882 -0.911
c -0.654 2.748 -1.626
c 0.258 3.552 -0.954
c 1.412 3.001 -0.460
c 1.347 3.192 0.978
c 1.642 2.092 1.797
c 0.596 1.553 2.683
c -0.559 2.347 2.801
c -1.772 1.705 2.644
c -2.540 2.413 1.715
c -1.922 3.556 1.414
c -1.670 3.855 0.094
c -0.372 4.222 0.029
c 0.257 3.986 1.232
c -0.694 3.566 2.111




