%chk=000907.chk
%mem=8GB
%Nproc=32
#p B3LYP/6-31G* opt pop=NPA

Template file

0 1
c -1.378 1.574 -1.426
c -1.345 2.493 -0.345
c -0.322 3.432 -0.174
c 0.086 3.324 1.173
c 1.401 3.133 1.547
c 1.404 1.861 2.233
c 2.335 0.858 1.901
c 1.820 -0.505 1.855
c 2.256 -1.282 0.764
c 1.453 -2.263 0.230
c 1.346 -1.974 -1.161
c 0.138 -2.137 -1.783
c -0.468 -0.920 -2.287
c -1.859 -0.775 -1.972
c -2.189 0.423 -1.269
c -2.904 0.229 -0.016
c -2.306 0.837 1.108
c -1.774 -0.019 2.154
c -0.411 0.195 2.540
c 0.503 -0.883 2.334
c -0.182 1.531 -2.221
c 0.366 0.219 -2.480
c 1.805 0.076 -2.314
c 2.187 -0.967 -1.453
c 2.940 -0.690 -0.285
c 3.593 0.470 -0.174
c 3.344 1.280 0.968
c 3.429 2.603 0.486
c 2.374 3.488 0.660
c 1.956 3.863 -0.669
c 0.647 3.598 -1.102
c 0.725 2.633 -2.164
c 2.085 2.455 -2.382
c 2.639 1.185 -2.302
c 3.652 1.293 -1.289
c 3.705 2.562 -0.865
c 2.795 3.286 -1.537
c -0.098 -2.166 2.016
c 0.423 -2.877 0.872
c -0.464 -3.620 0.059
c -0.652 -3.151 -1.301
c -1.995 -3.172 -1.533
c -2.642 -1.931 -1.725
c -3.651 -1.934 -0.743
c -3.620 -0.925 0.211
c -3.432 -1.591 1.455
c -2.321 -1.256 2.228
c -1.476 -2.395 2.250
c -2.210 -3.423 1.628
c -1.689 -4.039 0.505
c -2.610 -3.865 -0.530
c -3.648 -3.155 -0.080
c -3.445 -2.918 1.242
c -1.696 2.017 0.928
c -0.694 2.420 1.770
c 0.071 1.496 2.466




