%chk=000890.chk
%mem=8GB
%Nproc=32
#p B3LYP/6-31G* opt pop=NPA

Template file

0 1
c 0.661 3.102 1.291
c 1.299 2.092 1.866
c 2.298 1.424 1.209
c 2.695 0.274 1.824
c 3.453 -0.645 1.172
c 3.098 -1.873 1.634
c 2.919 -2.717 0.640
c 1.632 -3.282 0.801
c 0.920 -3.541 -0.329
c -0.428 -3.169 -0.386
c -0.685 -2.699 -1.717
c -1.589 -1.669 -1.940
c -1.144 -0.445 -2.646
c -1.763 0.796 -2.354
c -0.904 1.964 -2.095
c -1.456 3.021 -1.325
c -0.672 3.629 -0.370
c -1.400 3.681 0.845
c -0.602 3.217 1.808
c -0.890 2.041 2.534
c 0.321 1.388 2.672
c 0.452 0.025 2.829
c 1.739 -0.455 2.647
c 1.983 -1.770 2.412
c 0.624 3.245 -0.101
c 1.301 2.308 -0.889
c 0.539 1.752 -2.000
c 1.058 0.611 -2.565
c 0.206 -0.433 -3.003
c 0.955 -1.582 -2.983
c 0.507 -2.721 -2.377
c 1.488 -3.207 -1.569
c 2.620 -2.370 -1.681
c 3.303 -2.068 -0.553
c 3.521 -0.684 -0.209
c 2.922 0.391 -0.960
c 2.338 1.500 -0.259
c 2.285 0.015 -2.156
c 2.216 -1.329 -2.511
c 1.005 -2.599 1.904
c -0.335 -2.127 1.855
c -1.098 -2.563 0.721
c -2.222 -1.843 0.413
c -2.522 -1.502 -0.954
c -3.285 -0.411 -0.926
c -3.007 0.738 -1.657
c -3.420 1.768 -0.848
c -2.715 2.876 -0.713
c -2.590 3.137 0.655
c -3.004 1.992 1.379
c -2.070 1.311 2.266
c -1.924 -0.159 2.179
c -0.668 -0.820 2.468
c -2.730 -0.807 1.210
c -3.555 -0.065 0.387
c -3.678 1.255 0.452




