%chk=000551.chk
%mem=8GB
%Nproc=48
#p B3LYP/6-31G* opt pop=NPA

Template file

0 1
c -1.016 -3.864 -0.798
c -1.214 -3.407 0.543
c -2.195 -2.426 0.821
c -1.721 -1.566 1.829
c -2.080 -0.197 1.910
c -1.213 0.676 2.614
c -1.178 2.065 2.393
c 0.134 2.543 2.625
c 0.671 3.588 1.810
c 1.931 3.393 1.268
c 1.850 3.486 -0.141
c 2.412 2.354 -0.716
c 1.704 1.554 -1.682
c 2.010 0.154 -1.740
c 1.183 -0.748 -2.487
c 1.389 -2.161 -2.296
c 0.362 -3.084 -2.440
c 0.282 -3.890 -1.280
c -1.751 -3.248 -1.798
c -0.864 -2.697 -2.752
c -1.164 -1.356 -2.946
c -0.166 -0.323 -2.831
c -0.597 0.977 -2.405
c 0.355 1.979 -2.025
c -0.141 3.160 -1.366
c 0.624 3.873 -0.453
c -0.101 4.034 0.750
c -1.335 3.554 0.533
c -1.922 2.586 1.330
c -2.573 1.693 0.481
c -2.802 0.356 0.795
c -3.067 -0.486 -0.281
c -2.932 -1.871 -0.230
c -2.662 -2.305 -1.517
c -2.375 -1.189 -2.288
c -2.665 -0.081 -1.604
c -1.941 1.067 -1.794
c -2.184 2.042 -0.861
c -1.399 3.117 -0.781
c 2.060 -2.588 -1.158
c 1.324 -3.563 -0.502
c 1.189 -3.172 0.820
c -0.099 -3.087 1.355
c -0.415 -1.979 2.162
c 0.550 -1.027 2.580
c 0.093 0.264 2.947
c 0.918 1.404 2.927
c 2.199 1.285 2.380
c 2.651 2.296 1.549
c 3.036 1.718 0.349
c 3.050 0.390 0.473
c 2.756 -0.415 -0.597
c 2.569 -1.733 -0.270
c 2.060 -2.104 1.025
c 1.856 -1.114 1.982
c 2.553 0.075 1.787




