%chk=000211.chk
%mem=8GB
%Nproc=32
#p B3LYP/6-31G* opt pop=NPA

Template file

0 1
c 1.048 -1.942 2.479
c -0.177 -2.497 1.978
c -0.107 -3.054 0.641
c -1.247 -2.942 -0.198
c -1.158 -2.568 -1.589
c -2.114 -1.576 -1.849
c -1.784 -0.397 -2.574
c -2.285 0.816 -1.979
c -1.523 1.981 -2.001
c -1.534 2.549 -0.696
c -0.313 3.000 -0.056
c -0.120 2.688 1.315
c 1.184 2.136 1.740
c 1.192 1.332 2.901
c 1.867 0.122 2.867
c 1.029 -0.890 3.350
c 2.143 -1.685 1.626
c 2.557 -0.329 1.800
c 2.834 0.508 0.712
c 2.174 1.835 0.733
c 2.040 2.466 -0.487
c 0.792 3.045 -0.886
c 0.663 2.780 -2.257
c -0.420 2.077 -2.776
c 0.091 0.926 -3.447
c -0.521 -0.341 -3.268
c 0.388 -1.427 -3.048
c 0.043 -2.506 -2.205
c 1.148 -2.815 -1.440
c 1.122 -2.989 -0.064
c 2.218 -2.239 0.414
c 2.798 -1.525 -0.652
c 3.130 -0.143 -0.547
c 2.990 0.602 -1.726
c 2.599 1.918 -1.639
c 1.773 2.183 -2.680
c 1.490 1.061 -3.376
c 2.296 0.064 -2.890
c 1.786 -1.189 -2.836
c 2.169 -1.991 -1.795
c -2.362 -2.335 0.277
c -2.886 -1.512 -0.705
c -3.324 -0.363 -0.125
c -2.991 0.824 -0.760
c -2.522 1.906 0.015
c -2.426 1.792 1.381
c -1.279 2.276 2.047
c -1.155 1.501 3.173
c 0.024 1.054 3.596
c -0.092 -0.331 3.795
c -1.327 -0.767 3.365
c -1.421 -1.856 2.447
c -2.471 -1.744 1.506
c -3.157 -0.505 1.266
c -2.840 0.592 2.028
c -2.032 0.422 3.100




