%chk=000311.chk
%mem=8GB
%Nproc=32
#p B3LYP/6-31G* opt pop=NPA

Template file

0 1
c 2.451 -0.166 2.070
c 2.186 -1.188 1.159
c 2.342 -0.920 -0.256
c 1.687 -1.802 -1.199
c 1.139 -1.240 -2.411
c -0.251 -1.537 -2.743
c -1.131 -0.409 -2.916
c -2.200 -0.254 -1.935
c -2.270 0.981 -1.190
c -2.342 0.920 0.256
c -1.653 1.938 1.021
c -1.369 1.691 2.364
c -0.248 2.264 2.972
c 0.260 1.380 3.873
c 1.569 1.196 3.617
c 1.778 -0.109 3.293
c 2.585 1.185 1.631
c 1.930 1.973 2.577
c 0.809 2.736 2.185
c 0.609 2.972 0.865
c -0.743 2.825 0.336
c -0.878 2.992 -1.013
c -1.666 2.087 -1.786
c -1.018 1.968 -3.018
c -0.605 0.710 -3.471
c 0.798 0.808 -3.601
c 1.615 -0.039 -2.852
c 2.387 0.801 -1.995
c 2.625 0.439 -0.669
c 2.511 1.500 0.304
c 1.693 2.661 -0.032
c 1.523 2.966 -1.341
c 0.231 3.314 -1.794
c 0.063 2.795 -3.026
c 1.156 2.085 -3.360
c 2.037 2.113 -2.324
c -1.478 0.374 2.902
c -0.385 0.203 3.751
c 0.570 -0.795 3.458
c 0.235 -1.783 2.592
c 1.210 -2.167 1.576
c 0.796 -3.108 0.676
c 1.055 -2.948 -0.718
c -0.056 -3.480 -1.380
c -0.795 -2.680 -2.259
c -2.095 -2.634 -1.711
c -2.640 -1.404 -1.344
c -2.859 -1.465 0.065
c -2.574 -0.368 0.878
c -1.917 -0.663 2.129
c -1.156 -1.904 2.234
c -1.502 -2.937 1.427
c -0.479 -3.663 0.779
c -0.913 -3.992 -0.454
c -2.135 -3.463 -0.649
c -2.493 -2.756 0.457




