%chk=000401.chk
%mem=8GB
%Nproc=32
#p B3LYP/6-31G* opt pop=NPA

Template file

0 1
c -0.721 1.943 -3.381
c 0.565 1.581 -3.671
c 0.979 0.277 -3.460
c 2.139 0.366 -2.587
c 2.419 -0.596 -1.640
c 2.749 -0.193 -0.264
c 2.686 -1.164 0.790
c 2.555 -0.736 2.109
c 1.821 -1.510 3.039
c 1.217 -0.697 3.895
c -0.134 -0.958 3.926
c -0.755 0.241 3.744
c -1.738 0.401 2.827
c -1.458 1.622 2.125
c -1.979 1.914 0.884
c -1.196 2.692 -0.030
c -1.569 2.659 -1.409
c -0.668 2.949 -2.391
c -1.662 1.029 -3.034
c -2.334 1.580 -1.896
c -2.979 0.766 -1.029
c -2.836 0.919 0.357
c -2.909 -0.382 0.952
c -2.246 -0.713 2.118
c -1.491 -1.980 2.160
c -0.397 -2.025 3.072
c 0.890 -2.451 2.609
c 1.027 -2.939 1.370
c 2.029 -2.395 0.501
c 1.605 -2.650 -0.760
c 1.718 -1.791 -1.808
c 0.488 -1.853 -2.540
c 0.029 -0.751 -3.264
c -1.371 -0.374 -3.071
c -2.156 -1.185 -2.214
c -2.985 -0.581 -1.283
c -2.957 -1.265 -0.098
c -2.153 -2.355 -0.198
c -1.373 -2.738 0.925
c -0.090 -3.238 0.588
c 0.342 -3.181 -0.728
c -0.370 -2.692 -1.789
c -1.655 -2.320 -1.556
c 2.256 0.623 2.418
c 1.445 0.601 3.551
c 0.231 1.217 3.519
c -0.143 1.997 2.468
c 0.763 2.331 1.447
c 0.236 2.886 0.271
c 1.112 2.999 -0.817
c 0.641 3.189 -2.106
c 1.377 2.410 -2.950
c 2.266 1.696 -2.249
c 2.218 2.090 -0.918
c 2.519 1.210 0.098
c 2.005 1.524 1.379




