%chk=000063.chk
%mem=8GB
%Nproc=32
#p B3LYP/6-31G* opt pop=NPA

Template file

0 1
c 2.263 -0.852 1.368
c 1.249 -1.037 2.302
c 0.128 -1.829 1.851
c -1.191 -1.218 2.027
c -2.104 -1.285 0.965
c -2.578 -0.033 0.374
c -2.605 0.006 -1.069
c -1.952 1.088 -1.650
c -0.966 0.861 -2.650
c 0.110 1.696 -2.309
c 1.427 1.185 -2.229
c 2.196 1.568 -1.061
c 2.800 0.515 -0.334
c 2.710 0.464 1.065
c 2.345 -1.634 0.237
c 2.754 -0.775 -0.817
c 2.351 -1.054 -2.090
c 1.589 -0.086 -2.786
c 0.546 -0.798 -3.440
c -0.810 -0.370 -3.280
c -1.771 -1.370 -2.968
c -2.592 -1.181 -1.798
c -2.538 -2.381 -1.111
c -2.049 -2.401 0.183
c -0.887 -3.239 0.164
c 0.286 -2.779 0.806
c 1.489 -2.724 -0.018
c 1.414 -3.174 -1.370
c 1.835 -2.278 -2.372
c 0.842 -2.156 -3.318
c -0.095 -3.094 -3.077
c -1.410 -2.731 -2.985
c -1.883 -3.290 -1.839
c -0.854 -3.826 -1.100
c 0.264 -3.750 -1.867
c -1.605 2.196 -0.908
c -0.333 2.614 -1.381
c 0.521 3.235 -0.518
c 1.786 2.651 -0.279
c 2.005 2.736 1.123
c 2.382 1.564 1.852
c 1.674 1.296 3.056
c 1.046 0.007 3.202
c -0.242 0.269 3.635
c -1.314 -0.154 2.871
c -2.025 1.027 2.480
c -2.416 1.162 1.128
c -1.959 2.367 0.445
c -1.209 3.330 1.184
c 0.046 3.707 0.664
c 1.004 3.559 1.641
c 0.386 3.315 2.813
c 0.765 2.242 3.570
c -0.375 1.574 3.890
c -1.446 2.079 3.188
c -1.004 3.187 2.540




