%chk=000597.chk
%mem=8GB
%Nproc=16
#p B3LYP/6-31G* opt pop=NPA

Template file

0 1
c -2.283 0.708 1.640
c -3.122 0.480 0.627
c -3.514 -0.817 0.275
c -3.978 -0.723 -1.028
c -3.683 -1.655 -1.977
c -3.113 -0.971 -3.041
c -1.895 -1.487 -3.318
c -0.947 -0.465 -3.247
c 0.322 -0.695 -2.731
c 1.065 0.418 -2.321
c 2.311 0.177 -1.791
c 3.028 1.151 -1.201
c 3.815 0.620 -0.193
c 3.944 1.535 0.773
c 3.662 1.197 2.067
c 2.852 2.175 2.544
c 1.794 1.650 3.151
c 0.660 2.265 2.643
c -0.488 1.572 2.609
c -1.410 1.782 1.619
c -1.651 -0.349 2.311
c -0.516 0.187 2.924
c 0.710 -0.513 3.031
c 1.888 0.246 3.141
c 3.053 -0.049 2.361
c 2.951 -1.049 1.353
c 3.369 -0.676 0.036
c 2.567 -1.022 -1.074
c 1.601 -1.998 -1.060
c 0.566 -1.962 -2.027
c -0.567 -2.780 -1.823
c -1.723 -2.590 -2.516
c -2.812 -2.656 -1.634
c -2.301 -2.798 -0.344
c -2.679 -1.908 0.712
c -1.708 -1.639 1.747
c -0.422 -2.241 1.685
c 0.741 -1.678 2.266
c 1.831 -1.898 1.386
c 1.275 -2.477 0.237
c -0.035 -2.862 0.506
c -0.934 -3.085 -0.493
c -2.985 1.255 -0.545
c -3.591 0.542 -1.528
c -2.980 0.350 -2.731
c -1.640 0.723 -2.855
c -1.024 1.626 -1.951
c 0.379 1.640 -1.866
c 1.047 2.476 -0.908
c 2.461 2.344 -0.770
c 3.125 2.642 0.412
c 2.438 3.011 1.513
c 1.052 3.022 1.496
c 0.302 2.862 0.282
c -1.043 2.414 0.378
c -1.765 1.976 -0.753




