%chk=000224.chk
%mem=8GB
%Nproc=32
#p B3LYP/6-31G* opt pop=NPA

Template file

0 1
c 1.742 -0.939 2.646
c 0.504 -1.600 2.770
c 0.147 -2.557 1.719
c -1.221 -2.665 1.354
c -1.626 -2.689 -0.002
c -2.672 -1.710 -0.152
c -2.698 -0.833 -1.239
c -2.713 0.611 -0.955
c -1.917 1.464 -1.847
c -1.212 2.527 -1.275
c 0.195 2.723 -1.495
c 0.763 3.113 -0.262
c 1.958 2.545 0.213
c 1.991 2.227 1.605
c 2.600 1.049 2.002
c 1.835 0.424 2.948
c 2.585 -1.139 1.540
c 3.101 0.122 1.136
c 3.192 0.443 -0.206
c 2.612 1.651 -0.678
c 2.122 1.390 -1.968
c 0.878 1.943 -2.415
c 0.097 1.154 -3.263
c -1.302 0.906 -2.964
c -1.531 -0.414 -3.286
c -2.038 -1.300 -2.364
c -1.074 -2.382 -2.276
c -0.753 -2.942 -1.034
c 0.630 -2.997 -0.679
c 1.056 -2.769 0.652
c 2.269 -2.069 0.574
c 2.560 -1.821 -0.775
c 3.015 -0.537 -1.170
c 2.483 0.059 -2.311
c 1.698 -0.670 -3.178
c 0.605 -0.044 -3.757
c -0.403 -0.934 -3.810
c -0.067 -2.079 -3.182
c 1.260 -1.982 -2.796
c 1.619 -2.482 -1.555
c -1.460 2.903 0.005
c -0.294 3.296 0.614
c -0.311 2.903 1.925
c 0.854 2.370 2.449
c 0.772 1.220 3.277
c -0.435 0.606 3.511
c -0.546 -0.811 3.359
c -1.837 -1.030 2.968
c -2.153 -1.911 2.008
c -2.971 -1.275 1.084
c -3.101 0.058 1.418
c -2.924 1.042 0.426
c -2.241 2.203 0.881
c -1.553 2.264 2.141
c -1.629 1.192 3.003
c -2.458 0.173 2.668




