%chk=000325.chk
%mem=8GB
%Nproc=16
#p B3LYP/6-31G* opt pop=NPA

Template file

0 1
c 0.092 -2.645 1.903
c 0.902 -2.875 0.752
c 2.064 -2.031 0.577
c 2.326 -1.587 -0.763
c 2.946 -0.371 -1.036
c 2.227 0.271 -2.087
c 1.997 1.675 -2.061
c 0.713 2.062 -2.454
c 0.030 2.988 -1.646
c -1.249 2.616 -1.535
c -1.631 2.606 -0.178
c -2.472 1.585 0.274
c -2.167 0.941 1.533
c -2.608 -0.464 1.688
c -1.742 -1.340 2.380
c -1.326 -2.605 1.834
c 0.443 -1.657 2.754
c -0.665 -0.843 3.001
c -0.273 0.457 3.015
c -0.988 1.429 2.266
c -0.185 2.539 1.783
c -0.532 3.082 0.532
c 0.485 3.425 -0.442
c 1.797 3.281 -0.168
c 2.599 2.400 -1.000
c 3.454 1.753 -0.120
c 3.519 0.365 -0.037
c 3.266 -0.001 1.315
c 2.483 -1.122 1.629
c 1.547 -0.901 2.673
c 1.136 0.419 3.052
c 1.863 1.468 2.685
c 1.219 2.581 2.083
c 2.147 3.052 1.133
c 3.218 2.222 1.127
c 3.045 1.219 1.987
c 1.414 -1.819 -1.799
c 1.259 -0.637 -2.546
c -0.029 -0.243 -3.014
c -0.267 1.146 -2.910
c -1.509 1.595 -2.398
c -2.480 0.736 -2.078
c -3.068 0.805 -0.760
c -3.552 -0.425 -0.522
c -3.343 -1.097 0.661
c -3.047 -2.425 0.265
c -1.976 -3.124 0.778
c -1.197 -3.521 -0.318
c 0.167 -3.292 -0.386
c 0.382 -2.686 -1.648
c -0.860 -2.439 -2.267
c -1.132 -1.155 -2.842
c -2.409 -0.593 -2.467
c -3.254 -1.265 -1.603
c -2.976 -2.479 -1.123
c -1.804 -3.079 -1.469




