%chk=000874.chk
%mem=8GB
%Nproc=32
#p B3LYP/6-31G* opt pop=NPA

Template file

0 1
c -1.783 -0.344 2.102
c -1.065 -1.525 2.427
c 0.212 -1.481 2.984
c 1.097 -2.175 2.084
c 2.268 -1.574 1.601
c 2.331 -1.382 0.129
c 2.759 -0.085 -0.338
c 2.126 0.456 -1.511
c 1.691 1.827 -1.396
c 0.504 2.255 -1.951
c -0.255 2.845 -0.912
c -1.568 2.449 -0.767
c -1.947 1.900 0.475
c -2.753 0.786 0.174
c -2.606 -0.410 0.904
c -2.689 -1.639 0.103
c -1.735 -2.623 0.412
c -0.815 -3.111 -0.580
c 0.474 -2.955 -0.072
c 1.459 -2.157 -0.734
c -1.141 0.890 2.535
c -1.121 1.997 1.614
c 0.104 2.789 1.492
c 0.552 2.997 0.166
c 1.843 2.527 -0.226
c 2.725 2.167 0.695
c 3.247 0.831 0.646
c 3.422 0.486 1.975
c 2.815 -0.643 2.479
c 2.017 -0.165 3.588
c 0.660 -0.421 3.622
c -0.041 0.817 3.447
c 0.956 1.782 3.489
c 1.111 2.675 2.445
c 2.471 2.493 2.009
c 3.050 1.562 2.774
c 2.180 1.156 3.694
c 1.088 -1.717 -2.055
c 1.395 -0.351 -2.427
c 0.446 0.315 -3.302
c -0.092 1.563 -2.926
c -1.502 1.491 -2.989
c -2.210 1.787 -1.796
c -3.028 0.791 -1.218
c -3.274 -0.380 -1.926
c -3.045 -1.599 -1.258
c -2.320 -2.402 -2.186
c -1.075 -2.924 -1.850
c -0.087 -2.305 -2.671
c -0.826 -1.644 -3.641
c -0.591 -0.347 -3.898
c -1.798 0.372 -3.679
c -2.743 -0.516 -3.229
c -2.179 -1.743 -3.323
c -1.027 -2.540 1.530
c 0.311 -2.846 1.264




