%chk=000843.chk
%mem=8GB
%Nproc=32
#p B3LYP/6-31G* opt pop=NPA

Template file

0 1
c -2.748 0.725 3.360
c -1.566 0.743 4.050
c -0.534 1.422 3.545
c 0.560 0.576 3.472
c 1.321 0.928 2.415
c 1.981 0.005 1.648
c 2.605 0.479 0.500
c 3.082 -0.451 -0.410
c 3.546 -0.081 -1.631
c 3.054 -0.956 -2.598
c 2.732 -0.219 -3.710
c 1.464 -0.292 -4.182
c 0.935 1.027 -4.180
c -0.316 0.965 -3.721
c -0.784 1.691 -2.624
c -1.709 0.888 -1.973
c -2.154 1.085 -0.696
c -2.786 -0.003 -0.058
c -3.287 0.175 1.227
c -3.471 -0.927 2.075
c -3.162 -0.568 3.337
c -2.154 -1.404 3.829
c -1.146 -0.601 4.248
c 0.156 -0.723 3.722
c -2.780 1.235 2.030
c -1.718 2.040 1.504
c -1.447 2.045 0.103
c -0.159 2.464 -0.435
c 0.120 2.449 -1.834
c 1.475 2.431 -2.300
c 1.832 1.848 -3.549
c 2.966 1.120 -3.378
c 3.373 1.203 -2.096
c 2.497 2.042 -1.390
c 2.161 1.757 -0.071
c 0.957 2.277 0.449
c 0.675 2.012 1.760
c -0.577 2.130 2.343
c 0.478 -1.689 2.702
c 1.440 -1.348 1.687
c 1.420 -1.997 0.405
c 2.335 -1.634 -0.562
c 2.147 -1.806 -1.951
c 0.817 -1.947 -2.434
c 0.507 -1.136 -3.585
c -0.636 -0.362 -3.487
c -1.497 -0.434 -2.452
c -1.464 -1.457 -1.542
c -2.299 -1.337 -0.437
c -2.127 -2.231 0.607
c -2.776 -2.081 1.790
c -1.889 -2.316 2.839
c -0.620 -2.481 2.267
c -0.810 -2.648 0.878
c 0.174 -2.476 -0.076
c -0.192 -2.158 -1.429




