%chk=000796.chk
%mem=8GB
%Nproc=16
#p B3LYP/6-31G* opt pop=NPA

Template file

0 1
c -2.575 0.567 -2.839
c -2.945 1.320 -1.775
c -2.083 2.165 -1.169
c -2.230 1.984 0.245
c -1.232 2.345 1.125
c -0.976 1.497 2.262
c 0.259 1.691 2.927
c 0.905 0.611 3.505
c 2.244 0.731 3.295
c 2.734 -0.393 2.726
c 3.423 -0.027 1.573
c 3.231 -0.809 0.435
c 3.050 -0.212 -0.828
c 2.206 -1.016 -1.592
c 1.297 -0.491 -2.544
c 0.244 -1.327 -2.922
c -0.926 -0.792 -3.396
c -2.000 -1.566 -2.985
c -3.009 -0.726 -2.612
c -3.571 -0.794 -1.326
c -3.528 0.498 -0.828
c -3.030 0.844 0.430
c -1.242 0.555 -3.270
c -0.299 1.429 -2.707
c 1.063 0.943 -2.535
c 1.933 1.711 -1.747
c 2.953 1.167 -0.928
c 3.080 1.962 0.242
c 3.324 1.390 1.474
c 2.518 1.804 2.558
c 1.309 2.498 2.367
c 1.107 3.103 1.167
c -0.139 3.047 0.548
c 0.082 2.972 -0.865
c -0.808 2.390 -1.719
c 1.424 2.775 -1.027
c 2.064 2.901 0.158
c -2.650 -0.142 1.355
c -1.574 0.160 2.274
c -0.715 -0.947 2.718
c 0.537 -0.676 3.232
c 1.721 -1.337 2.706
c 1.601 -2.220 1.637
c 2.389 -1.937 0.477
c 1.851 -2.140 -0.806
c 0.651 -2.835 -1.026
c -0.114 -2.478 -2.156
c -1.540 -2.560 -2.165
c -2.205 -2.763 -0.953
c -3.156 -1.795 -0.483
c -2.803 -1.485 0.867
c -1.862 -2.406 1.224
c -0.806 -2.149 2.025
c 0.344 -2.735 1.398
c -0.071 -3.188 0.135
c -1.453 -3.114 0.117




