%chk=000716.chk
%mem=8GB
%Nproc=16
#p B3LYP/6-31G* opt pop=NPA

Template file

0 1
c -1.370 1.051 -2.911
c -0.186 1.695 -3.278
c 0.970 1.009 -3.483
c 1.924 1.514 -2.591
c 2.594 0.486 -2.015
c 2.855 0.495 -0.599
c 2.964 -0.773 -0.016
c 2.509 -1.067 1.286
c 1.991 -2.397 1.255
c 0.869 -2.721 1.964
c -0.185 -3.342 1.257
c -1.345 -2.757 1.627
c -2.080 -2.386 0.495
c -2.708 -1.100 0.449
c -2.646 -0.353 -0.780
c -2.581 1.107 -0.733
c -1.912 1.750 -1.817
c -1.018 2.834 -1.573
c 0.062 2.681 -2.386
c 1.381 2.539 -1.873
c -1.376 -0.326 -2.920
c -2.032 -1.021 -1.908
c -1.365 -2.258 -1.780
c -1.384 -2.932 -0.589
c -0.186 -3.537 -0.103
c 1.001 -3.364 -0.786
c 2.085 -2.845 -0.051
c 2.713 -1.918 -0.793
c 2.162 -1.884 -2.053
c 2.137 -0.695 -2.696
c 1.017 -0.342 -3.474
c -0.192 -1.051 -3.280
c -0.188 -2.228 -2.567
c 1.015 -2.724 -2.023
c 1.592 2.639 -0.494
c 2.325 1.567 0.209
c 1.988 1.293 1.616
c 1.960 -0.081 2.114
c 0.888 -0.512 3.030
c 0.306 -1.795 2.819
c -1.121 -1.916 2.662
c -1.913 -0.836 2.787
c -2.709 -0.381 1.667
c -2.705 1.014 1.719
c -2.552 1.786 0.543
c -1.665 2.930 0.686
c -0.807 3.267 -0.330
c 0.550 3.270 0.193
c 0.427 3.146 1.510
c 1.118 2.198 2.262
c 0.190 1.764 3.203
c 0.009 0.454 3.515
c -1.402 0.246 3.395
c -1.985 1.359 2.891
c -1.064 2.337 2.903
c -0.924 3.110 1.847




