%chk=000690.chk
%mem=8GB
%Nproc=32
#p B3LYP/6-31G* opt pop=NPA

Template file

0 1
c -1.857 0.918 2.978
c -0.803 1.560 3.589
c -0.443 2.632 2.912
c 0.948 2.511 2.613
c 1.366 2.922 1.386
c 2.185 2.103 0.543
c 1.815 2.366 -0.793
c 1.866 1.415 -1.820
c 0.789 1.487 -2.780
c 0.356 0.371 -3.474
c -1.063 0.366 -3.399
c -1.788 -0.727 -2.980
c -2.522 -0.303 -1.815
c -2.576 -1.109 -0.639
c -2.553 -0.456 0.639
c -1.921 -1.174 1.761
c -1.556 -0.417 2.888
c -0.240 -0.543 3.472
c 0.224 0.718 3.744
c 1.359 1.258 3.083
c -2.249 1.665 1.894
c -2.609 1.022 0.689
c -2.379 1.772 -0.518
c -2.381 1.085 -1.725
c -1.460 1.443 -2.731
c -0.384 2.247 -2.481
c -0.435 3.036 -1.412
c 0.720 3.242 -0.711
c 0.424 3.508 0.559
c -0.976 3.358 0.746
c -1.396 2.831 1.909
c -1.487 2.908 -0.456
c 2.161 0.401 2.284
c 2.589 0.817 0.935
c 2.782 -0.172 -0.132
c 2.428 0.130 -1.522
c 2.035 -0.963 -2.382
c 0.995 -0.817 -3.344
c 0.216 -1.974 -3.306
c -1.181 -1.936 -3.028
c -1.377 -2.794 -1.977
c -1.985 -2.400 -0.772
c -1.206 -2.956 0.253
c -1.129 -2.349 1.504
c 0.159 -2.430 2.141
c 0.610 -1.422 2.961
c 1.884 -0.960 2.450
c 2.229 -1.847 1.507
c 2.688 -1.537 0.248
c 2.177 -2.542 -0.595
c 1.932 -2.286 -1.907
c 0.798 -2.865 -2.487
c -0.195 -3.437 -1.702
c -0.047 -3.554 -0.370
c 1.205 -3.294 0.163
c 1.258 -2.827 1.406




