%chk=000094.chk
%mem=8GB
%Nproc=48
#p B3LYP/6-31G* opt pop=NPA

Template file

0 1
c -3.558 0.962 0.876
c -3.167 0.584 2.130
c -1.889 0.909 2.570
c -1.249 -0.333 2.904
c 0.111 -0.523 2.693
c 0.530 -1.763 2.022
c 1.826 -1.783 1.381
c 1.990 -2.538 0.206
c 2.559 -1.937 -0.986
c 1.750 -2.339 -2.027
c 1.039 -1.420 -2.780
c -0.353 -1.831 -2.693
c -1.389 -0.914 -2.524
c -2.470 -1.221 -1.594
c -3.224 -0.130 -1.079
c -3.852 -0.202 0.143
c -2.784 1.783 0.124
c -2.697 1.176 -1.156
c -1.637 1.456 -1.952
c -0.987 0.437 -2.658
c 0.367 0.837 -2.805
c 1.434 -0.089 -2.744
c 2.606 0.289 -1.963
c 3.083 -0.679 -0.962
c 3.388 -0.194 0.325
c 2.617 -0.650 1.451
c 2.237 0.493 2.174
c 0.897 0.651 2.565
c 0.237 1.929 2.196
c -1.146 1.917 1.960
c -1.640 2.426 0.665
c -0.699 2.954 -0.242
c -0.704 2.406 -1.576
c 0.496 2.110 -2.253
c 1.687 2.555 -1.766
c 2.788 1.654 -1.645
c 3.440 2.034 -0.469
c 3.645 1.114 0.522
c 2.960 1.544 1.667
c 2.377 2.740 1.384
c 1.004 2.875 1.498
c 0.539 3.342 0.228
c 1.661 3.345 -0.616
c 2.744 3.062 0.104
c 0.985 -3.369 -0.221
c 0.896 -3.262 -1.570
c -0.368 -2.988 -1.930
c -1.178 -3.119 -0.826
c -2.316 -2.372 -0.686
c -2.789 -2.253 0.632
c -3.681 -1.269 0.976
c -3.316 -0.763 2.195
c -2.167 -1.331 2.601
c -1.838 -2.341 1.730
c -0.516 -2.660 1.504
c -0.277 -3.311 0.300




