%chk=000005.chk
%mem=8GB
%Nproc=32
#p B3LYP/6-31G* opt pop=NPA

Template file

0 1
c 0.348 -1.499 -2.087
c 0.239 -2.591 -1.169
c -0.816 -2.456 -0.202
c -0.351 -2.506 1.122
c -0.716 -1.454 1.952
c 0.478 -0.951 2.457
c 0.717 0.425 2.276
c 1.943 0.712 1.623
c 1.813 1.448 0.394
c 2.476 0.881 -0.741
c 1.605 0.542 -1.816
c 1.613 -0.849 -2.202
c -0.764 -0.735 -2.306
c -0.689 0.639 -2.508
c 0.448 1.297 -1.998
c 0.143 2.373 -1.125
c 0.682 2.244 0.202
c -0.255 2.403 1.271
c -0.389 1.257 2.106
c -1.716 0.695 2.178
c -1.807 -0.659 1.739
c -2.626 -0.939 0.600
c -1.956 -1.643 -0.459
c -1.985 -0.950 -1.679
c -2.798 0.161 -1.889
c -1.956 1.182 -2.420
c -2.153 2.489 -2.021
c -1.069 3.066 -1.276
c -1.666 3.694 -0.197
c -1.364 3.226 1.096
c -2.612 2.867 1.643
c -2.805 1.522 1.993
c -3.863 1.074 1.170
c -3.636 -0.006 0.319
c -3.790 0.523 -1.000
c -4.182 1.860 -0.884
c -3.344 2.864 -1.407
c -3.026 3.700 -0.358
c -3.609 3.242 0.771
c -4.331 2.138 0.455
c 0.942 -2.906 1.446
c 1.472 -1.898 2.305
c 2.798 -1.535 2.175
c 3.018 -0.184 1.741
c 3.978 -0.275 0.749
c 3.626 0.119 -0.557
c 3.857 -1.024 -1.346
c 2.757 -1.593 -2.005
c 2.633 -2.893 -1.463
c 1.437 -3.247 -0.844
c 1.784 -3.490 0.522
c 3.170 -3.357 0.643
c 3.687 -2.357 1.489
c 4.481 -1.548 0.706
c 4.454 -1.993 -0.569
c 3.678 -3.104 -0.611




