%chk=000010.chk
%mem=8GB
%Nproc=32
#p B3LYP/6-31G* opt pop=NPA

Template file

0 1
c -1.287 1.848 2.613
c -2.374 1.024 2.282
c -2.189 -0.415 2.184
c -2.950 -1.032 1.198
c -2.352 -2.009 0.353
c -2.815 -1.728 -0.934
c -1.933 -1.472 -1.969
c -2.195 -0.144 -2.410
c -1.109 0.746 -2.596
c -1.275 2.027 -2.022
c -0.180 2.662 -1.378
c -0.709 3.358 -0.316
c -0.182 3.255 0.951
c -1.298 2.940 1.767
c -0.097 1.307 2.905
c 1.095 1.827 2.311
c 1.037 2.623 1.146
c 1.797 2.141 -0.002
c 1.084 2.070 -1.285
c 1.339 0.978 -2.155
c 0.199 0.198 -2.644
c 0.338 -1.245 -2.591
c -0.685 -1.963 -1.907
c -0.325 -2.727 -0.713
c -1.055 -2.466 0.508
c -0.318 -2.080 1.674
c -0.884 -0.975 2.472
c 0.065 -0.084 3.012
c 1.396 -0.312 2.851
c 2.010 0.857 2.404
c 2.931 0.548 1.471
c 2.883 1.221 0.207
c 3.355 0.457 -0.857
c 2.563 0.329 -2.043
c 2.713 -0.983 -2.471
c 1.586 -1.804 -2.573
c 1.840 -2.890 -1.702
c 0.966 -3.150 -0.645
c 1.709 -2.998 0.555
c 1.119 -2.340 1.653
c 1.961 -1.364 2.238
c 3.114 -0.856 1.555
c 3.666 -1.531 0.542
c 3.941 -0.810 -0.643
c 3.625 -1.610 -1.681
c 3.089 -2.760 -1.213
c 3.035 -2.719 0.143
c -2.473 2.396 -1.314
c -2.076 3.192 -0.280
c -2.429 2.904 1.022
c -3.156 1.764 1.333
c -3.782 1.102 0.314
c -3.820 -0.271 0.375
c -3.700 -0.738 -0.879
c -3.360 0.260 -1.742
c -3.450 1.444 -1.070




