%chk=000497.chk
%mem=8GB
%Nproc=16
#p B3LYP/6-31G* opt pop=NPA

Template file

0 1
c -2.800 1.328 0.438
c -3.175 0.022 0.653
c -2.820 -0.631 1.871
c -2.533 -1.930 1.553
c -1.380 -2.603 1.952
c -0.945 -3.325 0.808
c 0.414 -3.449 0.552
c 0.926 -3.208 -0.739
c 2.102 -2.390 -0.614
c 2.399 -1.323 -1.485
c 2.903 -0.078 -0.919
c 2.739 1.079 -1.698
c 2.595 2.319 -1.098
c 1.676 3.035 -1.806
c 0.745 3.544 -1.000
c -0.506 3.152 -1.492
c -1.472 2.825 -0.591
c -2.341 1.745 -0.818
c -2.083 2.024 1.434
c -1.197 2.891 0.797
c 0.162 3.060 1.270
c 1.125 3.300 0.313
c 2.317 2.472 0.240
c 2.512 1.404 1.108
c 2.893 0.109 0.540
c 2.602 -1.026 1.324
c 2.287 -2.220 0.727
c 1.285 -2.857 1.432
c 0.912 -2.084 2.506
c -0.470 -1.939 2.822
c -0.862 -0.660 3.290
c -2.026 0.007 2.797
c -1.707 1.362 2.603
c -0.413 1.535 3.036
c 0.539 2.249 2.337
c 1.697 1.411 2.263
c 1.394 0.233 2.966
c 1.809 -0.972 2.498
c 0.095 0.335 3.427
c 1.838 1.102 -2.822
c 1.126 2.283 -2.765
c -0.277 2.309 -2.608
c -1.023 1.126 -2.796
c -2.132 0.823 -1.899
c -2.518 -0.560 -1.652
c -3.073 -0.904 -0.393
c -2.742 -2.122 0.216
c -1.816 -3.001 -0.268
c -1.321 -2.761 -1.524
c 0.055 -2.961 -1.780
c 0.421 -2.032 -2.699
c 1.549 -1.236 -2.626
c 1.177 -0.007 -3.160
c -0.261 0.025 -3.263
c -0.668 -1.241 -3.019
c -1.732 -1.589 -2.241




