%chk=000714.chk
%mem=8GB
%Nproc=16
#p B3LYP/6-31G* opt pop=NPA

Template file

0 1
c -1.818 1.063 -2.638
c -1.895 2.163 -1.817
c -0.857 3.007 -1.532
c -0.883 3.209 -0.125
c 0.293 3.361 0.561
c 0.432 2.730 1.803
c 1.760 2.286 1.854
c 2.122 1.041 2.310
c 2.847 0.392 1.278
c 2.589 -0.981 0.961
c 2.511 -1.318 -0.462
c 1.613 -2.361 -0.891
c 0.923 -2.193 -2.140
c -0.422 -2.529 -2.238
c -1.104 -1.540 -2.877
c -2.256 -1.257 -2.148
c -2.587 0.050 -1.992
c -2.967 0.516 -0.704
c -2.544 1.817 -0.650
c -1.920 2.398 0.423
c -0.583 0.777 -3.292
c -0.229 -0.592 -3.339
c 1.071 -1.055 -2.930
c 2.026 -0.158 -2.620
c 2.769 -0.271 -1.412
c 3.051 1.047 -1.017
c 3.071 1.371 0.300
c 2.377 2.534 0.690
c 1.529 3.252 -0.138
c 1.549 2.956 -1.490
c 0.346 2.814 -2.204
c 0.474 1.690 -3.071
c 1.755 1.185 -2.837
c 2.382 1.915 -1.900
c -1.795 1.671 1.618
c -0.575 1.915 2.376
c -0.105 0.869 3.184
c 1.249 0.370 3.061
c 1.214 -1.009 3.028
c 1.821 -1.732 1.922
c 1.066 -2.840 1.460
c 0.906 -3.081 0.092
c -0.487 -3.431 -0.104
c -1.150 -2.990 -1.197
c -2.296 -2.133 -1.059
c -2.725 -1.719 0.236
c -2.934 -0.289 0.448
c -2.448 0.351 1.682
c -2.026 -0.511 2.701
c -0.864 -0.210 3.417
c -0.056 -1.340 3.480
c -0.739 -2.364 2.995
c -0.180 -3.146 2.057
c -1.107 -3.341 1.083
c -2.222 -2.475 1.300
c -1.969 -1.886 2.505




