%chk=000287.chk
%mem=8GB
%Nproc=32
#p B3LYP/6-31G* opt pop=NPA

Template file

0 1
c 1.477 -2.237 -1.824
c 0.729 -1.739 -2.903
c 0.885 -0.377 -3.271
c -0.396 0.226 -3.258
c -0.647 1.428 -2.515
c -1.810 1.410 -1.582
c -1.745 2.113 -0.334
c -2.367 1.544 0.877
c -1.712 1.820 2.128
c -1.649 0.865 3.115
c -0.303 0.642 3.442
c -0.029 -0.710 3.352
c 1.046 -1.147 2.518
c 0.747 -2.294 1.649
c 1.448 -2.415 0.452
c 0.820 -2.867 -0.757
c 2.510 -1.474 -1.313
c 2.470 -1.533 0.110
c 2.821 -0.409 0.918
c 2.005 -0.140 2.080
c 1.708 1.283 2.371
c 0.444 1.580 2.887
c -0.478 2.433 2.159
c -0.024 3.122 1.116
c -0.623 2.961 -0.165
c 0.428 3.070 -1.105
c 0.495 2.223 -2.227
c 1.816 1.659 -2.500
c 1.950 0.319 -2.851
c 2.866 -0.290 -1.933
c 3.391 0.696 -1.194
c 3.407 0.684 0.215
c 3.112 1.985 0.568
c 2.225 2.280 1.547
c 1.319 3.213 0.952
c 1.599 3.343 -0.361
c 2.768 2.712 -0.593
c 2.878 1.909 -1.637
c -0.593 -2.005 -2.947
c -1.271 -0.808 -3.213
c -2.371 -0.780 -2.461
c -2.658 0.270 -1.607
c -3.179 -0.322 -0.435
c -3.087 0.284 0.813
c -2.999 -0.631 1.931
c -2.253 -0.297 3.029
c -1.282 -1.296 3.269
c -1.538 -2.299 2.446
c -0.585 -2.827 1.617
c -1.247 -3.114 0.394
c -0.568 -3.169 -0.819
c -1.271 -2.700 -1.965
c -2.462 -1.975 -1.782
c -3.004 -1.754 -0.580
c -2.546 -2.492 0.478
c -2.666 -1.974 1.698




