%chk=000676.chk
%mem=8GB
%Nproc=32
#p B3LYP/6-31G* opt pop=NPA

Template file

0 1
c -0.401 0.744 -3.030
c -1.693 0.310 -2.810
c -2.533 0.900 -1.890
c -2.949 -0.157 -1.023
c -3.066 0.084 0.351
c -2.326 -0.809 1.240
c -1.611 -0.235 2.353
c -0.240 -0.657 2.539
c 0.774 0.397 2.578
c 1.967 0.192 1.870
c 2.272 1.093 0.759
c 2.783 0.487 -0.451
c 2.061 0.753 -1.670
c 1.719 -0.374 -2.537
c 0.425 -0.385 -3.072
c -0.406 -1.532 -2.879
c -1.669 -1.033 -2.646
c -2.402 -1.346 -1.520
c -0.013 1.880 -2.368
c 1.208 1.873 -1.668
c 1.030 2.690 -0.552
c 1.556 2.303 0.711
c 0.787 2.692 1.821
c 0.361 1.683 2.747
c -0.938 1.970 3.087
c -1.957 1.056 2.752
c -2.875 1.816 1.999
c -3.223 1.413 0.733
c -2.822 2.490 -0.160
c -2.273 2.169 -1.393
c -0.937 2.661 -1.652
c -0.236 3.331 -0.647
c -0.885 3.806 0.470
c -0.280 3.582 1.713
c -1.258 3.191 2.585
c -2.423 3.108 1.941
c -2.248 3.464 0.642
c -1.863 -2.283 -0.676
c -1.804 -2.001 0.702
c -0.643 -2.607 1.181
c 0.186 -1.929 2.115
c 1.561 -2.187 1.990
c 2.455 -1.078 1.822
c 3.381 -1.445 0.877
c 3.444 -0.737 -0.340
c 3.288 -1.727 -1.329
c 2.283 -1.615 -2.259
c 1.438 -2.787 -2.086
c 0.062 -2.644 -2.194
c -0.719 -3.016 -1.034
c -0.074 -3.398 0.144
c 1.263 -3.724 0.144
c 2.057 -3.200 1.171
c 3.227 -2.768 0.610
c 3.181 -2.945 -0.711
c 1.997 -3.518 -1.050




