%chk=000464.chk
%mem=8GB
%Nproc=32
#p B3LYP/6-31G* opt pop=NPA

Template file

0 1
c -1.774 2.878 1.550
c -0.915 3.383 0.605
c -1.003 2.956 -0.717
c 0.330 2.799 -1.237
c 0.651 1.862 -2.210
c 1.786 0.951 -1.979
c 1.780 -0.333 -2.665
c 2.413 -1.419 -2.043
c 1.794 -2.702 -2.080
c 1.947 -3.274 -0.894
c 0.721 -3.578 -0.337
c 0.698 -3.072 0.937
c -0.443 -2.441 1.458
c -0.227 -1.557 2.561
c -1.237 -0.709 2.946
c -0.952 0.504 3.602
c -1.849 1.414 3.205
c -1.254 2.556 2.808
c -2.655 1.802 1.176
c -2.632 0.904 2.227
c -2.318 -0.445 2.054
c -2.397 -1.036 0.800
c -1.554 -2.182 0.521
c -1.443 -2.643 -0.855
c -0.243 -3.297 -1.259
c 0.484 -2.863 -2.448
c -0.053 -1.952 -3.243
c 0.627 -0.679 -3.441
c -0.379 0.230 -3.622
c -0.446 1.401 -2.926
c -1.772 1.453 -2.329
c -1.997 2.064 -1.135
c -2.703 1.305 -0.113
c -2.811 -0.154 -0.282
c -2.700 -0.642 -1.561
c -2.057 -1.875 -1.855
c -1.387 -1.672 -3.090
c -1.580 -0.415 -3.464
c -2.348 0.238 -2.593
c 2.981 -1.306 -0.751
c 2.646 -2.502 -0.075
c 1.993 -2.479 1.134
c 2.112 -1.394 1.899
c 1.108 -1.020 2.752
c 1.334 0.322 3.092
c 0.306 1.101 3.554
c 0.128 2.416 3.035
c 0.998 2.868 2.046
c 0.448 3.427 0.910
c 1.160 3.027 -0.191
c 2.159 2.157 0.161
c 2.495 1.074 -0.697
c 2.970 -0.109 -0.045
c 2.719 -0.220 1.374
c 2.274 0.825 2.151
c 2.064 2.054 1.580




