%chk=000557.chk
%mem=8GB
%Nproc=48
#p B3LYP/6-31G* opt pop=NPA

Template file

0 1
c -1.112 -2.504 1.527
c -0.304 -2.731 0.384
c 1.084 -2.420 0.407
c 1.821 -2.281 -0.859
c 3.117 -1.687 -0.823
c 3.528 -0.805 -1.847
c 3.926 0.405 -1.273
c 3.125 1.448 -1.803
c 2.292 2.247 -0.916
c 0.872 2.472 -1.262
c -0.139 2.626 -0.242
c -1.547 2.285 -0.511
c -2.461 2.235 0.560
c -3.534 1.337 0.588
c -3.669 0.798 1.876
c -3.834 -0.545 1.765
c -2.921 -1.405 2.368
c -2.489 -2.300 1.427
c -0.678 -1.660 2.569
c -1.809 -0.930 3.049
c -1.694 0.459 3.221
c -2.651 1.292 2.622
c -1.977 2.230 1.863
c -0.657 2.177 2.111
c 0.284 2.526 1.141
c 1.568 2.108 1.401
c 2.582 2.083 0.458
c 3.461 1.062 0.879
c 4.032 0.208 0.027
c 3.546 -1.089 0.336
c 2.777 -1.017 1.468
c 1.559 -1.685 1.586
c 0.596 -1.121 2.504
c 0.697 0.303 2.820
c -0.462 1.039 2.974
c 1.758 0.985 2.289
c 2.834 0.335 1.850
c -3.653 0.321 -0.336
c -3.865 -0.859 0.425
c -3.092 -1.995 0.212
c -2.311 -2.060 -0.890
c -0.991 -2.578 -0.855
c -0.336 -2.138 -1.976
c 1.054 -2.071 -2.082
c 1.544 -1.135 -3.053
c 2.750 -0.522 -2.876
c 2.556 0.889 -2.905
c 1.283 1.110 -3.226
c 0.415 1.878 -2.465
c -0.842 1.240 -2.539
c -1.847 1.409 -1.613
c -2.783 0.301 -1.419
c -2.301 -0.994 -1.802
c -1.182 -1.127 -2.552
c -0.604 -0.041 -3.117
c 0.683 -0.108 -3.469




