%chk=000770.chk
%mem=8GB
%Nproc=16
#p B3LYP/6-31G* opt pop=NPA

Template file

0 1
c -0.145 -2.104 3.477
c 0.228 -2.921 2.447
c 1.299 -2.644 1.654
c 0.909 -2.855 0.306
c 1.540 -2.241 -0.745
c 0.797 -2.001 -1.949
c 1.470 -1.329 -2.966
c 0.787 -0.446 -3.798
c 1.593 0.664 -4.000
c 0.938 1.765 -3.588
c 1.672 2.360 -2.501
c 0.979 2.811 -1.363
c 1.428 2.439 -0.006
c 0.502 2.500 1.133
c 0.685 1.675 2.308
c -0.453 1.279 3.093
c -0.478 0.074 3.785
c -1.715 -0.546 3.600
c -1.499 -1.872 3.357
c -1.958 -2.463 2.166
c -0.874 -3.134 1.634
c -0.488 -3.037 0.302
c 0.513 -0.879 3.686
c 1.598 -0.565 2.885
c 1.726 0.717 2.277
c 2.487 0.570 1.133
c 2.491 1.463 0.062
c 3.038 0.965 -1.133
c 2.777 1.537 -2.350
c 2.706 0.532 -3.298
c 2.692 -0.664 -2.669
c 3.049 -0.468 -1.365
c 2.608 -1.312 -0.403
c 2.632 -0.829 0.904
c 2.066 -1.507 1.941
c -1.284 -2.371 -0.658
c -0.654 -1.842 -1.824
c -1.269 -0.712 -2.517
c -0.478 -0.020 -3.465
c -0.382 1.421 -3.420
c -1.092 2.071 -2.505
c -0.409 2.896 -1.535
c -1.226 2.956 -0.475
c -0.849 2.809 0.829
c -1.934 2.165 1.469
c -1.757 1.442 2.590
c -2.469 0.226 2.775
c -3.072 -0.380 1.639
c -2.712 -1.700 1.287
c -2.427 -1.703 -0.113
c -2.832 -0.486 -0.637
c -2.273 0.040 -1.820
c -2.153 1.464 -1.860
c -2.350 2.179 -0.705
c -2.792 1.669 0.452
c -3.186 0.342 0.477




