%chk=000351.chk
%mem=8GB
%Nproc=16
#p B3LYP/6-31G* opt pop=NPA

Template file

0 1
c -2.963 -0.758 -0.401
c -2.734 0.230 0.584
c -2.358 1.557 0.103
c -1.601 2.346 0.979
c -0.695 3.352 0.524
c 0.382 3.334 1.385
c 1.678 3.235 0.923
c 2.235 2.127 1.524
c 2.854 1.344 0.568
c 2.694 -0.060 0.634
c 2.480 -0.802 -0.606
c 1.776 -2.053 -0.559
c 0.683 -2.314 -1.503
c -0.477 -3.065 -1.003
c -1.737 -2.481 -1.268
c -2.616 -2.104 -0.201
c -2.654 -0.487 -1.697
c -1.855 -1.519 -2.187
c -0.843 -0.987 -2.896
c 0.499 -1.373 -2.570
c 1.441 -0.355 -2.764
c 2.415 -0.051 -1.787
c 2.630 1.359 -1.814
c 2.770 2.058 -0.636
c 1.965 3.236 -0.399
c 0.930 3.548 -1.293
c -0.440 3.518 -0.822
c -1.200 2.798 -1.746
c -2.140 1.809 -1.329
c -2.232 0.691 -2.184
c -1.198 0.366 -3.119
c -0.263 1.273 -3.416
c 1.070 0.869 -3.329
c 1.794 1.879 -2.779
c 0.934 2.935 -2.501
c -0.335 2.521 -2.818
c -1.042 1.773 2.155
c 0.190 2.362 2.317
c 1.352 1.603 2.450
c 1.247 0.262 2.639
c 2.120 -0.591 1.830
c 1.854 -1.925 1.883
c 1.706 -2.691 0.677
c 0.757 -3.664 0.959
c -0.404 -3.751 0.202
c -1.471 -3.617 1.157
c -2.410 -2.605 1.012
c -2.248 -1.690 2.097
c -2.252 -0.287 1.860
c -1.226 0.456 2.526
c -0.040 -0.252 3.029
c -0.125 -1.598 3.244
c 0.931 -2.425 2.786
c 0.399 -3.555 2.280
c -0.931 -3.497 2.379
c -1.296 -2.282 2.918




