%chk=000327.chk
%mem=8GB
%Nproc=16
#p B3LYP/6-31G* opt pop=NPA

Template file

0 1
c -3.108 -1.232 -0.534
c -2.923 -0.777 0.778
c -2.609 0.647 0.992
c -1.705 0.996 2.096
c -0.703 2.033 1.906
c 0.706 1.784 2.284
c 1.777 2.113 1.341
c 2.773 1.100 1.028
c 3.112 0.918 -0.336
c 3.150 -0.371 -0.841
c 2.483 -0.411 -2.031
c 1.697 -1.535 -2.072
c 0.451 -1.463 -2.676
c -0.481 -2.388 -2.147
c -1.814 -2.078 -2.191
c -2.394 -2.366 -0.984
c -3.064 -0.354 -1.581
c -2.248 -0.876 -2.594
c -1.425 0.096 -3.069
c -0.018 -0.137 -3.160
c 0.827 1.034 -3.013
c 2.083 0.844 -2.391
c 2.575 1.712 -1.348
c 1.884 2.823 -1.028
c 1.463 3.019 0.339
c 0.179 3.526 0.259
c -0.911 2.924 0.888
c -1.887 2.692 -0.127
c -2.657 1.534 -0.146
c -2.817 0.958 -1.449
c -1.933 1.295 -2.536
c -1.170 2.382 -2.452
c 0.222 2.293 -2.739
c 0.832 3.186 -1.840
c -0.129 3.702 -1.042
c -1.319 3.180 -1.322
c 2.881 -1.499 -0.116
c 1.943 -2.256 -0.847
c 0.941 -2.995 -0.185
c -0.270 -3.069 -0.898
c -1.510 -3.041 -0.208
c -1.546 -2.832 1.126
c -2.334 -1.723 1.636
c -1.722 -1.332 2.760
c -1.377 -0.004 3.015
c -0.104 -0.071 3.566
c 0.935 0.733 3.147
c 2.005 -0.147 2.909
c 2.791 -0.062 1.817
c 2.788 -1.387 1.234
c 1.908 -2.194 1.953
c 0.901 -2.965 1.270
c -0.398 -2.951 1.897
c -0.630 -2.152 3.012
c 0.324 -1.405 3.569
c 1.574 -1.447 3.083




