%chk=000467.chk
%mem=8GB
%Nproc=32
#p B3LYP/6-31G* opt pop=NPA

Template file

0 1
c -3.526 -1.049 -0.857
c -3.698 -0.247 0.202
c -3.209 1.025 0.220
c -2.582 1.215 1.494
c -1.508 2.112 1.653
c -0.324 1.678 2.399
c 1.019 2.110 1.981
c 2.137 1.172 2.048
c 3.094 1.174 0.989
c 3.621 -0.016 0.527
c 3.557 -0.021 -0.862
c 3.115 -1.228 -1.255
c 2.038 -1.368 -2.088
c 1.318 -2.460 -1.561
c 0.026 -2.586 -1.818
c -0.859 -3.097 -0.844
c -2.092 -2.675 -1.239
c -3.032 -2.267 -0.386
c -2.778 -0.635 -1.966
c -1.951 -1.702 -2.240
c -0.643 -1.587 -2.579
c -0.057 -0.326 -2.845
c 1.374 -0.212 -2.633
c 1.946 1.079 -2.301
c 2.999 1.122 -1.309
c 2.893 1.964 -0.152
c 1.993 2.944 -0.143
c 1.070 3.072 0.951
c -0.097 3.547 0.377
c -1.321 2.977 0.589
c -1.862 2.670 -0.732
c -2.636 1.575 -0.946
c -2.251 0.662 -2.041
c -0.929 0.830 -2.668
c -0.304 2.055 -2.486
c 1.108 2.178 -2.301
c 1.283 3.175 -1.312
c 0.092 3.636 -0.971
c -0.884 2.999 -1.631
c 3.244 -1.265 0.993
c 2.951 -2.026 -0.132
c 1.807 -2.776 -0.268
c 0.914 -2.967 0.824
c -0.495 -3.124 0.544
c -1.501 -2.583 1.474
c -2.766 -2.177 0.969
c -3.282 -0.919 1.335
c -2.619 -0.034 2.144
c -1.518 -0.463 2.797
c -0.427 0.410 3.012
c 0.671 -0.397 3.097
c 1.900 -0.106 2.616
c 2.377 -1.326 2.030
c 1.293 -2.256 2.002
c 0.319 -1.703 2.769
c -1.010 -1.782 2.530




