%chk=000329.chk
%mem=8GB
%Nproc=16
#p B3LYP/6-31G* opt pop=NPA

Template file

0 1
c -1.752 3.038 -0.476
c -0.428 3.101 -0.876
c -0.034 2.377 -2.022
c 1.270 1.833 -1.949
c 1.600 0.653 -2.629
c 2.431 -0.121 -1.787
c 2.231 -1.539 -1.619
c 2.366 -2.049 -0.295
c 1.276 -2.857 0.209
c 0.826 -2.730 1.523
c -0.588 -2.498 1.476
c -1.200 -1.504 2.287
c -2.183 -0.643 1.658
c -2.185 0.777 2.064
c -2.631 1.734 1.160
c -1.814 2.860 0.872
c -2.627 2.193 -1.050
c -3.143 1.362 -0.043
c -3.169 0.081 -0.495
c -2.667 -0.984 0.315
c -2.087 -2.088 -0.415
c -0.997 -2.755 0.188
c 0.176 -3.102 -0.569
c 0.215 -2.906 -1.905
c 1.269 -2.105 -2.463
c 0.661 -1.347 -3.462
c 0.702 0.044 -3.466
c -0.642 0.515 -3.515
c -1.046 1.618 -2.765
c -2.329 1.468 -2.134
c -2.879 0.171 -1.880
c -2.417 -0.878 -2.553
c -2.056 -2.053 -1.844
c -0.951 -2.566 -2.541
c -0.637 -1.712 -3.542
c -1.439 -0.648 -3.525
c -0.580 3.020 1.405
c 0.342 3.119 0.327
c 1.607 2.508 0.436
c 2.041 1.873 -0.758
c 2.793 0.685 -0.714
c 3.157 0.141 0.484
c 3.002 -1.260 0.677
c 2.724 -1.419 2.013
c 1.601 -2.131 2.466
c 0.992 -1.345 3.406
c -0.366 -0.989 3.320
c -0.380 0.369 3.579
c -1.151 1.229 2.909
c -0.271 2.311 2.505
c 1.033 1.939 2.772
c 2.010 1.944 1.707
c 2.882 0.807 1.691
c 2.752 -0.202 2.648
c 1.758 -0.188 3.571
c 0.931 0.852 3.628




