%chk=000178.chk
%mem=8GB
%Nproc=16
#p B3LYP/6-31G* opt pop=NPA

Template file

0 1
c -3.404 -0.358 0.614
c -2.957 0.415 1.673
c -2.384 1.700 1.415
c -1.342 1.819 2.304
c -0.131 2.343 1.990
c 0.850 1.386 2.445
c 2.035 1.215 1.747
c 2.434 -0.146 1.438
c 3.001 -0.355 0.094
c 2.653 -1.513 -0.573
c 1.931 -1.467 -1.825
c 0.932 -2.443 -1.756
c -0.420 -2.130 -2.033
c -1.429 -2.726 -1.115
c -2.570 -1.954 -0.828
c -3.043 -1.719 0.514
c -3.272 0.176 -0.633
c -2.762 -0.784 -1.490
c -1.868 -0.203 -2.344
c -0.638 -0.833 -2.651
c 0.468 0.065 -2.948
c 1.803 -0.288 -2.499
c 2.695 0.736 -2.088
c 3.228 0.716 -0.735
c 3.124 1.999 -0.261
c 2.353 2.256 0.856
c 1.368 3.235 0.429
c 0.039 3.096 0.844
c -1.032 3.014 -0.170
c -2.210 2.236 0.114
c -2.703 1.396 -0.923
c -1.964 1.190 -2.100
c -0.954 1.998 -2.406
c 0.205 1.477 -3.009
c 1.183 2.407 -2.767
c 2.435 2.052 -2.373
c 2.736 2.803 -1.267
c 1.660 3.539 -0.888
c 0.698 3.358 -1.844
c -0.587 3.049 -1.524
c -2.190 -0.212 2.685
c -1.185 0.657 3.001
c 0.172 0.321 3.046
c 0.565 -1.009 2.888
c 1.759 -1.263 2.088
c 1.802 -2.523 1.419
c 2.209 -2.569 0.095
c 1.254 -3.230 -0.670
c 0.356 -3.753 0.152
c -0.986 -3.535 -0.025
c -1.470 -3.278 1.273
c -2.399 -2.338 1.561
c -1.872 -1.544 2.617
c -0.527 -1.961 2.845
c -0.383 -3.117 2.135
c 0.728 -3.400 1.465




