%chk=000544.chk
%mem=8GB
%Nproc=16
#p B3LYP/6-31G* opt pop=NPA

Template file

0 1
c 3.596 -1.966 0.419
c 3.318 -1.891 -0.926
c 3.236 -0.670 -1.603
c 2.052 -0.703 -2.370
c 1.287 0.441 -2.634
c -0.086 0.242 -2.933
c -1.043 1.245 -2.799
c -2.288 0.653 -2.448
c -3.161 1.302 -1.541
c -3.715 0.578 -0.475
c -3.465 1.341 0.731
c -3.002 0.699 1.870
c -1.724 1.059 2.432
c -1.092 -0.141 2.831
c 0.275 -0.332 2.765
c 0.743 -1.661 2.346
c 2.092 -1.832 2.117
c 2.519 -2.597 1.026
c 3.865 -0.837 1.113
c 2.942 -0.736 2.157
c 2.448 0.562 2.227
c 1.094 0.819 2.486
c 0.470 1.976 1.864
c -0.964 2.137 1.924
c -1.609 2.895 0.909
c -2.836 2.475 0.355
c -2.743 2.510 -1.025
c -1.544 3.052 -1.348
c -0.663 2.454 -2.219
c 0.617 2.558 -1.662
c 1.642 1.656 -1.934
c 2.670 1.583 -0.983
c 3.542 0.495 -0.886
c 3.880 0.367 0.471
c 3.094 1.236 1.188
c 2.415 2.051 0.356
c 1.185 2.566 0.720
c 0.440 3.068 -0.329
c -0.873 3.338 -0.174
c 1.625 -3.033 0.058
c 2.157 -2.584 -1.156
c 1.386 -1.937 -2.079
c -0.002 -2.032 -2.028
c -0.724 -0.987 -2.634
c -2.066 -0.724 -2.335
c -2.697 -1.456 -1.340
c -3.576 -0.808 -0.431
c -3.362 -1.402 0.788
c -3.081 -0.662 1.914
c -1.941 -1.168 2.474
c -1.502 -2.269 1.746
c -0.166 -2.489 1.574
c 0.263 -2.963 0.267
c -0.595 -2.684 -0.878
c -1.948 -2.431 -0.627
c -2.386 -2.362 0.674




