%chk=000260.chk
%mem=8GB
%Nproc=32
#p B3LYP/6-31G* opt pop=NPA

Template file

0 1
c 0.968 1.688 -2.767
c -0.292 2.152 -2.292
c -0.395 2.529 -0.878
c -1.659 2.259 -0.160
c -1.692 2.121 1.270
c -2.501 1.061 1.850
c -2.057 0.299 2.960
c -2.187 -1.049 2.582
c -1.115 -1.940 2.553
c -1.073 -2.494 1.238
c 0.141 -2.670 0.532
c 0.093 -2.576 -0.931
c 1.313 -2.192 -1.632
c 1.217 -1.576 -2.907
c 1.891 -0.338 -3.131
c 1.024 0.571 -3.646
c 2.046 1.544 -1.910
c 2.625 0.243 -2.194
c 3.069 -0.519 -1.184
c 2.398 -1.759 -0.854
c 2.441 -1.870 0.529
c 1.350 -2.317 1.274
c 1.248 -1.745 2.603
c 0.014 -1.577 3.222
c 0.028 -0.324 3.880
c -0.956 0.659 3.644
c -0.269 1.790 3.212
c -0.542 2.431 1.988
c 0.698 2.618 1.334
c 0.818 2.597 -0.080
c 2.053 2.041 -0.606
c 2.933 1.366 0.299
c 3.389 0.083 -0.042
c 3.187 -0.761 0.991
c 2.895 -0.053 2.093
c 2.045 -0.609 2.999
c 1.243 0.237 3.720
c 1.063 1.559 3.308
c 1.695 2.059 2.196
c 2.715 1.324 1.655
c -3.156 0.165 1.012
c -2.834 -1.120 1.430
c -2.235 -2.059 0.575
c -2.308 -1.880 -0.785
c -1.190 -2.281 -1.602
c -1.166 -1.738 -2.928
c 0.022 -1.420 -3.526
c -0.060 -0.090 -4.042
c -1.250 0.392 -3.769
c -1.418 1.534 -2.932
c -2.502 1.228 -2.176
c -2.638 1.523 -0.869
c -3.227 0.374 -0.288
c -3.057 -0.704 -1.187
c -2.834 -0.138 -2.372
c -2.008 -0.651 -3.257




