%chk=000812.chk
%mem=8GB
%Nproc=32
#p B3LYP/6-31G* opt pop=NPA

Template file

0 1
c 1.229 2.805 -2.503
c 2.243 2.133 -1.923
c 2.283 0.772 -1.859
c 2.727 0.426 -0.569
c 2.553 -0.830 -0.067
c 2.273 -0.931 1.342
c 1.953 -2.199 1.831
c 0.931 -2.335 2.763
c 0.147 -3.441 2.439
c -1.163 -3.006 2.397
c -1.937 -3.092 1.233
c -2.482 -1.782 1.015
c -2.608 -1.184 -0.273
c -2.588 0.232 -0.399
c -2.114 0.844 -1.630
c -2.020 2.235 -1.712
c -0.980 2.837 -2.424
c -0.496 3.941 -1.705
c 0.865 3.854 -1.679
c 1.572 3.709 -0.452
c 2.448 2.659 -0.655
c 2.633 1.596 0.215
c 0.088 2.102 -2.916
c 0.061 0.696 -2.829
c -1.174 0.083 -2.414
c -1.173 -1.268 -2.227
c -2.023 -1.926 -1.312
c -1.483 -3.182 -1.082
c -1.406 -3.799 0.153
c -0.071 -4.284 0.251
c 0.689 -4.045 1.358
c 1.795 -3.278 0.959
c 1.764 -3.105 -0.417
c 2.047 -1.838 -0.963
c 1.240 -1.357 -2.088
c 1.291 -0.014 -2.464
c 0.017 -2.018 -2.278
c -0.235 -3.220 -1.689
c 0.631 -3.812 -0.843
c 1.956 1.536 1.445
c 1.707 0.245 1.984
c 0.472 0.031 2.712
c 0.128 -1.262 3.073
c -1.179 -1.712 2.829
c -2.049 -0.963 2.081
c -1.839 0.383 1.920
c -2.425 1.027 0.802
c -2.210 2.390 0.674
c -2.157 2.999 -0.558
c -1.196 4.010 -0.551
c -0.536 3.926 0.659
c 0.842 3.685 0.738
c 1.006 2.582 1.640
c -0.278 2.223 2.106
c -0.589 0.933 2.449
c -1.179 2.989 1.414




