%chk=000489.chk
%mem=8GB
%Nproc=16
#p B3LYP/6-31G* opt pop=NPA

Template file

0 1
c 0.961 2.211 -2.733
c 1.505 2.689 -1.593
c 2.542 1.956 -0.927
c 2.651 2.227 0.435
c 2.994 1.227 1.324
c 2.175 1.299 2.453
c 1.747 0.054 2.813
c 0.371 -0.184 3.115
c -0.131 -1.523 2.890
c -1.509 -1.683 2.673
c -1.988 -2.568 1.679
c -2.984 -1.962 0.967
c -2.743 -2.112 -0.389
c -2.905 -1.001 -1.205
c -2.081 -0.800 -2.290
c -2.025 0.597 -2.510
c -0.978 1.150 -3.180
c -0.422 2.319 -2.691
c 1.271 0.985 -3.211
c 0.089 0.328 -3.516
c 0.177 -0.985 -3.131
c -0.929 -1.640 -2.523
c -0.659 -2.686 -1.579
c -1.598 -2.915 -0.527
c -1.165 -3.221 0.813
c 0.160 -3.250 1.111
c 0.702 -2.427 2.154
c 1.985 -2.049 1.724
c 2.485 -0.830 2.003
c 3.154 -0.068 0.976
c 3.106 -0.444 -0.396
c 2.815 0.579 -1.380
c 2.122 0.140 -2.554
c 1.499 -1.135 -2.630
c 1.748 -2.065 -1.697
c 0.705 -2.903 -1.232
c 1.047 -3.219 0.071
c 2.154 -2.521 0.437
c 2.610 -1.754 -0.622
c -2.325 -0.566 2.562
c -3.211 -0.738 1.520
c -3.254 0.405 0.764
c -3.187 0.282 -0.619
c -2.564 1.249 -1.371
c -1.884 2.360 -0.755
c -0.797 2.895 -1.496
c 0.405 3.261 -0.861
c 0.466 3.322 0.490
c 1.630 2.946 1.096
c 1.333 2.331 2.285
c -0.021 2.176 2.412
c -0.541 0.970 2.922
c -1.849 0.711 2.543
c -2.461 1.368 1.411
c -1.797 2.375 0.693
c -0.604 2.836 1.283




