%chk=000357.chk
%mem=8GB
%Nproc=16
#p B3LYP/6-31G* opt pop=NPA

Template file

0 1
c -1.828 0.209 -2.976
c -0.780 1.086 -3.011
c 0.571 0.592 -2.891
c 1.480 1.400 -2.092
c 2.432 0.746 -1.205
c 2.659 1.280 0.149
c 2.765 0.364 1.230
c 1.998 0.536 2.416
c 1.577 -0.751 2.819
c 0.244 -0.927 3.204
c -0.540 -1.938 2.600
c -1.756 -1.340 2.164
c -2.315 -1.583 0.902
c -2.902 -0.413 0.212
c -2.994 -0.516 -1.174
c -2.720 0.588 -1.975
c -1.666 -1.101 -2.919
c -2.420 -1.588 -1.846
c -1.750 -2.596 -1.263
c -1.715 -2.685 0.145
c -0.560 -3.341 0.670
c 0.057 -2.905 1.854
c 1.465 -2.852 1.638
c 2.169 -1.692 2.005
c 2.918 -0.988 1.014
c 2.976 -1.472 -0.285
c 2.630 -0.625 -1.376
c 1.832 -1.393 -2.264
c 0.739 -0.843 -2.934
c -0.449 -1.683 -2.931
c -0.568 -2.794 -2.065
c 0.528 -3.335 -1.519
c 0.486 -3.702 -0.184
c 1.686 -3.377 0.403
c 2.446 -2.711 -0.540
c 1.744 -2.670 -1.705
c -0.541 0.178 3.299
c -1.749 -0.067 2.674
c -2.172 1.061 2.029
c -2.739 0.955 0.749
c -2.487 2.090 -0.146
c -2.381 1.797 -1.516
c -1.220 2.192 -2.293
c -0.352 3.048 -1.772
c 1.033 2.675 -1.686
c 1.476 3.238 -0.499
c 2.124 2.513 0.472
c 1.384 2.721 1.702
c 1.205 1.687 2.603
c -0.142 1.456 3.031
c -1.243 2.081 2.379
c -1.025 3.125 1.555
c -1.661 3.156 0.290
c -0.694 3.683 -0.595
c 0.436 3.894 0.088
c 0.304 3.536 1.365




