%chk=000360.chk
%mem=8GB
%Nproc=16
#p B3LYP/6-31G* opt pop=NPA

Template file

0 1
c -0.172 1.031 -3.226
c -0.992 -0.065 -2.943
c -2.057 0.082 -1.930
c -2.399 -1.089 -1.113
c -2.675 -0.927 0.311
c -2.109 -1.877 1.276
c -1.511 -1.340 2.463
c -0.179 -1.694 2.826
c 0.483 -0.532 3.199
c 1.736 -0.254 2.606
c 2.009 1.037 2.147
c 2.650 0.928 0.902
c 2.436 1.879 -0.116
c 2.564 1.365 -1.427
c 1.767 1.891 -2.425
c 1.237 0.876 -3.166
c -0.413 2.242 -2.654
c 0.791 2.778 -2.168
c 0.595 3.317 -0.952
c 1.467 2.954 0.133
c 0.882 3.046 1.411
c 1.127 2.075 2.401
c -0.099 1.800 3.071
c -0.449 0.476 3.332
c -1.696 -0.039 2.838
c -2.519 0.777 2.084
c -2.908 0.366 0.773
c -2.781 1.494 -0.069
c -2.278 1.395 -1.376
c -1.392 2.465 -1.754
c -0.819 3.344 -0.782
c -1.340 3.414 0.446
c -0.473 3.379 1.536
c -1.042 2.621 2.521
c -2.234 2.113 2.033
c -2.393 2.558 0.756
c 2.302 -1.173 1.714
c 2.826 -0.464 0.627
c 2.788 -1.005 -0.689
c 2.662 -0.036 -1.699
c 1.833 -0.290 -2.826
c 1.101 -1.418 -2.893
c -0.342 -1.303 -3.040
c -0.851 -2.387 -2.454
c -1.862 -2.333 -1.496
c -1.493 -3.284 -0.551
c -1.526 -3.043 0.794
c -0.245 -3.437 1.269
c 0.468 -2.684 2.136
c 1.728 -2.415 1.521
c 1.738 -3.029 0.263
c 2.189 -2.313 -0.890
c 1.375 -2.493 -2.071
c 0.180 -3.202 -1.999
c -0.230 -3.802 -0.889
c 0.547 -3.778 0.207




