%chk=000477.chk
%mem=8GB
%Nproc=16
#p B3LYP/6-31G* opt pop=NPA

Template file

0 1
c -2.823 -1.488 -0.630
c -2.054 -1.564 -1.750
c -0.835 -2.250 -1.744
c -0.063 -1.707 -2.776
c 1.313 -1.762 -2.721
c 2.024 -0.626 -3.120
c 2.999 -0.380 -2.212
c 2.890 0.965 -1.752
c 2.958 1.240 -0.384
c 1.897 2.076 0.214
c 1.580 1.862 1.615
c 0.310 2.181 2.074
c -0.391 1.318 2.985
c -1.707 1.576 2.863
c -2.620 0.578 2.764
c -3.468 0.888 1.722
c -3.684 -0.255 1.017
c -3.556 -0.311 -0.337
c -2.332 -2.024 0.583
c -2.907 -1.267 1.580
c -2.201 -0.760 2.653
c -0.856 -1.096 2.789
c 0.048 -0.003 3.177
c 1.369 -0.185 3.006
c 2.184 0.786 2.294
c 3.195 0.074 1.715
c 3.502 0.186 0.393
c 3.504 -1.186 -0.110
c 3.090 -1.428 -1.356
c 1.941 -2.271 -1.583
c 1.190 -2.804 -0.473
c -0.247 -2.734 -0.521
c -1.011 -2.510 0.703
c -0.317 -2.159 1.930
c 1.052 -2.334 1.944
c 1.846 -1.420 2.653
c 2.994 -1.254 2.004
c 3.030 -1.984 0.895
c 1.801 -2.679 0.781
c -0.664 2.798 1.276
c -1.904 2.465 1.824
c -2.994 2.045 1.083
c -2.843 2.026 -0.288
c -3.228 0.873 -1.032
c -2.417 0.800 -2.138
c -1.930 -0.440 -2.595
c -0.720 -0.523 -3.233
c 0.043 0.644 -3.430
c 1.391 0.546 -3.390
c 1.899 1.513 -2.522
c 0.864 2.249 -2.014
c 0.824 2.608 -0.646
c -0.484 2.882 -0.104
c -1.661 2.531 -0.883
c -1.521 1.894 -2.102
c -0.301 1.798 -2.696




