%chk=000093.chk
%mem=8GB
%Nproc=48
#p B3LYP/6-31G* opt pop=NPA

Template file

0 1
c -1.947 0.512 3.254
c -1.455 1.698 2.688
c -1.546 1.921 1.285
c -0.432 2.572 0.630
c -0.366 2.613 -0.809
c 0.941 2.770 -1.400
c 1.318 2.030 -2.553
c 2.523 1.389 -2.267
c 2.589 -0.021 -2.158
c 3.029 -0.282 -0.823
c 2.422 -1.257 -0.011
c 2.253 -0.941 1.431
c 1.313 -1.674 2.236
c 0.806 -1.116 3.461
c -0.589 -1.191 3.756
c -1.022 0.036 4.168
c -2.317 -0.515 2.449
c -1.449 -1.624 2.805
c -0.991 -2.401 1.805
c 0.411 -2.465 1.510
c 0.522 -2.730 0.144
c 1.495 -2.136 -0.688
c 1.134 -1.948 -2.109
c 1.628 -0.772 -2.784
c 0.682 -0.005 -3.574
c 0.421 1.354 -3.220
c -0.941 1.469 -2.909
c -1.343 1.901 -1.585
c -2.352 1.082 -0.913
c -2.342 0.996 0.507
c -2.650 -0.314 1.120
c -2.628 -1.458 0.296
c -1.658 -2.470 0.637
c -0.778 -2.955 -0.334
c -1.099 -2.863 -1.630
c -0.138 -2.439 -2.569
c -0.881 -1.742 -3.539
c -0.500 -0.510 -3.919
c -1.523 0.411 -3.527
c -2.514 -0.289 -2.962
c -2.867 -0.047 -1.638
c -2.889 -1.328 -1.022
c -2.313 -2.227 -1.942
c -2.175 -1.621 -3.092
c 2.075 2.769 -0.611
c 2.995 1.918 -1.170
c 3.336 0.965 -0.278
c 2.870 1.345 0.934
c 2.517 0.436 1.876
c 1.777 0.968 2.917
c 1.138 0.191 3.813
c -0.006 0.854 4.217
c -0.232 1.901 3.363
c 0.888 2.103 2.645
c 0.840 2.627 1.388
c 2.015 2.507 0.700




