%chk=000772.chk
%mem=8GB
%Nproc=16
#p B3LYP/6-31G* opt pop=NPA

Template file

0 1
c -0.866 3.784 -0.467
c 0.087 3.455 -1.405
c -0.088 2.427 -2.281
c 1.095 1.638 -2.263
c 1.087 0.301 -2.591
c 2.068 -0.556 -1.977
c 1.972 -1.917 -2.265
c 2.270 -2.866 -1.283
c 1.335 -3.879 -1.363
c 0.691 -3.982 -0.178
c -0.699 -3.716 -0.386
c -1.393 -2.889 0.516
c -2.278 -1.858 0.005
c -2.662 -0.794 0.878
c -2.979 0.500 0.425
c -2.627 1.451 1.407
c -2.154 2.722 1.037
c -1.035 3.280 1.713
c -0.247 3.894 0.745
c 1.130 3.593 0.576
c 1.292 3.297 -0.761
c 1.907 2.131 -1.221
c -2.023 3.034 -0.333
c -2.276 2.043 -1.290
c -2.811 0.806 -0.918
c -2.324 -0.180 -1.767
c -2.193 -1.531 -1.406
c -1.348 -2.294 -2.207
c -0.795 -3.467 -1.758
c 0.459 -3.593 -2.311
c 0.805 -2.418 -2.898
c -0.312 -1.634 -2.983
c -0.202 -0.274 -2.961
c -1.351 0.438 -2.596
c -1.319 1.778 -2.306
c 2.552 1.239 -0.330
c 2.613 -0.143 -0.684
c 2.635 -1.146 0.383
c 2.391 -2.481 0.029
c 1.397 -3.249 0.741
c 0.732 -2.653 1.749
c -0.692 -2.549 1.706
c -1.032 -1.468 2.493
c -2.070 -0.624 2.136
c -2.029 0.750 2.455
c -0.899 1.289 3.093
c -0.398 2.542 2.697
c 0.998 2.386 2.593
c 1.732 2.766 1.480
c 2.454 1.601 1.047
c 2.259 0.608 2.014
c 2.244 -0.739 1.693
c 1.217 -1.517 2.342
c 0.147 -0.894 2.998
c 0.202 0.435 3.313
c 1.330 1.126 2.927




