%chk=000241.chk
%mem=8GB
%Nproc=32
#p B3LYP/6-31G* opt pop=NPA

Template file

0 1
c -2.075 -2.396 -1.409
c -1.091 -2.039 -2.334
c 0.299 -2.231 -2.011
c 1.241 -1.227 -2.406
c 2.385 -0.915 -1.521
c 2.841 0.447 -1.512
c 3.117 1.119 -0.313
c 2.335 2.333 -0.287
c 1.526 2.660 0.829
c 0.102 2.893 0.582
c -0.843 2.341 1.570
c -2.093 1.912 1.137
c -2.647 0.634 1.504
c -3.368 0.166 0.395
c -3.276 -1.157 0.025
c -3.022 -1.427 -1.332
c -1.798 -2.861 -0.165
c -2.503 -2.041 0.782
c -1.874 -1.643 1.996
c -1.955 -0.239 2.364
c -0.868 0.335 3.044
c -0.354 1.633 2.672
c 0.980 1.616 2.935
c 1.921 2.041 2.017
c 2.882 1.001 1.995
c 3.332 0.442 0.820
c 3.090 -0.944 0.868
c 2.574 -1.640 -0.294
c 1.668 -2.669 -0.008
c 0.546 -2.927 -0.810
c -0.531 -3.263 0.088
c -0.068 -3.134 1.350
c -0.678 -2.335 2.328
c 0.369 -1.735 3.023
c 0.232 -0.434 3.478
c 1.336 0.385 3.445
c 2.507 0.006 2.840
c 2.617 -1.207 2.193
c 1.607 -2.119 2.377
c 1.264 -2.897 1.322
c -2.499 2.165 -0.143
c -3.267 1.133 -0.600
c -2.933 0.871 -1.922
c -2.762 -0.464 -2.283
c -1.571 -0.873 -2.951
c -0.681 0.061 -3.372
c 0.708 -0.159 -3.216
c 1.253 1.095 -3.130
c 2.248 1.379 -2.301
c 1.875 2.490 -1.531
c 0.584 2.844 -1.838
c -0.354 3.041 -0.803
c -1.669 2.624 -1.129
c -1.973 1.819 -2.286
c -0.942 1.450 -3.122
c 0.253 2.040 -2.948




