%chk=000222.chk
%mem=8GB
%Nproc=32
#p B3LYP/6-31G* opt pop=NPA

Template file

0 1
c -1.694 -1.958 -2.034
c -2.301 -0.741 -2.310
c -1.536 0.351 -2.804
c -1.912 1.510 -2.099
c -0.953 2.450 -1.660
c -1.130 2.887 -0.297
c -0.027 3.156 0.502
c -0.207 2.498 1.751
c 0.857 1.721 2.350
c 0.520 0.446 2.889
c 1.368 -0.714 2.544
c 0.719 -1.983 2.456
c 0.897 -2.822 1.335
c -0.381 -3.292 0.919
c -0.731 -3.226 -0.425
c -1.949 -2.613 -0.805
c -0.348 -2.133 -2.370
c 0.246 -2.905 -1.372
c 1.558 -2.607 -0.966
c 1.854 -2.518 0.411
c 2.710 -1.444 0.611
c 2.507 -0.516 1.707
c 2.943 0.785 1.466
c 2.109 1.899 1.777
c 2.278 2.816 0.722
c 1.206 3.276 -0.030
c 1.437 2.905 -1.391
c 0.390 2.356 -2.163
c 0.731 1.165 -2.900
c -0.219 0.174 -3.155
c 0.382 -1.088 -2.969
c 1.715 -0.872 -2.642
c 2.307 -1.639 -1.618
c 3.121 -1.003 -0.671
c 3.525 0.290 -0.855
c 3.587 1.108 0.256
c 3.187 2.335 -0.122
c 2.710 2.324 -1.397
c 2.944 1.070 -1.915
c 1.974 0.504 -2.710
c -3.176 -0.236 -1.390
c -2.953 1.113 -1.265
c -3.061 1.460 0.051
c -2.116 2.342 0.545
c -1.524 2.095 1.804
c -1.878 0.981 2.525
c -0.867 0.201 3.133
c -1.360 -1.079 3.140
c -0.597 -2.126 2.806
c -1.277 -2.870 1.847
c -2.479 -2.236 1.530
c -2.843 -2.056 0.180
c -3.420 -0.799 -0.149
c -3.407 0.296 0.770
c -2.895 0.108 2.038
c -2.542 -1.149 2.416




