%chk=000542.chk
%mem=8GB
%Nproc=16
#p B3LYP/6-31G* opt pop=NPA

Template file

0 1
c 1.546 3.648 0.154
c 2.325 2.555 0.547
c 2.823 1.614 -0.414
c 2.890 0.348 0.172
c 2.588 -0.888 -0.510
c 2.211 -2.057 0.268
c 1.365 -3.105 -0.306
c 0.455 -3.841 0.568
c -0.888 -4.041 0.182
c -1.725 -3.451 1.138
c -2.537 -2.498 0.509
c -2.567 -1.158 0.977
c -2.707 -0.113 -0.022
c -2.549 1.185 0.387
c -2.246 2.251 -0.484
c -1.703 3.263 0.309
c -0.669 4.036 -0.086
c 0.366 3.872 0.847
c 1.220 3.757 -1.200
c -0.163 3.893 -1.321
c -0.646 2.889 -2.184
c -1.709 2.003 -1.778
c -1.661 0.633 -2.173
c -2.389 -0.373 -1.421
c -2.207 -1.712 -1.760
c -2.366 -2.726 -0.842
c -1.327 -3.671 -1.010
c -0.477 -3.171 -1.916
c 0.860 -2.853 -1.607
c 1.113 -1.643 -2.257
c 2.048 -0.717 -1.829
c 1.889 0.591 -2.339
c 2.414 1.729 -1.730
c 1.622 2.812 -2.082
c 0.499 2.327 -2.727
c 0.639 0.999 -2.922
c -0.448 0.164 -2.861
c -0.137 -1.172 -2.810
c -1.062 -2.071 -2.483
c -1.949 1.481 1.646
c -1.409 2.729 1.538
c -0.084 3.023 1.862
c 0.700 1.973 2.337
c 1.973 1.807 1.673
c 2.502 0.526 1.502
c 2.028 -0.518 2.188
c 2.058 -1.822 1.673
c 1.119 -2.511 2.394
c 0.357 -3.466 1.882
c -0.986 -3.138 2.187
c -1.019 -1.879 2.758
c -1.815 -0.843 2.206
c -1.352 0.496 2.398
c 0.048 0.773 2.783
c 0.837 -0.356 2.947
c 0.301 -1.585 3.045




