%chk=000247.chk
%mem=8GB
%Nproc=32
#p B3LYP/6-31G* opt pop=NPA

Template file

0 1
c -1.328 2.872 -0.864
c -2.518 2.388 -0.324
c -2.538 1.961 1.035
c -3.090 0.664 1.076
c -2.402 -0.414 1.739
c -2.238 -1.668 0.976
c -1.007 -2.415 1.107
c -0.301 -2.926 -0.096
c 1.149 -2.940 -0.142
c 1.780 -2.423 -1.321
c 2.849 -1.477 -1.219
c 2.586 -0.483 -2.121
c 2.505 0.857 -1.779
c 1.360 1.342 -2.460
c 0.596 2.313 -1.895
c -0.808 2.289 -2.038
c -0.268 3.191 -0.015
c 0.945 2.820 -0.629
c 2.068 2.311 0.125
c 2.863 1.274 -0.469
c 3.391 0.246 0.390
c 3.358 -1.132 -0.013
c 2.979 -1.874 1.068
c 1.840 -2.719 1.042
c 1.141 -2.403 2.192
c -0.213 -2.129 2.211
c -0.376 -0.944 2.978
c -1.414 -0.038 2.696
c -1.042 1.348 2.776
c -1.524 2.286 1.858
c -0.412 3.017 1.352
c 0.667 2.640 2.076
c 1.896 2.284 1.540
c 2.360 1.219 2.330
c 3.157 0.248 1.777
c 2.928 -1.073 2.162
c 1.820 -1.430 2.892
c 0.940 -0.508 3.353
c 1.281 0.830 3.211
c 0.282 1.703 3.008
c 1.026 -2.045 -2.434
c 1.521 -0.830 -2.885
c 0.727 0.273 -3.145
c -0.672 0.138 -3.222
c -1.493 1.224 -2.723
c -2.791 0.905 -2.219
c -3.229 1.487 -1.028
c -3.658 0.480 -0.153
c -3.604 -0.678 -0.793
c -2.902 -1.759 -0.272
c -2.227 -2.284 -1.361
c -0.964 -2.761 -1.319
c -0.307 -2.209 -2.456
c -1.149 -1.211 -3.017
c -2.365 -1.416 -2.455
c -3.176 -0.424 -2.103




