%chk=000711.chk
%mem=8GB
%Nproc=16
#p B3LYP/6-31G* opt pop=NPA

Template file

0 1
c 0.808 -3.107 1.588
c 2.039 -2.617 1.868
c 1.957 -1.584 2.704
c 2.651 -0.521 2.126
c 2.134 0.730 2.286
c 2.168 1.639 1.229
c 1.069 2.513 1.383
c 0.400 3.070 0.253
c -1.007 3.151 0.312
c -1.818 2.644 -0.758
c -2.864 1.916 -0.153
c -3.137 0.630 -0.612
c -3.134 -0.465 0.317
c -2.524 -1.549 -0.296
c -1.595 -2.393 0.395
c -0.515 -2.965 -0.405
c 0.698 -3.227 0.223
c 1.953 -2.733 -0.331
c 2.687 -2.281 0.735
c 3.100 -0.955 0.836
c -0.119 -2.427 2.352
c -1.370 -2.110 1.812
c -2.000 -0.986 2.379
c -2.952 -0.233 1.672
c -2.849 1.076 2.094
c -2.783 2.114 1.201
c -1.655 2.844 1.487
c -1.013 2.275 2.582
c 0.353 2.103 2.532
c 0.933 0.923 3.004
c 0.112 -0.211 3.385
c 0.635 -1.458 3.122
c -1.262 -0.061 3.200
c -1.796 1.183 2.962
c 3.037 -0.126 -0.289
c 2.656 1.267 -0.053
c 2.126 1.993 -1.120
c 0.948 2.796 -0.980
c 0.127 2.549 -2.117
c -1.257 2.249 -1.970
c -1.746 1.022 -2.599
c -2.601 0.196 -1.799
c -2.336 -1.197 -1.638
c -1.368 -1.793 -2.388
c -0.404 -2.598 -1.754
c 0.859 -2.253 -2.336
c 1.993 -2.065 -1.520
c 2.669 -0.751 -1.557
c 2.315 0.098 -2.618
c 2.070 1.440 -2.359
c 0.892 1.833 -2.988
c 0.415 0.789 -3.681
c -0.882 0.332 -3.481
c -0.740 -1.056 -3.355
c 0.602 -1.388 -3.356
c 1.316 -0.264 -3.526




