%chk=000530.chk
%mem=8GB
%Nproc=48
#p B3LYP/6-31G* opt pop=NPA

Template file

0 1
c 3.058 -0.924 1.976
c 2.792 0.439 2.071
c 1.664 0.870 2.749
c 1.094 2.060 2.299
c -0.262 2.290 2.472
c -0.759 2.968 1.406
c -2.007 2.458 1.042
c -2.340 2.334 -0.325
c -3.078 1.147 -0.743
c -2.800 0.607 -2.046
c -2.549 -0.787 -2.246
c -1.389 -0.913 -3.046
c -0.389 -1.801 -2.682
c 0.957 -1.380 -2.654
c 1.609 -2.176 -1.733
c 2.740 -1.742 -1.136
c 3.000 -2.165 0.151
c 3.619 -1.157 0.787
c 2.068 -1.887 2.177
c 1.996 -2.674 0.989
c 0.754 -3.054 0.444
c 0.637 -2.907 -0.983
c -0.581 -2.697 -1.610
c -1.743 -2.623 -0.867
c -2.742 -1.668 -1.214
c -3.238 -1.177 -0.042
c -3.371 0.182 0.253
c -2.938 0.314 1.589
c -2.279 1.445 1.987
c -1.158 1.330 2.854
c -0.646 0.085 3.215
c 0.736 -0.150 3.187
c 0.920 -1.505 2.807
c -0.312 -2.023 2.413
c -0.435 -2.826 1.221
c -1.666 -2.702 0.536
c -2.644 -1.826 1.005
c -2.460 -0.954 2.031
c -1.294 -1.068 2.770
c 3.103 -0.352 -1.222
c 3.625 -0.036 0.022
c 3.148 1.009 0.783
c 2.373 1.992 0.181
c 1.433 2.622 1.030
c 0.265 3.217 0.520
c -0.020 3.163 -0.796
c -1.351 2.863 -1.227
c -1.205 2.320 -2.460
c -1.908 1.249 -2.866
c -1.018 0.341 -3.413
c 0.295 0.831 -3.276
c 1.322 0.006 -2.826
c 2.307 0.560 -1.914
c 2.021 1.833 -1.229
c 0.901 2.554 -1.688
c 0.145 2.085 -2.721




