%chk=000060.chk
%mem=8GB
%Nproc=32
#p B3LYP/6-31G* opt pop=NPA

Template file

0 1
c -1.167 -2.372 -1.207
c -1.479 -2.499 0.116
c -2.384 -1.575 0.672
c -1.808 -1.188 1.894
c -1.803 0.167 2.268
c -0.506 0.752 2.557
c -0.118 1.946 1.842
c 1.158 1.954 1.187
c 1.142 2.282 -0.238
c 1.971 1.466 -1.078
c 1.354 0.809 -2.207
c 1.558 -0.619 -2.370
c 0.398 -1.408 -2.476
c 0.188 -2.468 -1.578
c -1.822 -1.405 -1.979
c -0.814 -0.833 -2.787
c -0.885 0.497 -3.091
c 0.183 1.344 -2.673
c -0.399 2.486 -2.118
c -0.000 2.916 -0.809
c -1.073 3.300 0.039
c -1.142 2.711 1.326
c -2.472 2.293 1.486
c -2.757 0.958 1.706
c -3.548 0.520 0.582
c -3.173 -0.679 -0.081
c -2.912 -0.607 -1.509
c -3.112 0.653 -2.154
c -2.040 1.169 -2.903
c -1.754 2.449 -2.472
c -2.731 2.852 -1.658
c -2.408 3.365 -0.439
c -3.199 2.727 0.461
c -3.863 1.668 -0.132
c -3.609 1.745 -1.462
c -0.469 -2.814 1.033
c -0.720 -1.992 2.154
c 0.339 -1.502 2.866
c 0.499 -0.089 2.955
c 1.848 0.182 2.716
c 2.209 1.150 1.719
c 3.274 0.753 0.869
c 3.070 0.839 -0.531
c 3.509 -0.385 -1.058
c 2.630 -1.193 -1.758
c 2.517 -2.418 -1.007
c 1.218 -2.920 -0.726
c 0.871 -3.149 0.667
c 1.885 -2.913 1.648
c 1.564 -2.046 2.707
c 2.515 -1.048 2.786
c 3.536 -1.370 1.990
c 3.989 -0.453 1.092
c 4.081 -1.103 -0.097
c 3.492 -2.351 -0.021
c 3.170 -2.552 1.281




