%chk=000057.chk
%mem=8GB
%Nproc=32
#p B3LYP/6-31G* opt pop=NPA

Template file

0 1
c -1.117 -2.621 -0.337
c -1.715 -1.768 -1.320
c -0.790 -1.308 -2.334
c -0.842 0.048 -2.646
c 0.366 0.794 -2.820
c 0.183 1.967 -2.085
c 1.181 2.401 -1.185
c 0.751 2.598 0.187
c 1.428 1.867 1.234
c 0.636 1.152 2.193
c 0.951 -0.273 2.350
c -0.159 -1.135 2.572
c -0.244 -2.251 1.703
c -1.450 -2.499 0.989
c 0.217 -2.943 -0.370
c 0.787 -2.628 0.910
c 2.063 -2.082 1.010
c 2.143 -0.810 1.737
c 3.107 0.092 1.256
c 2.685 1.407 0.924
c 3.259 1.690 -0.322
c 2.450 1.955 -1.419
c 2.737 0.940 -2.393
c 1.632 0.231 -2.978
c 1.664 -1.183 -2.899
c 0.504 -1.887 -2.461
c 0.964 -2.782 -1.473
c 2.311 -2.639 -1.339
c 2.923 -2.318 -0.102
c 3.923 -1.439 -0.415
c 4.053 -0.279 0.284
c 4.117 0.726 -0.644
c 3.855 0.246 -1.902
c 3.826 -1.108 -1.798
c 2.779 -1.797 -2.307
c -1.811 0.871 -2.083
c -1.140 2.080 -1.758
c -1.515 2.759 -0.641
c -0.562 2.908 0.408
c -1.225 2.616 1.599
c -0.679 1.637 2.496
c -1.637 0.755 3.069
c -1.380 -0.630 3.012
c -2.586 -1.220 2.554
c -2.592 -1.947 1.374
c -3.396 -1.250 0.429
c -2.839 -0.970 -0.872
c -2.897 0.416 -1.296
c -3.482 1.382 -0.404
c -2.708 2.510 -0.081
c -2.593 2.609 1.291
c -3.462 1.771 1.848
c -3.032 0.912 2.808
c -3.528 -0.303 2.470
c -4.056 -0.280 1.180
c -4.056 1.008 0.792




