%chk=000135.chk
%mem=8GB
%Nproc=16
#p B3LYP/6-31G* opt pop=NPA

Template file

0 1
c 2.762 -1.955 0.048
c 2.636 -1.377 1.357
c 1.424 -1.655 2.090
c 0.893 -0.646 2.926
c -0.507 -0.494 3.126
c -0.750 0.881 3.116
c -1.759 1.471 2.389
c -1.155 2.449 1.563
c -1.559 2.580 0.215
c -0.481 2.812 -0.691
c -0.458 2.189 -1.953
c 0.848 1.850 -2.280
c 1.165 0.552 -2.829
c 2.444 0.075 -2.534
c 2.565 -1.235 -2.082
c 3.399 -1.265 -0.976
c 1.662 -2.575 -0.558
c 1.498 -2.051 -1.876
c 0.232 -1.745 -2.378
c 0.078 -0.388 -2.932
c -1.218 0.129 -2.910
c -1.493 1.410 -2.343
c -2.671 1.335 -1.591
c -2.702 1.825 -0.241
c -3.359 0.950 0.701
c -2.766 0.692 1.938
c -2.680 -0.732 2.121
c -1.459 -1.333 2.557
c -0.947 -2.376 1.744
c 0.435 -2.491 1.492
c 0.563 -2.911 0.155
c -0.689 -2.945 -0.444
c -0.897 -2.398 -1.765
c -2.179 -1.901 -2.011
c -2.291 -0.646 -2.602
c -3.231 0.104 -1.913
c -3.811 -0.687 -0.995
c -3.890 -0.268 0.285
c -3.394 -1.276 1.096
c -2.893 -2.297 0.285
c -1.640 -2.786 0.578
c -3.166 -1.924 -1.019
c 1.450 0.655 2.904
c 0.398 1.542 2.917
c 0.210 2.534 1.951
c 1.248 2.786 1.060
c 0.862 2.959 -0.293
c 1.685 2.479 -1.343
c 2.940 1.974 -1.090
c 3.327 0.815 -1.740
c 3.916 -0.037 -0.805
c 3.849 0.547 0.410
c 3.231 -0.068 1.495
c 2.528 0.948 2.145
c 2.481 2.100 1.285
c 3.316 1.815 0.246




