%chk=000758.chk
%mem=8GB
%Nproc=16
#p B3LYP/6-31G* opt pop=NPA

Template file

0 1
c -0.887 3.660 0.016
c 0.029 3.847 0.993
c 1.253 3.223 0.917
c 1.400 2.550 2.178
c 2.083 1.414 2.241
c 1.472 0.244 2.813
c 2.130 -0.806 2.277
c 1.548 -1.956 1.836
c 2.233 -2.331 0.635
c 1.595 -3.052 -0.386
c 1.895 -2.645 -1.720
c 0.865 -2.546 -2.654
c 0.924 -1.285 -3.248
c -0.307 -0.697 -3.226
c -0.434 0.656 -2.762
c -1.680 0.993 -2.153
c -1.726 2.112 -1.352
c -2.517 2.146 -0.157
c -2.046 3.136 0.611
c -1.798 2.938 1.942
c -0.583 3.475 2.182
c 0.180 2.608 2.831
c -0.607 2.937 -1.120
c 0.693 2.444 -1.381
c 0.788 1.373 -2.314
c 1.990 0.626 -2.298
c 2.019 -0.655 -2.806
c 2.675 -1.497 -1.931
c 3.198 -0.753 -0.938
c 3.125 -1.252 0.336
c 3.034 -0.359 1.339
c 2.868 1.002 1.176
c 2.664 1.542 -0.137
c 1.682 2.569 -0.282
c 2.839 0.627 -1.176
c -0.565 1.425 3.086
c 0.074 0.177 3.050
c -0.622 -0.977 2.532
c 0.167 -2.119 2.004
c -0.411 -3.002 1.086
c 0.262 -3.430 -0.120
c -0.719 -3.443 -1.154
c -0.421 -2.844 -2.385
c -1.204 -1.716 -2.829
c -2.352 -1.385 -2.157
c -2.569 -0.056 -1.784
c -3.143 -0.071 -0.466
c -2.933 0.939 0.420
c -2.425 0.596 1.767
c -1.827 1.634 2.476
c -1.960 -0.755 1.988
c -2.465 -1.735 1.132
c -1.724 -2.854 0.770
c -1.911 -3.136 -0.571
c -2.733 -2.173 -1.077
c -3.115 -1.359 -0.049




