%chk=000481.chk
%mem=8GB
%Nproc=16
#p B3LYP/6-31G* opt pop=NPA

Template file

0 1
c -2.957 0.459 1.355
c -2.402 1.630 1.839
c -2.025 2.677 0.967
c -0.813 3.215 1.444
c 0.191 3.568 0.561
c 1.488 3.137 0.852
c 2.099 2.753 -0.289
c 2.840 1.603 -0.068
c 2.949 0.647 -1.073
c 3.126 -0.667 -0.650
c 2.662 -1.711 -1.434
c 2.226 -2.721 -0.651
c 1.050 -3.251 -1.188
c 0.046 -3.604 -0.306
c -1.284 -3.203 -0.542
c -1.842 -2.816 0.699
c -2.683 -1.721 0.796
c -2.518 -0.789 1.838
c -3.221 0.324 -0.015
c -3.052 -1.018 -0.359
c -2.478 -1.370 -1.593
c -1.588 -2.452 -1.684
c -0.565 -2.093 -2.583
c 0.755 -2.486 -2.335
c 1.793 -1.538 -2.495
c 1.523 -0.243 -2.901
c 2.135 0.847 -2.251
c 1.248 1.937 -2.341
c 1.233 2.907 -1.355
c 0.015 3.394 -0.826
c -1.191 2.870 -1.310
c -2.213 2.511 -0.411
c -2.819 1.341 -0.898
c -2.198 0.993 -2.103
c -2.028 -0.357 -2.450
c -0.834 -0.792 -3.038
c 0.212 0.129 -3.228
c 0.043 1.471 -2.883
c -1.175 1.919 -2.343
c -1.404 1.522 2.790
c -0.455 2.455 2.559
c 0.803 1.875 2.739
c 1.800 2.226 1.863
c 2.629 1.240 1.302
c 2.531 -0.115 1.690
c 2.918 -1.058 0.712
c 2.377 -2.354 0.688
c 1.380 -2.705 1.564
c 0.283 -3.404 1.056
c -0.842 -2.942 1.645
c -0.527 -1.951 2.560
c -1.396 -0.880 2.746
c -0.813 0.319 3.142
c 0.603 0.528 3.082
c 1.471 -0.487 2.622
c 0.892 -1.770 2.492




