%chk=000367.chk
%mem=8GB
%Nproc=16
#p B3LYP/6-31G* opt pop=NPA

Template file

0 1
c 0.091 -3.003 0.812
c -1.261 -2.945 0.511
c -1.684 -3.040 -0.826
c -2.673 -2.064 -0.981
c -2.691 -1.144 -2.014
c -2.770 0.149 -1.397
c -1.989 1.239 -1.848
c -1.534 2.173 -0.863
c -0.224 2.723 -1.058
c 0.549 3.139 0.012
c 1.821 2.506 -0.097
c 2.411 1.884 1.041
c 2.770 0.489 0.863
c 2.321 -0.457 1.868
c 1.858 -1.709 1.415
c 0.595 -2.202 1.829
c 1.035 -3.059 -0.227
c 2.085 -2.193 0.134
c 2.648 -1.349 -0.813
c 2.904 -0.009 -0.462
c 2.526 0.755 -1.577
c 1.878 1.957 -1.352
c 0.643 2.194 -2.001
c 0.200 1.362 -2.979
c -1.149 0.951 -2.974
c -1.158 -0.298 -3.582
c -1.865 -1.371 -3.086
c -0.940 -2.443 -3.008
c -0.764 -3.197 -1.857
c 0.624 -3.166 -1.558
c 1.263 -2.379 -2.540
c 2.216 -1.418 -2.144
c 2.108 -0.088 -2.606
c 1.002 0.278 -3.402
c 0.148 -0.693 -3.833
c 0.283 -2.000 -3.442
c -2.044 -1.961 1.170
c -2.845 -1.417 0.195
c -2.954 -0.052 -0.012
c -2.512 0.819 0.964
c -1.957 2.074 0.520
c -1.283 2.826 1.498
c 0.016 3.366 1.224
c 0.801 3.183 2.343
c 1.942 2.324 2.284
c 1.723 1.390 3.303
c 1.713 0.043 3.015
c 0.400 -0.441 3.398
c -0.223 -1.414 2.655
c -1.563 -1.144 2.180
c -2.040 0.229 2.220
c -1.466 1.070 3.150
c -1.226 2.410 2.818
c -0.003 2.762 3.342
c 0.546 1.706 3.932
c -0.303 0.652 3.843




