%chk=000473.chk
%mem=8GB
%Nproc=32
#p B3LYP/6-31G* opt pop=NPA

Template file

0 1
c 1.801 -2.413 1.898
c 1.014 -1.534 2.592
c -0.363 -1.560 2.431
c -1.054 -0.358 2.691
c -2.340 -0.118 2.196
c -2.437 1.242 1.829
c -3.142 1.651 0.632
c -2.541 2.688 -0.097
c -2.306 2.507 -1.481
c -1.032 2.896 -1.776
c -0.378 1.892 -2.486
c 0.954 1.588 -2.200
c 1.405 0.251 -2.454
c 2.691 -0.076 -2.008
c 3.022 -1.358 -1.625
c 3.846 -1.318 -0.492
c 3.407 -2.246 0.379
c 3.029 -1.870 1.650
c 1.329 -3.063 0.748
c 2.323 -2.896 -0.198
c 2.050 -2.327 -1.450
c 0.731 -2.076 -1.825
c 0.413 -0.823 -2.519
c -0.961 -0.486 -2.714
c -1.331 0.889 -2.715
c -2.573 1.342 -2.125
c -3.413 0.459 -1.534
c -3.734 0.612 -0.122
c -3.761 -0.681 0.381
c -2.971 -1.083 1.451
c -2.215 -2.222 1.021
c -0.907 -2.431 1.410
c 0.007 -2.944 0.406
c -0.288 -2.669 -1.003
c -1.585 -2.406 -1.314
c -1.945 -1.364 -2.213
c -3.187 -0.875 -1.758
c -3.513 -1.540 -0.638
c -2.552 -2.412 -0.310
c 3.326 0.750 -1.061
c 3.935 -0.012 -0.104
c 3.485 0.431 1.156
c 3.000 -0.528 2.051
c 1.750 -0.309 2.673
c 1.060 0.914 2.587
c -0.355 0.863 2.737
c -1.211 1.841 2.215
c -0.675 2.863 1.470
c -1.379 3.297 0.371
c -0.484 3.443 -0.669
c 0.765 3.110 -0.266
c 1.588 2.344 -1.098
c 2.682 1.794 -0.490
c 2.727 1.584 0.934
c 1.600 1.926 1.710
c 0.695 2.820 1.127




