%chk=000111.chk
%mem=8GB
%Nproc=16
#p B3LYP/6-31G* opt pop=NPA

Template file

0 1
c -2.810 -0.598 -1.364
c -1.938 -1.723 -1.147
c -1.655 -2.172 0.238
c -0.594 -3.051 0.441
c 0.298 -2.947 1.558
c 1.586 -3.263 1.057
c 2.655 -2.402 1.207
c 2.995 -1.922 -0.119
c 3.115 -0.511 -0.386
c 2.400 0.040 -1.508
c 1.862 1.419 -1.425
c 0.932 1.821 -2.382
c -0.210 2.626 -2.063
c -1.272 2.123 -2.856
c -2.466 1.713 -2.294
c -2.542 0.276 -2.478
c -3.338 0.027 -0.236
c -3.488 1.436 -0.231
c -2.822 2.241 -1.135
c -1.858 3.014 -0.375
c -0.470 3.052 -0.763
c 0.531 2.775 0.234
c 1.779 2.079 -0.157
c 2.588 1.560 0.852
c 3.249 0.294 0.742
c 3.174 -0.296 2.029
c 2.633 -1.553 2.221
c 1.405 -1.368 2.972
c 0.165 -1.942 2.513
c -0.994 -1.092 2.421
c -1.986 -1.326 1.345
c -2.926 -0.330 1.089
c -2.868 0.865 1.802
c -3.204 1.874 0.982
c -2.195 2.801 0.937
c -1.275 2.454 1.869
c 0.079 2.614 1.624
c 0.882 1.938 2.494
c 2.174 1.658 2.178
c 2.540 0.542 2.828
c 1.441 -0.062 3.385
c 0.387 0.774 3.223
c -0.874 0.279 2.938
c -1.751 1.221 2.490
c 0.197 -3.431 -0.641
c 1.470 -3.540 -0.229
c 2.279 -2.720 -0.973
c 1.530 -2.208 -1.980
c 1.705 -0.900 -2.399
c 0.690 -0.428 -3.178
c 0.497 0.908 -3.339
c -0.806 1.124 -3.582
c -1.526 -0.019 -3.349
c -0.643 -1.020 -3.112
c -0.910 -1.992 -2.163
c 0.179 -2.732 -1.807




