%chk=000578.chk
%mem=8GB
%Nproc=48
#p B3LYP/6-31G* opt pop=NPA

Template file

0 1
c 1.607 -1.781 2.138
c 2.299 -1.449 0.950
c 2.772 -0.071 0.775
c 3.151 0.355 -0.520
c 2.986 1.681 -1.005
c 2.537 1.614 -2.370
c 1.514 2.456 -2.827
c 0.364 1.835 -3.363
c -0.755 2.359 -2.747
c -1.594 1.339 -2.348
c -2.205 1.348 -1.073
c -2.729 0.131 -0.605
c -3.041 0.050 0.772
c -3.220 -1.167 1.395
c -2.570 -1.174 2.613
c -1.819 -2.365 2.724
c -0.468 -2.234 3.074
c 0.565 -2.745 2.212
c 1.225 -0.758 2.975
c -0.027 -0.994 3.472
c -0.770 0.184 3.340
c -2.045 0.084 2.825
c -2.391 0.891 1.704
c -1.605 1.951 1.269
c -1.705 2.344 -0.105
c -0.774 3.300 -0.574
c -0.363 3.325 -1.896
c 1.033 3.421 -1.964
c 1.487 3.506 -0.685
c 2.434 2.632 -0.163
c 1.972 2.226 1.095
c 2.232 0.960 1.640
c 1.377 0.559 2.656
c 0.090 1.159 2.848
c -0.330 2.145 1.960
c 0.672 2.811 1.283
c 0.395 3.509 0.158
c 2.863 -0.467 -1.585
c 2.436 0.272 -2.652
c 1.285 -0.339 -3.164
c 0.204 0.468 -3.451
c -1.057 0.142 -2.876
c -1.312 -1.077 -2.261
c -2.349 -1.128 -1.273
c -2.475 -2.326 -0.532
c -2.962 -2.329 0.765
c -2.128 -3.093 1.591
c -1.150 -3.607 0.800
c 0.203 -3.423 1.060
c 0.811 -3.060 -0.149
c 1.919 -2.204 -0.228
c 2.128 -1.609 -1.464
c 1.090 -1.513 -2.447
c -0.179 -1.993 -2.133
c -0.231 -2.944 -1.133
c -1.396 -3.209 -0.499




