%chk=000767.chk
%mem=8GB
%Nproc=16
#p B3LYP/6-31G* opt pop=NPA

Template file

0 1
c -2.436 1.415 2.166
c -3.312 0.455 1.989
c -3.018 -0.834 2.281
c -3.648 -1.550 1.236
c -3.111 -2.620 0.722
c -2.875 -2.388 -0.667
c -1.676 -2.902 -0.997
c -0.782 -2.196 -1.822
c 0.558 -2.533 -1.633
c 1.587 -1.742 -2.061
c 2.611 -1.869 -1.087
c 3.359 -0.846 -0.680
c 3.053 -0.651 0.728
c 2.859 0.638 1.215
c 1.626 0.842 1.984
c 0.971 2.107 1.753
c -0.374 2.158 1.929
c -1.196 2.668 0.856
c -2.388 2.162 0.998
c -3.034 1.487 -0.024
c -3.777 0.548 0.636
c -3.916 -0.664 0.178
c -1.131 1.214 2.598
c -0.637 -0.095 2.800
c 0.778 -0.295 2.441
c 1.150 -1.606 1.994
c 2.256 -1.717 1.120
c 2.119 -2.518 -0.031
c 0.976 -3.107 -0.367
c 0.084 -3.345 0.587
c -1.187 -3.476 0.223
c -1.985 -3.120 1.248
c -1.195 -2.407 2.204
c -1.646 -1.171 2.687
c 0.128 -2.581 1.815
c -3.238 -1.097 -0.975
c -2.308 -0.223 -1.656
c -1.085 -0.806 -2.200
c 0.018 0.056 -2.585
c 1.382 -0.494 -2.641
c 2.493 0.377 -2.560
c 3.504 0.188 -1.508
c 3.786 1.393 -0.979
c 3.386 1.681 0.375
c 2.700 2.877 0.250
c 1.455 2.976 0.760
c 0.589 3.312 -0.371
c -0.670 2.851 -0.386
c -1.114 1.941 -1.462
c -2.277 1.163 -1.215
c -0.092 1.489 -2.359
c 1.086 2.292 -2.458
c 2.342 1.716 -2.663
c 3.259 2.330 -1.808
c 2.647 3.232 -1.096
c 1.342 3.287 -1.481




