%chk=000852.chk
%mem=8GB
%Nproc=32
#p B3LYP/6-31G* opt pop=NPA

Template file

0 1
c 2.544 -0.439 1.504
c 2.493 0.767 2.280
c 1.751 0.851 3.455
c 0.808 1.904 3.325
c -0.454 1.435 3.577
c -1.465 1.545 2.519
c -2.286 0.407 2.362
c -2.652 -0.052 1.079
c -2.472 -1.466 1.062
c -1.988 -2.090 -0.070
c -0.762 -2.827 0.137
c 0.217 -2.778 -0.822
c 1.406 -2.338 -0.209
c 2.181 -1.346 -0.846
c 2.627 -0.296 0.039
c 2.541 1.038 -0.523
c 2.120 2.056 0.319
c 0.895 2.762 0.048
c 0.178 2.810 1.230
c -1.137 2.267 1.295
c 1.833 -1.569 2.088
c 1.214 -2.429 1.169
c -0.139 -2.863 1.369
c -0.824 -2.525 2.497
c -2.032 -1.823 2.307
c -2.043 -0.745 3.135
c -0.980 -0.848 3.977
c -0.220 0.204 4.210
c 1.123 -0.179 3.976
c 1.148 -1.416 3.359
c -0.164 -1.892 3.505
c -1.702 1.897 0.004
c -2.475 0.673 -0.092
c -2.514 -0.050 -1.334
c -2.165 -1.478 -1.307
c -1.379 -1.960 -2.382
c -0.080 -2.456 -2.087
c 0.835 -1.816 -2.906
c 1.920 -1.106 -2.264
c 2.088 0.209 -2.768
c 2.192 1.228 -1.838
c 1.190 2.205 -2.176
c 0.335 2.673 -1.159
c -1.073 2.337 -1.219
c -1.507 1.847 -2.463
c -2.243 0.636 -2.522
c -1.803 -0.040 -3.680
c -1.277 -1.296 -3.545
c 0.079 -1.254 -3.938
c 0.323 -0.017 -4.430
c 1.300 0.711 -3.825
c 0.712 1.901 -3.383
c -0.647 1.830 -3.587
c -0.867 0.710 -4.303
c 2.209 1.945 1.631
c 1.092 2.548 2.219




