%chk=000372.chk
%mem=8GB
%Nproc=16
#p B3LYP/6-31G* opt pop=NPA

Template file

0 1
c 2.280 1.641 1.832
c 2.616 0.308 1.990
c 3.035 -0.434 0.851
c 2.424 -1.742 0.648
c 1.922 -2.100 -0.685
c 0.566 -2.670 -0.841
c -0.338 -2.154 -1.863
c -1.736 -1.915 -1.541
c -2.357 -0.782 -2.173
c -3.242 -0.006 -1.453
c -2.884 1.324 -1.551
c -2.789 1.868 -0.254
c -1.653 2.588 0.120
c -1.085 2.314 1.435
c 0.276 2.626 1.582
c 1.061 1.871 2.425
c 2.366 2.328 0.666
c 1.117 2.983 0.493
c 0.599 3.126 -0.773
c -0.762 2.930 -0.967
c -0.903 2.349 -2.264
c -1.928 1.451 -2.487
c -1.632 0.128 -2.955
c -0.375 -0.160 -3.351
c 0.249 -1.341 -2.859
c 1.587 -1.057 -2.818
c 2.407 -1.358 -1.741
c 3.158 -0.197 -1.518
c 3.353 0.332 -0.283
c 2.997 1.727 -0.397
c 2.539 1.958 -1.698
c 1.309 2.628 -1.891
c 0.358 2.106 -2.791
c 0.602 0.861 -3.427
c 1.802 0.258 -3.210
c 2.748 0.790 -2.394
c -3.544 -0.263 -0.182
c -3.279 0.886 0.575
c -2.725 0.515 1.758
c -1.605 1.205 2.270
c -0.708 0.415 3.111
c 0.654 0.766 3.096
c 1.706 -0.207 2.906
c 1.396 -1.513 2.883
c 1.752 -2.299 1.725
c 0.676 -3.139 1.507
c -0.010 -3.197 0.295
c -1.394 -2.999 0.605
c -2.226 -2.283 -0.228
c -3.093 -1.349 0.462
c -2.801 -0.905 1.784
c -1.984 -1.623 2.552
c -0.952 -0.978 3.277
c 0.126 -1.883 3.257
c -0.227 -2.940 2.493
c -1.447 -2.788 1.997




