%chk=000791.chk
%mem=8GB
%Nproc=16
#p B3LYP/6-31G* opt pop=NPA

Template file

0 1
c 1.909 2.869 -0.519
c 2.159 3.295 0.794
c 2.760 2.500 1.688
c 1.934 2.413 2.827
c 1.930 1.113 3.227
c 0.766 0.372 3.391
c 0.971 -0.906 2.807
c -0.058 -1.680 2.208
c 0.274 -2.620 1.145
c -0.731 -3.195 0.296
c -0.384 -3.586 -1.056
c -1.314 -3.501 -2.114
c -0.707 -2.834 -3.154
c -1.402 -1.695 -3.467
c -0.524 -0.610 -3.345
c -0.911 0.573 -2.700
c 0.114 1.436 -2.233
c -0.280 2.521 -1.475
c 0.613 3.276 -0.780
c 0.029 3.744 0.388
c 0.965 3.753 1.364
c 0.758 3.098 2.578
c 2.306 1.588 -0.975
c 1.476 0.929 -1.976
c 1.671 -0.445 -2.254
c 0.757 -1.145 -3.042
c 0.542 -2.524 -2.840
c 0.829 -3.094 -1.605
c 1.705 -2.450 -0.826
c 1.554 -2.398 0.545
c 2.408 -1.423 0.995
c 2.242 -0.837 2.195
c 2.759 0.408 2.396
c 3.178 1.237 1.336
c 3.010 0.758 0.000
c 2.823 -0.623 -0.123
c 2.280 -1.209 -1.225
c -0.456 2.383 2.731
c -0.441 1.025 3.172
c -1.443 0.326 2.519
c -1.345 -1.056 2.169
c -2.242 -1.519 1.229
c -2.040 -2.660 0.440
c -2.864 -2.514 -0.685
c -2.509 -2.892 -1.923
c -2.553 -1.732 -2.749
c -2.929 -0.655 -1.976
c -2.191 0.552 -1.964
c -2.292 1.372 -0.800
c -1.465 2.467 -0.693
c -1.188 3.127 0.523
c -1.448 2.456 1.727
c -2.093 1.234 1.644
c -2.672 0.758 0.465
c -2.975 -0.582 0.430
c -3.264 -1.198 -0.732




