%chk=000066.chk
%mem=8GB
%Nproc=32
#p B3LYP/6-31G* opt pop=NPA

Template file

0 1
c 1.376 2.666 1.037
c 1.637 2.523 -0.296
c 0.543 2.477 -1.191
c 0.611 1.402 -2.182
c -0.582 0.711 -2.499
c -0.578 -0.751 -2.447
c -1.633 -1.359 -1.653
c -1.256 -2.287 -0.664
c -1.578 -1.970 0.719
c -0.462 -2.028 1.662
c -0.222 -0.910 2.494
c 1.135 -0.359 2.536
c 1.196 1.053 2.567
c 2.068 1.681 1.725
c 0.152 2.843 1.555
c 0.052 1.857 2.599
c -1.158 1.333 2.851
c -1.324 -0.067 2.713
c -2.573 -0.253 2.080
c -2.679 -1.133 0.967
c -3.410 -0.624 -0.155
c -2.778 -0.658 -1.432
c -2.911 0.614 -1.966
c -1.773 1.357 -2.249
c -1.867 2.534 -1.436
c -0.736 2.947 -0.716
c -0.937 3.163 0.737
c -2.212 2.902 1.301
c -2.267 1.945 2.346
c -3.205 1.001 2.035
c -3.912 1.433 0.971
c -4.088 0.608 -0.091
c -3.734 1.325 -1.201
c -3.140 2.506 -0.846
c -3.291 2.627 0.503
c 2.930 1.047 0.916
c 2.717 1.638 -0.379
c 2.895 0.860 -1.458
c 1.798 0.666 -2.333
c 1.817 -0.702 -2.687
c 0.619 -1.467 -2.619
c 0.739 -2.747 -1.987
c -0.162 -3.053 -0.925
c 0.616 -3.510 0.126
c 0.621 -2.811 1.325
c 1.978 -2.394 1.525
c 2.225 -1.068 1.910
c 3.190 -0.319 1.069
c 3.753 -0.956 -0.065
c 3.546 -0.331 -1.320
c 3.014 -1.242 -2.189
c 3.094 -2.466 -1.627
c 1.991 -3.255 -1.591
c 1.865 -3.685 -0.298
c 2.735 -3.017 0.521
c 3.556 -2.293 -0.291




