%chk=000378.chk
%mem=8GB
%Nproc=16
#p B3LYP/6-31G* opt pop=NPA

Template file

0 1
c 1.129 2.505 1.441
c 1.256 1.475 2.445
c 2.187 0.424 2.183
c 1.730 -0.928 2.402
c 2.068 -1.972 1.514
c 0.881 -2.680 1.196
c 0.563 -3.044 -0.157
c -0.805 -2.902 -0.573
c -1.033 -2.425 -1.893
c -2.088 -1.557 -2.130
c -1.647 -0.503 -2.891
c -2.127 0.683 -2.354
c -1.236 1.776 -2.171
c -1.416 2.573 -0.989
c -0.231 3.039 -0.322
c -0.129 3.041 1.092
c 1.888 2.475 0.286
c 1.034 2.764 -0.811
c 1.211 2.095 -2.015
c 0.094 1.574 -2.673
c 0.516 0.343 -3.252
c -0.365 -0.725 -3.268
c 0.018 -1.982 -2.717
c 1.312 -2.190 -2.358
c 1.594 -2.798 -1.109
c 2.808 -2.267 -0.707
c 3.038 -1.794 0.577
c 3.588 -0.523 0.436
c 3.107 0.578 1.121
c 2.922 1.584 0.139
c 3.211 1.034 -1.129
c 2.301 1.229 -2.186
c 1.852 0.122 -2.942
c 2.282 -1.181 -2.594
c 3.222 -1.311 -1.614
c 3.687 -0.232 -0.907
c 0.450 -1.186 2.858
c -0.090 -2.243 2.080
c -1.431 -2.216 1.719
c -1.786 -2.507 0.400
c -2.873 -1.643 0.084
c -2.951 -1.104 -1.189
c -3.057 0.306 -1.368
c -3.282 1.103 -0.291
c -2.520 2.288 -0.135
c -2.417 2.483 1.232
c -1.222 2.795 1.864
c -1.090 1.900 2.922
c 0.064 1.171 3.141
c -0.362 -0.172 3.303
c -1.756 -0.232 3.085
c -2.275 -1.215 2.221
c -3.160 -0.844 1.184
c -3.475 0.523 0.990
c -3.010 1.428 1.899
c -2.182 1.062 2.929




