%chk=000431.chk
%mem=8GB
%Nproc=32
#p B3LYP/6-31G* opt pop=NPA

Template file

0 1
c 2.885 1.017 2.287
c 3.210 -0.312 2.391
c 3.606 -1.043 1.275
c 2.772 -2.170 1.258
c 2.108 -2.617 0.138
c 0.736 -2.848 0.528
c -0.329 -2.777 -0.366
c -1.621 -2.274 0.084
c -2.577 -1.753 -0.903
c -3.630 -0.919 -0.500
c -3.883 0.300 -1.221
c -4.108 1.285 -0.332
c -3.130 2.254 -0.473
c -2.482 2.391 0.751
c -1.104 2.542 0.806
c -0.447 1.950 1.930
c 0.909 2.070 2.033
c 1.630 1.191 2.811
c 2.953 1.698 1.094
c 1.703 2.387 0.915
c 1.086 2.582 -0.355
c -0.342 2.647 -0.438
c -1.011 2.224 -1.673
c -2.405 1.993 -1.613
c -2.963 0.765 -2.132
c -2.140 -0.111 -2.707
c -2.036 -1.443 -2.165
c -0.814 -1.886 -2.523
c 0.061 -2.533 -1.699
c 1.372 -2.079 -2.042
c 2.418 -2.076 -1.118
c 3.290 -0.930 -1.119
c 3.788 -0.372 0.077
c 3.519 1.046 0.015
c 2.980 1.297 -1.205
c 1.797 2.022 -1.438
c 1.132 1.384 -2.488
c -0.259 1.450 -2.622
c -0.878 0.264 -3.129
c -0.138 -0.901 -3.202
c 1.180 -0.992 -2.947
c 1.866 0.172 -2.752
c 2.944 0.146 -1.933
c 1.113 -0.042 3.215
c 2.129 -0.950 2.990
c 1.871 -2.082 2.298
c 0.604 -2.395 1.848
c -0.508 -1.618 2.214
c -1.691 -1.728 1.441
c -2.692 -0.793 1.701
c -3.736 -0.556 0.834
c -4.056 0.784 0.893
c -3.099 1.429 1.595
c -2.328 0.494 2.237
c -1.042 0.756 2.554
c -0.211 -0.337 2.879




