%chk=000409.chk
%mem=8GB
%Nproc=32
#p B3LYP/6-31G* opt pop=NPA

Template file

0 1
c -3.082 0.787 -0.237
c -2.811 -0.579 -0.301
c -2.519 -1.261 0.948
c -1.969 -2.529 0.895
c -0.886 -2.938 1.759
c -0.052 -3.745 0.973
c 1.301 -3.475 0.806
c 1.503 -3.298 -0.605
c 2.259 -2.234 -1.058
c 1.761 -1.398 -2.075
c 2.338 -0.141 -1.892
c 1.750 0.962 -2.399
c 1.779 2.190 -1.698
c 0.692 2.902 -2.150
c -0.180 3.588 -1.326
c -1.461 3.248 -1.772
c -2.415 2.836 -0.904
c -2.873 1.591 -1.323
c -2.729 1.562 0.901
c -2.208 2.793 0.449
c -0.962 3.225 0.952
c 0.083 3.552 0.040
c 1.268 2.948 0.525
c 2.167 2.218 -0.338
c 2.840 1.065 0.192
c 2.972 -0.099 -0.648
c 2.963 -1.421 -0.153
c 2.824 -1.647 1.210
c 1.896 -2.609 1.684
c 1.108 -1.969 2.683
c -0.322 -2.040 2.665
c -1.010 -0.813 2.851
c -2.124 -0.462 2.053
c -2.197 0.930 1.997
c -1.057 1.458 2.618
c -0.397 2.556 2.023
c 0.992 2.468 1.806
c 1.702 1.417 2.333
c 2.686 0.771 1.564
c 2.720 -0.546 2.011
c 1.711 -0.749 2.920
c 1.046 0.427 3.109
c -0.338 0.398 3.150
c 0.515 0.855 -3.075
c -0.046 2.094 -3.016
c -1.350 2.274 -2.760
c -2.162 1.186 -2.447
c -1.666 -0.132 -2.501
c -2.205 -1.069 -1.553
c -1.626 -2.314 -1.500
c -1.710 -3.085 -0.346
c -0.605 -3.840 -0.251
c 0.278 -3.510 -1.214
c -0.326 -2.561 -2.049
c 0.409 -1.514 -2.585
c -0.273 -0.325 -2.942




