%chk=000539.chk
%mem=8GB
%Nproc=48
#p B3LYP/6-31G* opt pop=NPA

Template file

0 1
c -1.120 3.243 -1.529
c -0.296 3.179 -0.334
c 1.091 2.803 -0.530
c 1.802 2.273 0.532
c 2.843 1.306 0.359
c 2.967 0.613 1.539
c 3.195 -0.738 1.647
c 2.297 -1.223 2.640
c 1.751 -2.495 2.498
c 0.390 -2.606 2.662
c -0.152 -3.315 1.572
c -1.281 -2.704 1.139
c -1.506 -2.383 -0.255
c -2.475 -1.384 -0.537
c -2.418 -0.608 -1.756
c -3.136 0.666 -1.767
c -2.615 1.760 -2.422
c -2.433 2.828 -1.490
c -0.645 2.688 -2.707
c -1.531 1.676 -3.143
c -0.827 0.489 -3.283
c -1.208 -0.701 -2.567
c -0.139 -1.588 -2.162
c -0.364 -2.567 -1.136
c 0.783 -3.246 -0.589
c 0.836 -3.638 0.748
c 2.038 -3.225 1.335
c 2.798 -2.701 0.354
c 3.379 -1.458 0.456
c 3.140 -0.795 -0.767
c 2.986 0.604 -0.853
c 2.232 1.081 -1.887
c 1.484 2.272 -1.804
c 0.575 2.212 -2.810
c 0.494 0.891 -3.263
c 1.476 0.183 -2.719
c 1.263 -1.124 -2.337
c 2.275 -1.646 -1.548
c 2.061 -2.757 -0.829
c 1.186 1.984 1.769
c 1.944 0.987 2.366
c 1.452 -0.118 3.008
c 0.055 -0.223 3.122
c -0.444 -1.551 2.941
c -1.578 -1.761 2.140
c -2.384 -0.774 1.860
c -3.029 -0.715 0.625
c -3.494 0.550 0.548
c -3.589 1.207 -0.575
c -3.013 2.479 -0.373
c -2.340 2.476 0.848
c -0.950 2.773 0.925
c -0.190 2.039 1.930
c -0.768 0.881 2.653
c -2.069 0.551 2.274
c -2.802 1.348 1.484




