%chk=000016.chk
%mem=8GB
%Nproc=32
#p B3LYP/6-31G* opt pop=NPA

Template file

0 1
c 1.628 -1.006 -2.464
c 0.457 -1.774 -2.704
c -0.799 -1.111 -2.743
c -1.655 -1.884 -1.995
c -2.417 -1.353 -0.969
c -2.160 -2.153 0.158
c -1.942 -1.521 1.413
c -0.889 -2.082 2.173
c 0.095 -1.241 2.733
c 1.362 -1.826 2.460
c 2.386 -1.029 1.865
c 2.993 -1.553 0.688
c 3.041 -0.749 -0.478
c 2.557 -1.549 -1.553
c 1.471 0.387 -2.451
c 2.129 1.216 -1.513
c 2.802 0.627 -0.430
c 2.508 1.193 0.824
c 2.183 0.339 1.902
c 1.066 0.910 2.522
c -0.090 0.118 2.785
c -1.351 0.669 2.405
c -2.201 -0.128 1.524
c -2.820 0.571 0.405
c -2.633 0.001 -0.899
c -2.045 0.825 -1.956
c -0.948 0.263 -2.707
c 0.249 1.014 -2.732
c 0.279 2.305 -2.236
c 1.406 2.411 -1.385
c 1.297 3.118 -0.155
c 1.770 2.373 0.955
c 0.939 2.211 2.095
c -0.253 2.859 2.169
c -1.445 2.060 2.319
c -2.391 2.664 1.526
c -2.975 1.948 0.471
c -2.729 2.736 -0.677
c -2.074 2.194 -1.763
c -0.874 2.972 -1.926
c -0.868 3.929 -0.934
c 0.161 3.934 0.039
c -0.535 3.868 1.276
c -1.869 3.830 1.021
c -2.069 3.869 -0.290
c 0.263 -3.036 -2.075
c -1.049 -3.021 -1.600
c -1.389 -3.278 -0.274
c -0.431 -3.837 0.534
c -0.236 -3.241 1.772
c 1.119 -3.100 1.994
c 1.787 -3.619 0.926
c 2.706 -2.845 0.279
c 2.392 -2.833 -1.061
c 1.233 -3.585 -1.266
c 0.858 -4.061 0.004




