%chk=000635.chk
%mem=8GB
%Nproc=32
#p B3LYP/6-31G* opt pop=NPA

Template file

0 1
c -1.753 0.073 -3.285
c -0.430 0.039 -3.443
c 0.207 -1.122 -3.196
c 1.502 -1.071 -2.840
c 1.795 -2.097 -1.999
c 2.750 -1.713 -1.110
c 2.720 -2.182 0.212
c 3.337 -1.370 1.169
c 2.828 -1.290 2.448
c 2.825 0.050 2.848
c 1.650 0.315 3.423
c 0.843 1.346 2.994
c -0.453 0.848 3.100
c -1.428 1.416 2.440
c -2.495 0.662 1.943
c -3.118 1.482 1.077
c -3.691 1.062 -0.024
c -3.311 1.926 -1.050
c -3.215 1.211 -2.146
c -2.130 1.325 -2.917
c -2.449 -0.888 -2.491
c -3.373 -0.163 -1.808
c -3.553 -0.268 -0.444
c -2.758 -1.181 0.328
c -2.322 -0.738 1.655
c -1.221 -1.354 2.313
c -0.413 -0.563 3.193
c 0.896 -0.860 3.452
c 1.593 -1.851 2.789
c 0.895 -2.576 1.839
c 1.478 -2.833 0.598
c 0.421 -3.006 -0.319
c 0.600 -2.717 -1.644
c -0.422 -2.131 -2.384
c -1.715 -1.902 -1.853
c -1.894 -2.087 -0.408
c -0.809 -2.677 0.302
c -0.509 -2.368 1.629
c -1.156 2.470 1.525
c -2.249 2.555 0.755
c -2.234 2.731 -0.590
c -0.963 2.727 -1.262
c -0.974 2.047 -2.514
c 0.110 1.284 -2.928
c 1.340 1.295 -2.262
c 2.115 0.094 -2.384
c 2.994 -0.317 -1.402
c 3.301 0.519 -0.391
c 3.640 -0.023 0.815
c 3.230 0.812 1.802
c 2.419 1.825 1.240
c 1.200 2.169 1.844
c 0.146 2.652 1.012
c 0.260 2.669 -0.460
c 1.448 2.058 -1.033
c 2.499 1.685 -0.156




