%chk=000706.chk
%mem=8GB
%Nproc=16
#p B3LYP/6-31G* opt pop=NPA

Template file

0 1
c 1.499 2.597 -0.941
c 0.758 2.745 -2.101
c -0.537 3.083 -2.103
c -1.222 2.125 -2.868
c -2.340 1.803 -2.195
c -2.649 0.497 -1.892
c -3.038 0.469 -0.514
c -2.792 -0.655 0.328
c -2.371 -0.450 1.691
c -1.414 -1.390 2.314
c -0.543 -0.847 3.306
c 0.808 -1.150 3.259
c 1.545 0.047 3.255
c 2.426 0.026 2.217
c 2.434 1.094 1.250
c 2.797 0.707 -0.090
c 2.296 1.454 -1.140
c 1.866 0.829 -2.374
c 0.912 1.621 -2.893
c -0.337 1.150 -3.298
c 0.935 2.898 0.320
c 1.495 2.217 1.462
c 0.669 2.146 2.625
c 0.720 1.048 3.468
c -0.569 0.503 3.615
c -1.410 1.331 3.037
c -2.333 0.924 2.122
c -2.419 1.978 1.207
c -2.889 1.785 -0.034
c -2.391 2.555 -1.048
c -1.201 3.305 -0.925
c -0.504 3.274 0.306
c -1.270 2.840 1.394
c -0.684 2.413 2.510
c -0.624 -0.221 -3.140
c -1.892 -0.544 -2.442
c -1.954 -1.728 -1.732
c -2.327 -1.777 -0.333
c -1.512 -2.739 0.292
c -0.895 -2.491 1.539
c 0.545 -2.851 1.625
c 1.351 -2.010 2.400
c 2.483 -1.315 1.823
c 2.901 -1.661 0.597
c 3.019 -0.668 -0.394
c 2.574 -1.266 -1.618
c 1.785 -0.543 -2.521
c 0.493 -1.117 -2.968
c 0.213 -2.426 -2.527
c -1.015 -2.673 -1.911
c -0.818 -3.365 -0.729
c 0.479 -3.684 -0.642
c 1.192 -3.400 0.493
c 2.369 -2.780 0.019
c 2.265 -2.576 -1.334
c 1.123 -3.140 -1.766




