%chk=000793.chk
%mem=8GB
%Nproc=16
#p B3LYP/6-31G* opt pop=NPA

Template file

0 1
c -3.329 -1.706 -0.912
c -2.565 -1.731 -2.015
c -1.283 -2.179 -1.993
c -0.547 -1.268 -2.782
c 0.780 -1.168 -2.617
c 1.410 0.085 -2.602
c 2.628 -0.093 -1.960
c 3.162 0.925 -1.182
c 3.873 0.586 -0.044
c 3.403 1.341 1.008
c 3.185 0.508 2.107
c 1.957 0.624 2.757
c 1.161 -0.533 2.989
c -0.168 -0.172 2.929
c -1.159 -1.029 2.405
c -2.371 -0.435 2.082
c -3.201 -1.024 1.176
c -3.879 -0.053 0.455
c -3.939 -0.458 -0.841
c -3.445 0.349 -1.876
c -2.614 -0.472 -2.617
c -1.336 -0.128 -3.017
c -2.781 -2.044 0.324
c -1.457 -2.535 0.431
c -0.721 -2.182 1.617
c 0.639 -2.478 1.654
c 1.558 -1.759 2.459
c 2.798 -1.846 1.870
c 3.613 -0.756 1.713
c 3.998 -0.709 0.381
c 3.367 -1.740 -0.307
c 2.695 -1.442 -1.483
c 1.457 -2.024 -1.755
c 0.712 -2.773 -0.763
c -0.699 -2.725 -0.812
c 1.338 -2.860 0.480
c 2.657 -2.466 0.649
c -0.801 1.163 -2.765
c 0.624 1.274 -2.499
c 1.117 2.246 -1.535
c 2.335 2.013 -0.870
c 2.457 2.228 0.544
c 1.322 2.518 1.314
c 1.072 1.660 2.432
c -0.238 1.223 2.691
c -1.364 1.803 2.099
c -2.490 0.978 1.894
c -3.398 1.180 0.816
c -3.036 2.064 -0.207
c -2.962 1.605 -1.561
c -1.694 2.032 -2.075
c -1.164 2.869 -1.132
c 0.155 2.932 -0.792
c 0.210 2.977 0.637
c -1.104 2.766 1.101
c -1.939 2.841 0.002




