%chk=000625.chk
%mem=8GB
%Nproc=32
#p B3LYP/6-31G* opt pop=NPA

Template file

0 1
c -2.254 1.981 1.851
c -1.686 2.576 0.744
c -2.239 2.208 -0.438
c -1.658 2.537 -1.585
c -1.995 1.632 -2.550
c -0.980 1.550 -3.402
c -0.555 0.363 -3.805
c 0.816 0.350 -3.703
c 1.223 -0.888 -3.443
c 2.316 -1.051 -2.631
c 2.410 -2.199 -1.920
c 2.916 -1.931 -0.691
c 2.235 -2.687 0.247
c 1.981 -2.141 1.438
c 0.732 -2.303 2.051
c 0.661 -1.387 3.054
c -0.541 -0.971 3.533
c -0.635 0.310 4.062
c -1.812 0.822 3.674
c -1.625 2.024 3.058
c -2.817 0.646 1.700
c -2.442 -0.040 2.818
c -1.700 -1.197 2.702
c -1.606 -1.876 1.456
c -0.427 -2.640 1.246
c -0.148 -3.113 -0.028
c 1.178 -3.290 -0.433
c 1.299 -3.025 -1.751
c 0.069 -2.673 -2.260
c 0.023 -1.685 -3.203
c -1.061 -0.837 -3.270
c -2.037 -0.791 -2.195
c -2.551 0.500 -1.921
c -2.815 0.891 -0.623
c -2.862 0.024 0.450
c -2.280 -1.297 0.279
c -1.892 -1.706 -1.068
c -0.857 -2.668 -1.170
c -0.285 2.833 -1.670
c 0.116 2.255 -2.843
c 1.233 1.480 -2.942
c 2.076 1.297 -1.815
c 2.718 0.036 -1.759
c 3.090 -0.542 -0.542
c 2.797 0.065 0.680
c 2.427 -0.836 1.742
c 1.717 -0.425 2.825
c 1.461 0.909 3.024
c 0.346 1.258 3.739
c -0.274 2.302 3.089
c 0.434 2.603 1.924
c -0.232 2.873 0.735
c 0.487 2.758 -0.499
c 1.723 1.954 -0.553
c 2.203 1.383 0.690
c 1.581 1.782 1.900




