%chk=000593.chk
%mem=8GB
%Nproc=16
#p B3LYP/6-31G* opt pop=NPA

Template file

0 1
c 0.423 2.152 -2.485
c 0.650 2.305 -1.140
c 1.813 1.693 -0.588
c 2.089 1.918 0.712
c 2.900 1.091 1.500
c 2.624 1.423 2.827
c 2.518 0.493 3.819
c 1.245 0.657 4.375
c 0.561 -0.503 4.307
c -0.624 -0.278 3.551
c -1.064 -1.210 2.584
c -1.842 -0.772 1.490
c -1.980 -1.613 0.355
c -2.805 -1.245 -0.655
c -2.642 -1.755 -1.938
c -3.145 -0.885 -2.821
c -2.280 -0.670 -3.839
c -2.177 0.707 -3.972
c -0.963 1.271 -4.049
c -0.843 2.213 -3.021
c 1.055 1.082 -3.129
c 0.180 0.498 -3.997
c 0.136 -0.871 -3.691
c -1.122 -1.460 -3.574
c -1.381 -2.177 -2.371
c -0.410 -2.403 -1.385
c -0.847 -2.418 -0.022
c 0.059 -2.627 0.956
c -0.145 -2.268 2.289
c 1.094 -2.299 2.905
c 1.453 -1.464 3.884
c 2.643 -0.818 3.479
c 2.918 -1.219 2.146
c 3.066 -0.268 1.088
c 2.578 -0.595 -0.240
c 2.254 0.442 -1.146
c 1.746 0.147 -2.402
c 1.116 -1.084 -2.681
c 0.947 -1.946 -1.599
c 1.807 -1.814 -0.466
c 1.438 -2.466 0.692
c 2.046 -2.257 1.893
c 1.079 2.445 1.544
c 1.448 2.190 2.821
c 0.571 1.625 3.705
c -0.623 1.100 3.191
c -1.108 1.500 1.924
c -1.977 0.655 1.217
c -2.491 1.061 -0.042
c -3.186 0.112 -0.814
c -3.448 0.294 -2.167
c -2.845 1.291 -2.863
c -1.974 2.159 -2.207
c -1.775 2.082 -0.792
c -0.504 2.441 -0.262
c -0.255 2.338 1.105




