%chk=000289.chk
%mem=8GB
%Nproc=32
#p B3LYP/6-31G* opt pop=NPA

Template file

0 1
c 1.563 -2.048 -2.599
c 2.651 -1.376 -1.990
c 2.774 -1.415 -0.556
c 2.810 -0.147 0.199
c 2.134 -0.031 1.493
c 1.485 1.256 1.859
c 0.333 1.243 2.761
c -0.688 2.230 2.607
c -2.042 1.808 2.450
c -2.566 2.363 1.324
c -2.965 1.319 0.450
c -2.497 1.300 -0.900
c -2.134 0.031 -1.493
c -1.148 0.050 -2.576
c -0.494 -1.167 -2.888
c 0.834 -1.156 -3.344
c 0.741 -2.818 -1.916
c -0.605 -2.290 -2.070
c -1.522 -2.392 -1.027
c -2.303 -1.208 -0.688
c -2.753 -1.100 0.701
c -2.968 0.173 1.221
c -2.386 0.539 2.507
c -1.551 -0.307 3.126
c -0.130 0.010 3.211
c 0.548 -1.176 3.008
c 1.654 -1.251 2.106
c 1.724 -2.475 1.354
c 2.144 -2.487 0.038
c 1.152 -3.255 -0.709
c 0.235 -3.663 0.141
c -1.136 -3.299 0.011
c -1.546 -3.115 1.288
c -2.295 -2.054 1.660
c -1.665 -1.590 2.853
c -0.450 -2.185 2.991
c -0.414 -3.208 2.155
c 0.658 -3.404 1.413
c -0.555 3.239 1.719
c -1.755 3.335 0.948
c -1.421 3.449 -0.322
c -1.768 2.478 -1.291
c -0.678 2.400 -2.136
c -0.379 1.274 -2.870
c 1.007 1.161 -3.243
c 1.555 -0.050 -3.463
c 2.715 -0.202 -2.646
c 2.894 0.937 -1.990
c 2.924 1.023 -0.588
c 2.239 2.193 -0.267
c 1.580 2.388 0.945
c 0.508 3.336 0.887
c -0.072 3.653 -0.375
c 0.394 3.164 -1.503
c 1.651 2.677 -1.507
c 1.979 1.839 -2.468




