%chk=000159.chk
%mem=8GB
%Nproc=16
#p B3LYP/6-31G* opt pop=NPA

Template file

0 1
c 2.475 -2.334 -0.283
c 2.184 -2.532 1.049
c 0.844 -2.762 1.429
c 0.593 -1.947 2.582
c -0.616 -1.230 2.720
c -0.566 0.224 2.964
c -1.570 1.075 2.343
c -1.148 2.303 1.785
c -1.654 2.754 0.531
c -0.554 3.286 -0.142
c -0.217 2.946 -1.432
c 1.138 2.549 -1.418
c 1.565 1.421 -2.154
c 2.648 0.728 -1.589
c 2.707 -0.642 -1.730
c 3.238 -1.209 -0.621
c 1.473 -2.458 -1.251
c 1.666 -1.398 -2.201
c 0.620 -0.805 -2.874
c 0.564 0.668 -2.896
c -0.737 1.240 -3.013
c -1.140 2.294 -2.174
c -2.415 1.966 -1.606
c -2.632 2.071 -0.192
c -3.199 0.946 0.445
c -2.650 0.471 1.680
c -2.704 -0.904 1.613
c -1.660 -1.719 1.966
c -1.463 -2.624 0.868
c -0.163 -3.002 0.483
c 0.175 -2.894 -0.929
c -0.834 -2.519 -1.828
c -0.586 -1.540 -2.846
c -1.774 -0.909 -3.079
c -1.845 0.441 -3.148
c -2.852 0.863 -2.288
c -3.414 -0.242 -1.672
c -3.608 -0.193 -0.308
c -3.233 -1.301 0.431
c -2.465 -2.359 -0.072
c -2.174 -2.354 -1.418
c -2.731 -1.356 -2.203
c 0.205 2.698 1.858
c 0.542 3.230 0.634
c 1.643 2.809 -0.111
c 2.624 2.028 0.501
c 3.196 1.014 -0.297
c 3.609 -0.224 0.277
c 3.415 -0.477 1.618
c 2.737 -1.661 1.975
c 1.778 -1.354 2.909
c 1.844 -0.029 3.179
c 0.733 0.776 3.165
c 1.131 1.946 2.494
c 2.408 1.712 1.884
c 2.850 0.521 2.393




