%chk=000268.chk
%mem=8GB
%Nproc=32
#p B3LYP/6-31G* opt pop=NPA

Template file

0 1
c 1.738 -1.065 -2.278
c 0.596 -1.085 -3.052
c -0.127 0.113 -3.246
c -1.492 -0.192 -2.948
c -2.243 0.657 -2.111
c -2.756 0.102 -0.838
c -2.598 0.874 0.385
c -2.155 0.222 1.599
c -1.185 0.943 2.447
c -0.373 0.179 3.297
c 1.017 0.402 3.288
c 1.676 -0.798 3.202
c 2.533 -0.756 2.102
c 2.485 -1.807 1.133
c 2.633 -1.412 -0.213
c 1.931 -2.037 -1.257
c 2.253 0.158 -1.859
c 2.808 -0.050 -0.578
c 2.801 0.981 0.381
c 2.570 0.591 1.699
c 1.591 1.303 2.479
c 0.849 2.316 1.942
c -0.628 2.178 1.986
c -1.332 2.898 1.038
c -2.290 2.227 0.219
c -2.129 2.769 -1.064
c -1.869 1.960 -2.144
c -0.568 2.360 -2.655
c 0.390 1.362 -2.950
c 1.666 1.401 -2.233
c 1.877 2.481 -1.346
c 2.293 2.218 -0.018
c 1.425 2.961 0.842
c 0.684 3.776 0.068
c -0.681 3.828 0.215
c -1.203 3.736 -1.025
c -0.216 3.483 -1.951
c 0.971 3.518 -1.277
c -0.306 -2.092 -2.837
c -1.571 -1.527 -2.790
c -2.235 -2.072 -1.754
c -2.767 -1.291 -0.725
c -2.434 -1.937 0.469
c -2.186 -1.233 1.665
c -1.337 -1.899 2.582
c -0.504 -1.184 3.392
c 0.779 -1.774 3.369
c 0.749 -2.813 2.525
c 1.567 -2.877 1.386
c 0.760 -3.389 0.354
c 0.958 -3.054 -0.999
c -0.187 -3.036 -1.827
c -1.463 -3.066 -1.225
c -1.634 -3.091 0.108
c -0.584 -3.457 0.886
c -0.550 -3.003 2.145




