%chk=000465.chk
%mem=8GB
%Nproc=32
#p B3LYP/6-31G* opt pop=NPA

Template file

0 1
c -1.752 1.886 2.178
c -1.951 2.021 0.786
c -2.585 0.939 0.123
c -2.510 0.877 -1.275
c -2.764 -0.309 -2.005
c -1.842 -0.343 -3.050
c -1.044 -1.448 -3.358
c 0.268 -0.953 -3.449
c 1.306 -1.678 -2.875
c 2.294 -0.977 -2.257
c 2.603 -1.567 -1.043
c 2.938 -0.612 -0.131
c 2.503 -0.671 1.208
c 2.549 0.554 1.959
c 1.704 0.695 3.077
c 1.209 1.972 3.470
c -0.117 1.841 3.706
c -0.851 2.673 2.878
c -1.619 0.567 2.710
c -0.497 0.582 3.524
c 0.617 -0.207 3.206
c 0.438 -1.309 2.385
c 1.481 -1.688 1.471
c 1.166 -2.703 0.470
c 1.761 -2.599 -0.820
c 1.025 -2.791 -2.045
c -0.235 -3.313 -2.008
c -1.310 -2.640 -2.692
c -2.399 -2.662 -1.813
c -3.034 -1.485 -1.360
c -2.965 -1.493 0.058
c -2.693 -0.346 0.800
c -1.903 -0.523 1.975
c -0.925 -1.613 2.024
c -1.161 -2.664 1.203
c -0.118 -3.261 0.446
c -0.717 -3.681 -0.764
c -2.026 -3.353 -0.721
c -2.299 -2.669 0.399
c -1.484 1.587 -1.939
c -1.074 0.777 -2.985
c 0.237 0.469 -3.230
c 1.222 1.173 -2.513
c 2.326 0.388 -2.091
c 2.924 0.609 -0.846
c 2.731 1.743 -0.184
c 2.758 1.780 1.206
c 2.091 2.943 1.553
c 1.336 3.051 2.641
c 0.037 3.445 2.217
c 0.019 3.510 0.827
c -0.963 2.836 0.056
c -0.597 2.407 -1.268
c 0.819 2.245 -1.629
c 1.728 2.643 -0.647
c 1.344 3.345 0.444




