%chk=000158.chk
%mem=8GB
%Nproc=16
#p B3LYP/6-31G* opt pop=NPA

Template file

0 1
c -0.129 -3.251 0.002
c -0.984 -2.795 1.040
c -2.074 -1.931 0.674
c -2.485 -0.976 1.660
c -3.071 0.245 1.310
c -2.451 1.242 2.086
c -1.876 2.388 1.541
c -0.536 2.412 1.977
c 0.499 2.742 1.071
c 1.706 2.001 1.259
c 2.493 1.604 0.164
c 3.039 0.344 0.411
c 3.045 -0.680 -0.609
c 2.927 -1.996 -0.137
c 1.965 -2.826 -0.728
c 1.236 -3.463 0.246
c -0.210 -2.703 -1.280
c 1.142 -2.406 -1.707
c 1.435 -1.274 -2.429
c 2.433 -0.344 -1.858
c 2.219 1.025 -2.141
c 2.146 1.977 -1.093
c 1.047 2.837 -1.320
c 0.144 3.161 -0.272
c -1.246 3.157 -0.646
c -2.211 2.722 0.265
c -3.067 1.843 -0.426
c -3.349 0.545 0.023
c -2.998 -0.342 -1.009
c -2.273 -1.547 -0.726
c -1.277 -1.928 -1.706
c -0.990 -1.054 -2.791
c 0.365 -0.758 -3.160
c 0.385 0.542 -3.581
c 1.284 1.420 -3.055
c 0.583 2.516 -2.587
c -0.756 2.359 -2.886
c -1.666 2.693 -1.933
c -2.721 1.805 -1.706
c -2.706 0.463 -2.135
c -1.740 0.104 -3.029
c -0.860 1.086 -3.489
c -1.675 -0.709 2.791
c -1.595 0.666 2.923
c -0.384 1.360 2.925
c 0.789 0.632 3.084
c 1.869 1.010 2.249
c 2.783 0.042 1.760
c 2.712 -1.274 2.175
c 2.838 -2.272 1.225
c 1.813 -3.204 1.431
c 1.051 -2.785 2.451
c -0.318 -2.583 2.316
c -0.586 -1.437 3.057
c 0.654 -0.766 3.342
c 1.630 -1.639 2.978




