%chk=000740.chk
%mem=8GB
%Nproc=16
#p B3LYP/6-31G* opt pop=NPA

Template file

0 1
c 2.871 -1.888 0.510
c 1.972 -2.743 1.180
c 0.914 -3.382 0.564
c -0.247 -3.040 1.310
c -1.423 -2.757 0.641
c -2.226 -1.679 1.053
c -2.849 -1.152 -0.105
c -3.183 0.222 -0.205
c -2.929 0.855 -1.462
c -2.272 2.117 -1.539
c -1.240 2.003 -2.496
c 0.052 2.428 -2.177
c 1.145 1.552 -2.395
c 2.047 1.721 -1.315
c 2.807 0.635 -0.788
c 2.994 0.570 0.648
c 2.973 -0.722 1.265
c 2.204 -0.948 2.455
c 1.536 -2.127 2.295
c 0.142 -2.237 2.397
c 2.785 -1.827 -0.854
c 2.725 -0.578 -1.513
c 1.827 -0.729 -2.609
c 0.979 0.295 -3.029
c -0.360 -0.083 -3.363
c -1.388 0.789 -3.099
c -2.428 0.106 -2.500
c -2.110 -1.217 -2.418
c -2.367 -1.885 -1.219
c -1.483 -2.857 -0.763
c -0.316 -3.148 -1.498
c 0.880 -3.394 -0.816
c 1.881 -2.675 -1.489
c 1.337 -2.036 -2.541
c -0.007 -2.355 -2.632
c -0.862 -1.382 -3.060
c -0.618 -1.127 2.838
c -1.871 -0.855 2.162
c -2.325 0.485 2.099
c -2.968 0.997 0.935
c -2.530 2.316 0.790
c -2.060 2.840 -0.401
c -0.791 3.408 -0.126
c 0.278 3.140 -1.005
c 1.526 2.733 -0.491
c 1.736 2.691 0.876
c 2.467 1.625 1.430
c 1.833 1.337 2.647
c 1.555 0.066 3.060
c 0.143 -0.009 3.307
c -0.338 1.294 3.206
c -1.562 1.540 2.647
c -1.679 2.627 1.785
c -0.581 3.324 1.255
c 0.667 3.012 1.755
c 0.739 2.107 2.797




