%chk=000685.chk
%mem=8GB
%Nproc=32
#p B3LYP/6-31G* opt pop=NPA

Template file

0 1
c -2.581 2.052 -0.039
c -2.410 2.318 -1.372
c -2.648 1.426 -2.327
c -1.503 1.371 -3.141
c -1.307 0.098 -3.471
c -0.097 -0.515 -3.303
c -0.381 -1.821 -2.813
c 0.547 -2.513 -2.033
c 0.045 -3.230 -0.898
c 0.720 -3.215 0.356
c -0.221 -2.925 1.367
c 0.060 -2.004 2.401
c -1.009 -1.072 2.672
c -0.741 0.214 3.094
c -1.584 1.102 2.367
c -1.071 2.333 1.867
c -1.515 2.700 0.620
c -0.566 3.101 -0.389
c -1.132 2.841 -1.569
c -0.495 2.149 -2.584
c -3.024 0.761 0.369
c -2.500 0.336 1.622
c -2.179 -1.005 1.865
c -2.415 -1.941 0.901
c -1.452 -2.914 0.729
c -1.299 -3.145 -0.605
c -2.193 -2.387 -1.312
c -1.782 -1.852 -2.505
c -2.307 -0.670 -2.883
c -3.074 0.147 -2.035
c -3.270 -0.240 -0.671
c -2.910 -1.579 -0.368
c 0.807 1.619 -2.356
c 1.022 0.244 -2.820
c 2.001 -0.502 -2.198
c 1.780 -1.885 -1.854
c 2.498 -2.110 -0.705
c 1.968 -2.690 0.448
c 2.349 -1.887 1.531
c 1.418 -1.546 2.571
c 1.628 -0.290 3.178
c 0.533 0.587 3.438
c 0.945 1.875 3.100
c 0.252 2.637 2.174
c 1.200 2.944 1.117
c 0.801 2.934 -0.208
c 1.536 2.104 -1.189
c 2.656 1.338 -0.688
c 2.841 0.049 -1.221
c 3.185 -1.005 -0.364
c 3.240 -0.896 0.998
c 3.306 0.334 1.525
c 2.669 0.550 2.726
c 2.226 1.813 2.720
c 2.388 2.378 1.487
c 3.048 1.487 0.676




