%chk=000832.chk
%mem=8GB
%Nproc=32
#p B3LYP/6-31G* opt pop=NPA

Template file

0 1
c -0.553 -2.047 -3.093
c 0.159 -3.104 -2.566
c -0.164 -3.651 -1.407
c 0.989 -3.677 -0.610
c 0.613 -3.451 0.645
c 1.219 -2.549 1.444
c 0.197 -1.953 2.240
c 0.373 -0.779 2.907
c -0.763 0.097 3.102
c -0.463 1.471 3.418
c -1.253 2.484 2.916
c -0.441 3.373 2.161
c -0.977 3.508 0.898
c -0.184 3.180 -0.262
c -0.888 2.559 -1.364
c -0.175 1.878 -2.305
c -0.698 0.751 -3.003
c 0.355 0.106 -3.544
c 0.427 -1.218 -3.634
c 1.685 -1.606 -3.149
c 1.535 -2.753 -2.511
c 1.993 -2.932 -1.223
c -1.627 -1.451 -2.337
c -1.776 -0.016 -2.459
c -2.482 0.658 -1.509
c -2.185 2.002 -1.135
c -2.789 2.218 0.051
c -2.252 2.961 1.014
c -2.340 2.232 2.208
c -2.746 0.933 1.904
c -1.981 -0.182 2.310
c -2.004 -1.325 1.423
c -1.036 -2.282 1.622
c -0.758 -3.212 0.669
c -1.226 -3.184 -0.634
c -1.985 -2.065 -1.041
c -2.507 -1.230 0.020
c -2.966 0.015 -0.342
c -3.165 0.989 0.586
c 2.574 -1.826 -0.503
c 2.290 -1.764 0.916
c 2.460 -0.584 1.574
c 1.664 -0.203 2.694
c 1.822 1.127 2.848
c 0.836 1.934 3.229
c 0.820 3.024 2.348
c 1.681 2.749 1.287
c 1.226 2.790 -0.049
c 1.850 1.857 -0.962
c 1.218 1.654 -2.167
c 1.519 0.582 -2.949
c 2.291 -0.499 -2.558
c 2.740 -0.543 -1.220
c 2.661 0.698 -0.481
c 2.785 0.613 0.887
c 2.405 1.641 1.694




