%chk=000538.chk
%mem=8GB
%Nproc=48
#p B3LYP/6-31G* opt pop=NPA

Template file

0 1
c -2.339 1.631 3.070
c -1.230 1.069 3.668
c 0.079 1.498 3.372
c 0.853 0.339 3.090
c 1.881 0.293 2.101
c 2.197 -0.975 1.445
c 2.932 -1.016 0.213
c 2.701 -2.103 -0.721
c 2.774 -1.891 -2.106
c 1.657 -2.415 -2.714
c 1.070 -1.407 -3.531
c -0.284 -1.192 -3.401
c -0.801 0.105 -3.055
c -1.934 -0.093 -2.232
c -2.336 0.779 -1.238
c -2.948 0.202 -0.031
c -3.197 1.055 1.038
c -2.981 0.622 2.355
c -2.194 2.691 2.254
c -2.722 2.359 1.000
c -1.864 2.793 0.001
c -1.613 2.023 -1.142
c -0.304 2.107 -1.766
c 0.060 1.204 -2.828
c 1.442 0.948 -3.073
c 1.901 -0.324 -3.441
c 2.987 -0.661 -2.617
c 3.219 0.360 -1.788
c 3.217 0.236 -0.395
c 2.624 1.395 0.095
c 2.063 1.505 1.348
c 1.130 2.556 1.509
c 0.215 2.615 2.555
c -0.954 3.217 2.042
c -0.791 3.368 0.691
c 0.479 3.092 0.341
c 0.774 2.629 -0.916
c 2.019 2.061 -1.033
c 2.367 1.388 -2.133
c -2.377 -0.587 2.621
c -1.286 -0.271 3.469
c -0.026 -0.757 3.222
c 0.112 -1.830 2.407
c 1.247 -2.028 1.640
c 0.896 -2.913 0.618
c 1.617 -2.976 -0.542
c 0.937 -3.129 -1.787
c -0.452 -3.041 -1.805
c -1.020 -2.099 -2.665
c -2.017 -1.454 -2.006
c -2.211 -1.995 -0.758
c -2.663 -1.194 0.283
c -2.199 -1.521 1.612
c -1.010 -2.306 1.676
c -0.519 -3.002 0.600
c -1.180 -2.961 -0.610




