%chk=000366.chk
%mem=8GB
%Nproc=16
#p B3LYP/6-31G* opt pop=NPA

Template file

0 1
c -2.786 0.770 1.742
c -1.993 1.905 1.633
c -1.778 2.487 0.356
c -0.432 2.919 0.320
c 0.357 2.822 -0.862
c 1.739 2.427 -0.710
c 2.255 1.467 -1.651
c 3.036 0.370 -1.216
c 2.482 -0.804 -1.777
c 2.175 -1.945 -0.952
c 0.897 -2.585 -1.161
c 0.154 -2.964 -0.006
c -1.250 -2.812 0.063
c -1.560 -2.427 1.393
c -2.560 -1.489 1.617
c -2.298 -0.364 2.432
c -3.422 0.318 0.617
c -3.285 -1.051 0.541
c -3.053 -1.418 -0.760
c -2.003 -2.352 -1.045
c -1.300 -2.153 -2.239
c 0.128 -2.218 -2.284
c 0.557 -1.182 -3.146
c 1.643 -0.407 -2.783
c 1.500 1.024 -2.704
c 0.279 1.605 -2.992
c -0.336 2.436 -2.026
c -1.723 2.086 -2.004
c -2.439 2.011 -0.804
c -3.280 0.864 -0.634
c -3.220 -0.236 -1.534
c -2.561 -0.106 -2.708
c -1.677 -1.118 -3.089
c -0.561 -0.550 -3.628
c -0.698 0.822 -3.552
c -1.898 1.097 -2.967
c 0.667 -2.773 1.287
c -0.384 -2.369 2.126
c -0.172 -1.328 3.060
c -1.110 -0.284 3.137
c -0.397 0.925 3.184
c -0.820 2.000 2.368
c 0.122 2.692 1.590
c 1.466 2.431 1.737
c 2.286 2.348 0.591
c 3.252 1.395 0.891
c 3.569 0.355 0.027
c 3.473 -0.816 0.769
c 2.710 -1.902 0.355
c 1.935 -2.270 1.477
c 2.181 -1.337 2.520
c 1.096 -0.788 3.219
c 0.954 0.632 3.298
c 1.902 1.456 2.674
c 3.021 0.876 2.143
c 3.157 -0.492 2.067




