%chk=000563.chk
%mem=8GB
%Nproc=48
#p B3LYP/6-31G* opt pop=NPA

Template file

0 1
c 2.683 1.276 -2.551
c 2.672 1.939 -1.307
c 2.951 1.233 -0.110
c 2.212 1.580 1.090
c 1.994 0.596 2.093
c 0.867 0.587 2.943
c 0.541 -0.769 3.223
c -0.763 -1.139 3.488
c -1.296 -2.205 2.744
c -2.532 -1.842 2.270
c -2.580 -2.088 0.902
c -3.043 -1.066 0.015
c -2.453 -1.025 -1.248
c -2.212 0.185 -1.930
c -1.239 -0.046 -2.893
c -0.443 0.974 -3.346
c 0.869 0.686 -3.697
c 1.638 1.719 -3.278
c 2.703 -0.096 -2.644
c 1.490 -0.500 -3.330
c 0.709 -1.578 -2.836
c -0.688 -1.336 -2.671
c -1.433 -1.928 -1.640
c -0.844 -2.798 -0.693
c -1.418 -2.827 0.584
c -0.592 -2.840 1.757
c 0.784 -2.656 1.646
c 1.349 -1.567 2.416
c 2.339 -0.740 1.856
c 2.963 -1.089 0.688
c 3.288 -0.142 -0.288
c 3.108 -0.791 -1.559
c 2.512 -1.998 -1.298
c 1.291 -2.391 -1.849
c 0.546 -2.954 -0.786
c 1.344 -2.877 0.397
c 2.493 -2.220 0.031
c -0.435 2.211 -2.633
c 0.910 2.601 -2.583
c 1.563 2.827 -1.374
c 0.797 3.033 -0.277
c 1.162 2.533 0.976
c 0.000 2.464 1.758
c -0.161 1.560 2.830
c -1.482 1.150 3.141
c -1.741 -0.166 3.512
c -2.846 -0.632 2.792
c -3.268 0.357 1.980
c -3.362 0.198 0.598
c -2.866 1.392 0.020
c -2.299 1.439 -1.255
c -1.258 2.397 -1.522
c -0.614 2.976 -0.373
c -1.094 2.766 0.890
c -2.299 2.148 1.084
c -2.517 1.477 2.244




