%chk=000834.chk
%mem=8GB
%Nproc=32
#p B3LYP/6-31G* opt pop=NPA

Template file

0 1
c -0.950 -0.347 -3.829
c 0.274 -0.724 -3.510
c 0.569 -1.594 -2.500
c 1.774 -1.166 -1.951
c 2.237 -1.610 -0.754
c 3.041 -0.698 -0.036
c 3.249 -0.847 1.328
c 3.065 0.431 1.880
c 2.219 0.661 2.941
c 1.258 1.601 2.432
c -0.123 1.388 2.632
c -0.982 1.778 1.582
c -2.100 0.902 1.286
c -2.867 1.170 0.214
c -3.205 0.146 -0.725
c -3.455 0.793 -1.920
c -2.860 0.381 -3.053
c -2.131 1.498 -3.575
c -0.955 1.052 -3.970
c 0.254 1.537 -3.431
c 1.056 0.424 -3.347
c 1.938 0.196 -2.372
c -2.039 -0.742 -3.066
c -1.780 -1.501 -1.853
c -2.486 -1.082 -0.659
c -1.969 -1.437 0.593
c -2.004 -0.436 1.661
c -1.385 -0.702 2.839
c -0.458 0.242 3.396
c 0.504 -0.523 4.065
c 1.850 -0.408 3.727
c 2.241 -1.722 3.298
c 2.731 -1.918 2.005
c 1.780 -2.766 1.316
c 1.404 -2.501 -0.012
c -0.027 -2.531 -0.371
c -0.455 -2.084 -1.648
c -0.955 -2.435 0.715
c -0.522 -2.773 2.000
c -0.892 -1.956 3.091
c 0.152 -1.845 3.947
c 1.183 -2.542 3.464
c 0.821 -3.085 2.249
c 2.208 1.163 -1.424
c 2.910 0.697 -0.334
c 2.799 1.303 0.873
c 1.703 2.075 1.171
c 0.858 2.504 0.137
c -0.512 2.593 0.467
c -1.401 2.890 -0.555
c -2.673 2.322 -0.515
c -3.123 2.130 -1.749
c -2.197 2.508 -2.657
c -1.036 2.917 -1.934
c 0.250 2.449 -2.309
c 1.214 2.220 -1.255




