%chk=000064.chk
%mem=8GB
%Nproc=32
#p B3LYP/6-31G* opt pop=NPA

Template file

0 1
c 1.243 0.926 -2.316
c 2.243 0.595 -1.372
c 2.233 -0.796 -0.963
c 2.445 -1.021 0.442
c 1.559 -1.924 1.102
c 0.733 -1.419 2.190
c -0.684 -1.547 2.087
c -1.457 -0.335 2.076
c -2.472 -0.260 1.043
c -2.566 1.004 0.416
c -2.670 1.088 -0.988
c -1.810 2.094 -1.412
c -0.846 1.780 -2.402
c 0.483 2.102 -2.153
c 0.418 -0.025 -2.921
c -0.889 0.554 -3.001
c -1.989 -0.254 -2.854
c -2.855 -0.030 -1.735
c -3.113 -1.256 -1.145
c -2.851 -1.435 0.268
c -2.256 -2.680 0.588
c -1.123 -2.668 1.423
c -0.166 -3.484 0.791
c 1.063 -2.950 0.416
c 1.128 -2.999 -0.999
c 1.491 -1.808 -1.697
c 0.570 -1.408 -2.749
c -0.599 -2.216 -3.003
c -1.854 -1.577 -2.988
c -2.684 -2.215 -2.078
c -2.117 -3.362 -1.731
c -1.989 -3.662 -0.415
c -0.705 -4.074 -0.254
c 0.051 -3.804 -1.385
c -0.813 -3.396 -2.330
c -1.860 2.127 0.851
c -1.426 2.822 -0.324
c -0.214 3.468 -0.310
c 0.811 3.011 -1.200
c 1.985 2.900 -0.474
c 2.707 1.645 -0.475
c 3.219 1.276 0.794
c 2.978 -0.037 1.240
c 2.498 0.082 2.558
c 1.235 -0.402 2.885
c 0.440 0.713 3.250
c -0.839 0.857 2.633
c -1.080 2.152 2.016
c -0.048 3.160 2.074
c 0.372 3.738 0.860
c 1.744 3.585 0.729
c 2.233 3.193 1.898
c 3.051 2.113 1.941
c 2.583 1.335 2.950
c 1.340 1.775 3.383
c 1.119 2.949 2.769




