%chk=000272.chk
%mem=8GB
%Nproc=32
#p B3LYP/6-31G* opt pop=NPA

Template file

0 1
 C            2.89744323       -2.37922578       -0.94818347
 C            2.99709549       -1.15504049       -1.72158446
 C            3.33639984       -0.07477978       -0.81210530
 C            3.06692834       -2.03174907        0.45206568
 C            3.48280496       -0.64751984        0.52137648
 C            1.86585648       -2.42885971        1.16308777
 C            1.55097407       -2.89684165       -1.11670294
 C            0.95887651       -3.03627904        0.19577595
 C            1.79435394       -1.03464885       -2.52012030
 C            0.86436949       -2.06659465       -2.08289169
 C            1.30274711        0.23551128       -2.77552602
 C            2.71296435        1.16611744       -0.96176118
 C            1.83164247        1.37234004       -2.02937369
 C            2.72607609        2.05747513        0.11083726
 C            3.08137321        0.10162785        1.61631654
 C            2.93652364        1.53636555        1.44901997
 C            1.33913191       -1.59086928        2.15105485
 C            1.95965906       -0.36560112        2.42709178
 C           -0.00344243       -1.75074653        2.49995591
 C           -0.40247083       -2.80575625        0.34274603
 C           -0.84735514       -2.55277291        1.63473126
 C           -0.46232780       -1.72187937       -1.83522716
 C           -1.13230619       -2.29803866       -0.74451741
 C           -0.13221824        0.42001497       -2.88722490
 C           -0.99331451       -0.59078527       -2.46365841
 C            0.76673402        2.36466376       -1.92871816
 C           -0.42843491        1.80035070       -2.53740150
 C            1.70637536        3.08728730        0.21175680
 C            0.64970242        3.13803685       -0.78111342
 C            1.82099597        1.97455118        2.27097816
 C            1.13013288        0.79071039        2.73372244
 C            1.07640001        2.95628651        1.51821997
 C           -0.78492074       -0.57698694        2.85948394
 C           -0.25025151        0.67629606        2.59474059
 C           -2.21709844       -2.13843344        1.85844217
 C           -2.16946648       -0.85054849        2.53723270
 C           -2.50836906       -2.10702309       -0.61492545
 C           -3.08888286       -1.99875859        0.71157333
 C           -2.34334453       -0.28864864       -2.31587586
 C           -3.15980662       -1.10554158       -1.43858569
 C           -1.67758871        2.10176976       -2.00755386
 C           -2.72616856        1.09692556       -2.10059442
 C           -0.61555818        3.16690997       -0.06249417
 C           -0.33843534        2.73353747        1.29417473
 C           -0.95879132        1.57625967        1.77443679
 C           -1.76485786        2.69657226       -0.67954201
 C           -2.88398815        0.09833840        1.71463023
 C           -3.70192512       -0.68587909        0.80220825
 C           -3.89350291       -0.20968618       -0.55247623
 C           -3.48627615        1.14513100       -0.86491113
 C           -2.20870047        1.22348764        1.24200418
 C           -2.67575777        1.87292754        0.09540508




