%chk=000154.chk
%mem=8GB
%Nproc=32
#p B3LYP/6-31G* opt pop=NPA

Template file

0 1
 C            3.84222486       -0.68440623       -1.22905123
 C            3.89138888        0.61278820       -0.58046071
 C            3.80108290        0.39404727        0.85095064
 C            3.49727187       -1.67047430       -0.21776646
 C            3.50113890       -1.01460126        1.06860944
 C            2.28046604       -2.32601506       -0.64352122
 C            2.76278183       -0.65353675       -2.20287016
 C            1.88793024       -1.77044075       -1.92903067
 C            2.90649067        1.46785795       -1.21885329
 C            2.18217970        0.67041535       -2.19850031
 C            2.19430531        2.37326531       -0.44319408
 C            2.84194120        1.17143616        1.61754898
 C            2.18457681        2.23878308        1.01121310
 C            2.30360946       -1.08855989        1.88719242
 C            2.08338956        0.23813537        2.43483301
 C            1.27039906       -2.59377311        0.27689522
 C            1.20195504       -1.84167558        1.46663689
 C            0.09339686       -3.09040537       -0.27023779
 C            0.52522272       -1.63219263       -2.17497799
 C           -0.31009997       -2.56751980       -1.56542625
 C            0.79542493        0.78708694       -2.27206184
 C            0.01184971       -0.36204372       -2.47679226
 C            0.84903994        2.73119272       -0.85286308
 C            0.19897348        1.96943216       -1.82149165
 C            0.86199420        2.62502457        1.48225987
 C            0.12002401        3.13132758        0.33865200
 C            0.80561550        0.57865058        2.85448833
 C            0.21442856        1.84147142        2.43158578
 C           -0.03734598       -1.60693226        2.08318715
 C           -0.23908423       -0.42843411        2.80377328
 C           -1.08588970       -3.19397538        0.55741226
 C           -1.14259538       -2.38649366        1.75283166
 C           -1.74706160       -2.35669026       -1.53709081
 C           -2.23900761       -2.86006203       -0.26442721
 C           -1.36094197       -0.22307132       -2.67408131
 C           -2.26799058       -1.18198434       -2.06537046
 C           -1.16403910        2.17023722       -2.01049368
 C           -1.96524530        1.08939669       -2.54691801
 C           -1.26779540        3.05635740        0.32456202
 C           -1.92773029        2.80042942       -0.94528751
 C           -1.22758572        1.65259883        2.35234391
 C           -1.51204762        0.26910064        2.70280336
 C           -1.95705035        2.27790586        1.34491078
 C           -2.47054033       -1.79499804        1.81236809
 C           -3.12135786       -2.02920557        0.53234104
 C           -2.59698696       -0.38315852        2.13062974
 C           -3.27547276       -0.43084202       -1.32620088
 C           -3.15720213        0.96075403       -1.72034188
 C           -3.09883041        1.98028491       -0.68903894
 C           -3.06136685        1.57548348        0.70639981
 C           -3.54299087       -0.74463324        0.00441450
 C           -3.33284326        0.25266204        1.04750643




