%chk=000407.chk
%mem=8GB
%Nproc=32
#p B3LYP/6-31G* opt pop=NPA

Template file

0 1
 C            3.77037834       -0.83510173        0.10315511
 C            3.55936423       -0.02031623       -1.07575725
 C            3.34418730        1.34135163       -0.62390978
 C            3.39893426       -0.03533567        1.26425718
 C            3.02905812        1.28210328        0.79438188
 C            2.43423521       -0.79212212        2.03061820
 C            3.06780767       -2.09756504        0.19939801
 C            2.44509824       -2.14870891        1.51029169
 C            2.02864039       -2.40148613       -0.76841286
 C            2.46624629       -0.34843389       -1.97588146
 C            1.63285080       -1.43553695       -1.69852578
 C            2.37667952        1.95623356       -1.51903391
 C            1.88182107        0.91061942       -2.40675723
 C            1.48134285        2.86964002       -0.97601945
 C            1.84092668        1.86370351        1.22869939
 C            1.35262943        2.92718209        0.46986562
 C            1.21181358       -0.21105626        2.35408004
 C            0.96744627        1.13897264        2.06139322
 C            0.14697444       -1.05380857        2.67646646
 C            1.17752596       -2.84631331        1.36386820
 C            1.01466748       -3.15396542       -0.05172660
 C            0.08513094       -2.38361165        2.08764824
 C           -0.26047138       -3.22583623       -0.59306308
 C            0.32139252       -1.44744728       -2.18606536
 C           -0.54509992       -2.46973975       -1.79975036
 C            0.55697489        0.92567648       -2.82125837
 C           -0.19820891       -0.31607979       -2.81786808
 C            0.13853279        2.97651346       -1.52274251
 C           -0.33572791        1.98724479       -2.37417864
 C            0.06005390        3.50495153        0.76652155
 C           -0.72339914        3.46585259       -0.46072667
 C           -0.25046252        1.70143029        2.45541386
 C           -0.73132509        2.91428967        1.82133921
 C           -1.20660136       -0.53094495        2.74128249
 C           -1.40462811        0.83948796        2.64861953
 C           -1.25605944       -2.56886388        1.55708315
 C           -1.41819827       -3.09059262        0.27658486
 C           -2.07072761       -1.44457024        2.00662811
 C           -1.98164069       -2.24591069       -1.83884868
 C           -2.52703825       -2.64619302       -0.55002386
 C           -1.60059560        0.03182453       -2.64406504
 C           -1.64794623        1.39723601       -2.13837660
 C           -2.48196796       -0.91781721       -2.14695589
 C           -1.96040793        2.76301575       -0.16965318
 C           -2.04707483        2.62794446        1.27456700
 C           -2.49032185        1.36065431        1.82817422
 C           -2.35602568        1.69199578       -0.96902042
 C           -3.08541926       -0.93962064        1.19837935
 C           -3.38121785       -1.57446295       -0.07495092
 C           -3.40338096       -0.53562749       -1.09367686
 C           -3.20359606        0.49590089        1.00667790
 C           -3.22317038        0.74324398       -0.42814561




