%chk=000162.chk
%mem=8GB
%Nproc=32
#p B3LYP/6-31G* opt pop=NPA

Template file

0 1
 C            4.07418918       -0.98576108       -0.41769780
 C            4.06343658        0.39372244        0.03367757
 C            3.58508618        1.20576775       -1.06796995
 C            3.31893586       -1.04964061       -1.65902758
 C            3.05233136        0.30622749       -2.08090683
 C            2.19519994       -1.94249560       -1.44168528
 C            3.35588624       -1.77711216        0.56339359
 C            2.39750700       -2.59168298       -0.15658081
 C            3.35174817        0.45024114        1.30205132
 C            2.84366933       -0.88268813        1.58818827
 C            2.54584085        1.54578244        1.57541501
 C            2.57381965        2.21010718       -0.79273806
 C            2.29353882        2.53188147        0.52948107
 C            1.67972133        0.69526478       -2.33052170
 C            1.46553823        1.98712441       -1.71404415
 C            0.90126043       -1.54673941       -1.79227394
 C            0.65386634       -0.24023185       -2.25372780
 C           -0.16829115       -2.32181239       -1.32713543
 C            1.27051716       -3.00087659        0.53618065
 C            0.02034581       -3.10907954       -0.18971319
 C            1.52248027       -1.05990533        2.00957956
 C            0.94434653       -2.30521525        1.77314456
 C            1.28693314        1.32533683        2.26179252
 C            0.70204684        0.06120931        2.22153821
 C            1.01619085        3.14659233        0.82474607
 C            0.47154823        2.49038505        2.00483414
 C            0.16829115        2.32181239       -1.32713543
 C           -0.02034581        3.10907954       -0.18971319
 C           -0.65386634        0.24023185       -2.25372780
 C           -0.90126043        1.54673941       -1.79227394
 C           -1.46553823       -1.98712441       -1.71404415
 C           -1.67972133       -0.69526478       -2.33052170
 C           -2.57381965       -2.21010718       -0.79273806
 C           -1.01619085       -3.14659233        0.82474607
 C           -0.47154823       -2.49038505        2.00483414
 C           -2.29353882       -2.53188147        0.52948107
 C           -0.70204684       -0.06120931        2.22153821
 C           -1.28693314       -1.32533683        2.26179252
 C           -2.54584085       -1.54578244        1.57541501
 C           -0.94434653        2.30521525        1.77314456
 C           -1.27051716        3.00087659        0.53618065
 C           -1.52248027        1.05990533        2.00957956
 C           -2.19519994        1.94249560       -1.44168528
 C           -2.39750700        2.59168298       -0.15658081
 C           -3.05233136       -0.30622749       -2.08090683
 C           -3.58508618       -1.20576775       -1.06796995
 C           -3.31893586        1.04964061       -1.65902758
 C           -3.35174817       -0.45024114        1.30205132
 C           -2.84366933        0.88268813        1.58818827
 C           -3.35588624        1.77711216        0.56339359
 C           -4.06343658       -0.39372244        0.03367757
 C           -4.07418918        0.98576108       -0.41769780




