%chk=000235.chk
%mem=8GB
%Nproc=32
#p B3LYP/6-31G* opt pop=NPA

Template file

0 1
 C            3.71510616       -1.65791107        0.41075768
 C            3.40255519       -0.72136305        1.47450479
 C            3.65959686        0.59923709        0.95103004
 C            3.68188018       -0.91446041       -0.83831185
 C            3.79890721        0.48300122       -0.49807813
 C            2.50693346       -1.35059559       -1.57039888
 C            2.64019938       -2.62708373        0.35718509
 C            2.12879662       -2.63319149       -1.00048377
 C            2.06584468       -1.02507310        1.95885852
 C            1.70006351       -2.32465517        1.42465029
 C            1.10095227       -0.01734473        2.00394510
 C            2.67515852        1.63380865        1.18822249
 C            1.48463930        1.32485697        1.84695178
 C            2.85809694        1.41971996       -1.08200899
 C            2.59891498        2.39636936       -0.04300619
 C            1.50697341       -0.42390093       -1.89072698
 C            1.78019837        0.95143294       -1.83853180
 C            0.19234867       -0.87772556       -2.07346486
 C            0.82390218       -3.05642689       -1.16761512
 C           -0.06187824       -2.24445074       -1.97791846
 C            0.35915478       -2.59065110        1.18085745
 C            0.05928011       -3.32786795        0.03308155
 C           -0.25436976       -0.37600759        1.95499848
 C           -0.60549983       -1.71323332        1.68753404
 C           -1.24026423        0.61021037        2.12051442
 C            0.51252541        2.31719578        1.87494219
 C           -0.88359782        1.95147060        2.00041763
 C            1.52762918        3.25886640       -0.20788243
 C            0.60093555        3.39909305        0.90326902
 C            0.76581811        1.85785014       -2.13674613
 C            0.73183845        3.12398080       -1.41756253
 C           -0.87305049        0.03250815       -2.07813010
 C           -0.60206206        1.38511079       -2.26398808
 C           -2.16044952       -0.36467757       -1.68147900
 C           -1.40309768       -2.69794877       -1.66047828
 C           -1.31659544       -3.43528035       -0.40308243
 C           -2.45525742       -1.71662801       -1.50885190
 C           -1.94676334       -2.08173994        1.58113223
 C           -2.34922680       -2.92689428        0.47254667
 C           -3.23425928       -2.12934253       -0.35177161
 C           -2.58716893        0.29170099        1.95756352
 C           -2.97925188       -1.07959634        1.72381831
 C           -3.78992603       -1.10604761        0.50909868
 C           -3.04902065        0.58281498       -1.16767568
 C           -3.38400224        1.11452378        1.06594620
 C           -3.84428642        0.24862230        0.00013940
 C           -1.65682882        2.81190646        1.11108427
 C           -0.72321967        3.62070679        0.35339286
 C           -0.64975696        3.41564372       -1.08006385
 C           -1.48202698        2.38297548       -1.67167136
 C           -2.73893637        2.25500343        0.44468568
 C           -2.60745261        1.95148761       -0.98120001




