%chk=000109.chk
%mem=8GB
%Nproc=32
#p B3LYP/6-31G* opt pop=NPA

Template file

0 1
 C            4.62831513        0.00000000       -0.00000000
 C            4.10547760       -1.35557108        0.06261647
 C            3.39358810       -1.61483219       -1.16984209
 C            4.10547760        0.62355808       -1.20526723
 C            3.39358810       -0.38766567       -1.95599818
 C            3.39358810        1.82052907       -0.81356465
 C            4.10547760        0.73201299        1.14265075
 C            3.39358810        1.88777695        0.64227077
 C            3.39358810       -1.50011127        1.31372741
 C            3.39358810       -0.20569688        1.98340675
 C            2.01880962       -1.97883950        1.30423279
 C            2.01880962       -2.09064656       -1.11625529
 C            1.37336399       -2.30276852        0.10636937
 C            2.01880962       -0.14007898       -2.36584167
 C            1.30099027       -1.38117273       -2.15597001
 C            2.01880962        2.01202872       -1.25242538
 C            1.37336399        1.05926568       -2.04744072
 C            2.01880962        2.11891848        1.06160888
 C            1.30099027        2.55771117       -0.11814567
 C            2.01880962        0.07861784        2.36868068
 C            1.30099027       -1.17653844        2.27411568
 C            1.37336399        1.24350283        1.94107135
 C           -0.07534022       -1.12284175        2.17032606
 C           -0.02730368       -2.33025038        0.10763881
 C           -0.69176250       -2.01160430        1.29687211
 C           -0.07534022       -1.31813663       -2.05757251
 C           -0.69176250       -2.12259328       -1.10590546
 C           -0.02730368        1.07190725       -2.07187543
 C           -0.69176250       -0.11732204       -2.39053648
 C           -0.07534022        2.44097838       -0.11275355
 C           -0.69176250        2.01903886       -1.28526698
 C           -0.02730368        1.25834314        1.96423663
 C           -0.69176250        0.10355442        2.39117243
 C           -0.69176250        2.12892634        1.09366438
 C           -2.07935144        0.11723413        2.49008752
 C           -2.07935144       -2.10024602        1.34285010
 C           -2.80294250       -1.07799035        2.08363339
 C           -2.07935144       -2.21509612       -1.14351603
 C           -2.80050942       -2.34507056        0.10832338
 C           -2.07935144       -0.11281929       -2.49029145
 C           -2.80294250       -1.26548427       -1.97538372
 C           -2.07935144        2.09786199       -1.34657149
 C           -2.80050942        1.07872448       -2.08505237
 C           -2.07935144        2.21306531        1.14744136
 C           -2.80050942        1.26634608        1.97672899
 C           -2.80294250        2.34347462       -0.10824966
 C           -3.95023645       -0.66796999        1.29111042
 C           -3.94883887       -1.45237739        0.06708814
 C           -3.95023645       -0.78414943       -1.22403419
 C           -3.94883887        0.66808866       -1.29133978
 C           -3.94883887        0.78428873        1.22425164
 C           -3.95023645        1.45211942       -0.06707623




