%chk=000315.chk
%mem=8GB
%Nproc=32
#p B3LYP/6-31G* opt pop=NPA

Template file

0 1
 C            4.01169540        0.55018845       -0.54071459
 C            3.94393799       -0.88516636       -0.74991830
 C            2.98372876       -1.12774575       -1.81781970
 C            3.26345144        1.17777595       -1.61682227
 C            2.43481066        0.15445931       -2.22209148
 C            2.62082002        2.34916204       -1.07124456
 C            3.53437880        1.12361073        0.71074651
 C            2.80857695        2.33126381        0.37514488
 C            3.04275164        0.29899447        1.71795860
 C            3.59778812       -1.74500052        0.36583963
 C            3.22247585       -1.14195487        1.63255262
 C            2.06648783       -2.16090701       -1.37069114
 C            2.50354441       -2.60272394       -0.05810319
 C            0.70270093       -1.98169867       -1.57399863
 C            1.04766197        0.30279721       -2.24462213
 C            0.26438893       -0.85035892       -2.26768619
 C            1.20257224        2.53546160       -1.30422533
 C            0.45112134        1.53500213       -1.92635983
 C            1.50504784        2.56870198        0.97380591
 C            0.68409571        3.12174233       -0.08755195
 C            1.72607121        0.55600583        2.29302310
 C            0.94485595        1.61641012        1.83056899
 C            1.98804101       -1.76850314        2.07249205
 C            1.52074192       -2.64372035        1.01279357
 C            1.09086175       -0.72555553        2.54103713
 C           -0.17261023       -2.58824090       -0.67566966
 C            0.17261023       -2.58824090        0.67566966
 C           -1.52074192       -2.64372035       -1.01279357
 C           -1.09086175       -0.72555553       -2.54103713
 C           -1.98804101       -1.76850314       -2.07249205
 C           -0.94485595        1.61641012       -1.83056899
 C           -1.72607121        0.55600583       -2.29302310
 C           -0.68409571        3.12174233        0.08755195
 C           -1.50504784        2.56870198       -0.97380591
 C           -0.45112134        1.53500213        1.92635983
 C           -1.20257224        2.53546160        1.30422533
 C           -0.26438893       -0.85035892        2.26768619
 C           -0.70270093       -1.98169867        1.57399863
 C           -1.04766197        0.30279721        2.24462213
 C           -2.50354441       -2.60272394        0.05810319
 C           -2.06648783       -2.16090701        1.37069114
 C           -3.22247585       -1.14195487       -1.63255262
 C           -3.04275164        0.29899447       -1.71795860
 C           -3.59778812       -1.74500052       -0.36583963
 C           -2.80857695        2.33126381       -0.37514488
 C           -2.62082002        2.34916204        1.07124456
 C           -3.53437880        1.12361073       -0.71074651
 C           -2.43481066        0.15445931        2.22209148
 C           -2.98372876       -1.12774575        1.81781970
 C           -3.94393799       -0.88516636        0.74991830
 C           -3.26345144        1.17777595        1.61682227
 C           -4.01169540        0.55018845        0.54071459




