%chk=000284.chk
%mem=8GB
%Nproc=32
#p B3LYP/6-31G* opt pop=NPA

Template file

0 1
 C            3.35482776       -2.10603743       -0.28966742
 C            2.20052169       -2.81045675       -0.81811543
 C            1.28961908       -3.06669974        0.28079989
 C            3.07182234       -1.76350426        1.09340695
 C            1.78419466       -2.33778545        1.44160080
 C            3.26322437       -0.33472169        1.24698802
 C            3.48530697       -0.86358023       -1.02665751
 C            3.61070432        0.21225014       -0.06030505
 C            1.70321275       -2.07103540       -1.96048679
 C            2.40085104       -0.79509730       -1.99398770
 C            0.34170575       -2.09327422       -2.20315273
 C           -0.08032588       -3.06580232        0.03522268
 C           -0.53822666       -2.76591585       -1.25452960
 C           -0.91932698       -2.85841623        1.12548989
 C            0.88032124       -1.60101867        2.20759971
 C           -0.45530166       -1.99732243        2.20160318
 C            2.39393033        0.36472502        2.07629348
 C            1.19329772       -0.29084139        2.58480357
 C            2.05332304        1.74460869        1.76525963
 C            3.12447410        1.46061499       -0.42381199
 C            2.51828426        2.31297138        0.58295931
 C            1.68232842        0.39833646       -2.10108816
 C            2.28139863        1.55429698       -1.60555295
 C           -0.31811002       -0.86192040       -2.59177100
 C            0.29477430        0.36178453       -2.31979490
 C           -1.87113869       -2.21088684       -1.45561427
 C           -1.73231969       -1.03911809       -2.31723794
 C           -2.33012211       -2.58547853        0.91688681
 C           -2.78494111       -2.21259590       -0.40704747
 C           -1.49403567       -1.00675429        2.42830508
 C           -2.71036138       -1.51968409        1.83167052
 C            0.13541235        0.70935855        2.65697656
 C            0.68238224        1.97666856        2.20883406
 C           -1.16840910        0.34458103        2.32896565
 C           -0.13725676        2.86716199        1.53122984
 C            1.69368954        3.27342173       -0.12842901
 C            1.50671318        2.76724910       -1.48293437
 C            0.38573488        3.61131800        0.39890167
 C           -0.49787042        1.51048696       -2.14613640
 C            0.08573080        2.70995995       -1.73976735
 C           -0.56398841        3.47191715       -0.68964559
 C           -2.52101748        0.08273219       -2.11122507
 C           -1.88523028        1.38608006       -2.00906846
 C           -3.70576774       -1.10119594       -0.24834568
 C           -3.56783985       -0.60694400        1.11516279
 C           -3.60070232        0.03828279       -1.14078243
 C           -1.99856495        1.23644474        1.62505823
 C           -1.50043315        2.47687098        1.21206710
 C           -1.79524935        2.94643513       -0.13831103
 C           -2.56423857        2.13316371       -0.95530336
 C           -3.18488251        0.78816699        1.03534714
 C           -3.49212501        1.22619965       -0.31266291




