%chk=000023.chk
%mem=8GB
%Nproc=32
#p B3LYP/6-31G* opt pop=NPA

Template file

0 1
 C            4.46622424        0.66918469       -0.00227380
 C            4.18473053        0.10255849        1.30486107
 C            3.63423074       -1.22300108        1.10144281
 C            4.05171241       -0.29695101       -1.00691927
 C            3.41601574       -1.40875944       -0.32436606
 C            3.29235275        0.42278523       -2.00148745
 C            3.62598133        1.84277773       -0.16830608
 C            3.04067064        1.76363400       -1.48709500
 C            3.13970690        0.89933761        1.92253292
 C            2.73489390        1.92159994        0.97423152
 C            2.49182584       -1.35588983        1.98583755
 C            2.11889820       -0.01460718        2.41688865
 C            1.47957414       -2.21234080        1.59090175
 C            2.16599635       -1.87373481       -0.74616153
 C            1.40099060       -2.58214578        0.18426692
 C            2.01464881       -0.11794829       -2.41577241
 C            1.54793827       -1.32011420       -1.88307997
 C            1.61804888        2.01541438       -1.62548546
 C            1.09121236        0.99950634       -2.50587791
 C            1.36921261        2.10807404        0.77466575
 C            0.85845174        2.34949001       -0.51128367
 C            0.78114475        0.37692611        2.32187393
 C            0.50292563        1.61949200        1.75139177
 C            0.12423764       -1.91671756        2.00683057
 C           -0.21970890       -0.60304850        2.32436811
 C            0.01418591       -2.90985055       -0.09784966
 C           -0.74061739       -2.67719403        1.12722440
 C            0.22939585       -1.65797772       -2.18900946
 C           -0.52792440       -2.54040090       -1.31819945
 C           -0.26872593        0.72743284       -2.43928731
 C           -0.66845183       -0.59522274       -2.61508757
 C           -0.52921942        2.35737610       -0.66598428
 C           -1.09193498        1.58364001       -1.69979017
 C           -0.80995397        2.05762067        1.72131916
 C           -1.27781525        2.62624593        0.47684912
 C           -1.56006015       -0.21175964        2.21973344
 C           -1.84919316        1.15263530        2.16606448
 C           -2.07503848       -2.31313228        1.05224186
 C           -2.51124329       -1.15404695        1.80871383
 C           -1.92971631       -2.15083649       -1.39245239
 C           -2.02302089       -0.98522394       -2.26658473
 C           -2.71943164       -2.22847077       -0.24784644
 C           -2.47084862        1.36026804       -1.74127075
 C           -2.95383438        0.01138707       -1.99683314
 C           -2.72005540        2.49312226        0.45366777
 C           -3.08756705        1.63187201        1.56929274
 C           -3.33272639        1.95646743       -0.73751605
 C           -3.77497124       -0.73457103        1.22239443
 C           -3.85842244       -1.33580741       -0.10169509
 C           -4.02989113       -0.26264558       -1.06144194
 C           -4.06460535        0.67767644        1.08989827
 C           -4.30022879        0.95587383       -0.31853578




