%chk=000102.chk
%mem=8GB
%Nproc=32
#p B3LYP/6-31G* opt pop=NPA

Template file

0 1
 C            4.25174812        0.32516015       -0.72684378
 C            4.25174812        0.32516015        0.72684378
 C            3.41418046        1.42476645        1.16875294
 C            3.41418046        1.42476645       -1.16875294
 C            3.03291067        2.19834977       -0.00000000
 C            2.35986543        0.88191190       -2.01230651
 C            3.62368243       -0.90692422       -1.16894164
 C            2.47307621       -0.56498350       -1.99640333
 C            3.62368243       -0.90692422        1.16894164
 C            3.40960126       -1.74204639        0.00000000
 C            2.35986543        0.88191190        2.01230651
 C            2.47307621       -0.56498350        1.99640333
 C            1.09558260        1.44740710        1.93759335
 C            1.77862970        2.78907107       -0.00000000
 C            0.91860675        2.58775154        1.15213412
 C            1.09558260        1.44740710       -1.93759335
 C            0.91860675        2.58775154       -1.15213412
 C           -0.01405599        0.65959758       -2.23727568
 C            1.31710616       -1.33730478       -1.87907207
 C            0.06039085       -0.73394504       -2.06404337
 C            2.29710626       -2.56454971        0.00000000
 C            1.41108479       -2.52175509       -1.14921465
 C            1.31710616       -1.33730478        1.87907207
 C            1.41108479       -2.52175509        1.14921465
 C           -0.01405599        0.65959758        2.23727568
 C            0.06039085       -0.73394504        2.06404337
 C           -1.25100267        1.29237902        2.30256356
 C           -0.42413719        2.95757701        0.72957885
 C           -0.42413719        2.95757701       -0.72957885
 C           -1.50250470        2.41256726        1.41282259
 C           -1.25100267        1.29237902       -2.30256356
 C           -1.50250470        2.41256726       -1.41282259
 C           -2.45734008        0.50026976       -2.36820894
 C           -1.11273240       -1.49814805       -1.90424613
 C           -2.36414604       -0.91537203       -2.09551828
 C            0.20439204       -3.19741013       -0.72970264
 C            0.20439204       -3.19741013        0.72970264
 C           -1.07148345       -2.66659669       -1.15011044
 C           -1.11273240       -1.49814805        1.90424613
 C           -1.07148345       -2.66659669        1.15011044
 C           -1.94897874       -2.78028724        0.00000000
 C           -2.45734008        0.50026976        2.36820894
 C           -2.36414604       -0.91537203        2.09551828
 C           -2.73441561        2.12574190        0.69715806
 C           -2.73441561        2.12574190       -0.69715806
 C           -3.41841597        1.07578654       -1.43762971
 C           -3.41841597        1.07578654        1.43762971
 C           -3.44134444       -1.25458982       -1.17398738
 C           -3.13134199       -2.05569893        0.00000000
 C           -3.44134444       -1.25458982        1.17398738
 C           -4.05710088       -0.01630616       -0.72554896
 C           -4.05710088       -0.01630616        0.72554896




