%chk=000316.chk
%mem=8GB
%Nproc=32
#p B3LYP/6-31G* opt pop=NPA

Template file

0 1
 C           -3.86328279        0.97224086        0.04765913
 C           -3.96338059       -0.43131584       -0.30669470
 C           -3.56316276       -1.19713086        0.86349497
 C           -3.38775171        1.03519886        1.42167471
 C           -2.88068714       -0.27992742        1.75580516
 C           -2.49455709        2.16317208        1.52142841
 C           -3.01521245        1.84819623       -0.74191135
 C           -2.33240356        2.72694797        0.18703920
 C           -2.31521691        1.34097392       -1.83074755
 C           -3.20057982       -0.93769438       -1.43468295
 C           -2.40388267       -0.07404853       -2.17794424
 C           -2.84673279       -2.36158486        0.39547276
 C           -2.66584905       -2.22880632       -1.04470128
 C           -1.53999391       -2.63801938        0.95466120
 C           -1.51480822       -0.45905007        2.00713120
 C           -0.95234315       -1.73301781        1.84173404
 C           -1.16187487        1.94810518        2.04414294
 C           -0.68892438        0.65143089        2.26541542
 C           -0.91260509        2.99399712        0.00879443
 C           -0.31430864        2.87466744        1.32502916
 C           -0.94271255        1.76761390       -2.07205905
 C           -0.23248374        2.45953345       -1.08671200
 C           -1.07979440       -0.50353002       -2.60548268
 C           -0.29074562        0.69913386       -2.81077936
 C           -1.27358490       -2.54493596       -1.33526114
 C           -0.73840738       -3.15990880       -0.13619047
 C           -0.48532777       -1.62974865       -2.03086220
 C            0.63475680       -3.20128488        0.03286022
 C            0.38243531       -1.94133784        2.17173491
 C            1.15897718       -2.84888448        1.34049904
 C            0.69235035        0.47929965        2.41160659
 C            1.22566651       -0.80398962        2.48706182
 C            1.05110374        2.68882951        1.40412151
 C            1.54080858        1.56538020        2.18215811
 C            1.15989879        2.32772523       -1.01838250
 C            1.81221144        2.67226357        0.17016754
 C            1.08812050        0.60570800       -2.76857300
 C            1.82650548        1.59182059       -2.00284549
 C            0.90611383       -1.68032363       -1.89214143
 C            1.47903708       -2.54406950       -0.95344994
 C            1.68786814       -0.68383234       -2.47545048
 C            2.47761507       -2.27583248        1.15056525
 C            2.56140466       -1.07717552        1.96347265
 C            2.71684497       -2.17298028       -0.27906254
 C            2.90754712        1.33315020        1.74477265
 C            3.09676910        2.08074952        0.50894769
 C            3.35346227       -0.02698294        1.51793118
 C            3.13360651        1.01018329       -1.73721911
 C            3.02343452       -0.42380186       -1.96221428
 C            3.46213323       -1.10261706       -0.75666033
 C            3.75415586        1.21374701       -0.44509865
 C            3.92778692       -0.08823721        0.17974480




