%chk=000167.chk
%mem=8GB
%Nproc=32
#p B3LYP/6-31G* opt pop=NPA

Template file

0 1
 C            4.09489120       -0.25179061        0.67116846
 C            3.89949120        0.86028412       -0.24250039
 C            3.53952993        0.30942406       -1.53459587
 C            3.60862547       -1.45435781        0.01452043
 C            3.36030233       -1.12564550       -1.37013351
 C            2.51078546       -1.98327395        0.80705115
 C            3.25765283       -0.02128749        1.83369143
 C            2.44978410       -1.20722865        2.03685702
 C            2.99569055        1.80744801        0.38712830
 C            2.57492686        1.25067437        1.66302248
 C            2.05654960        2.46613064       -0.39309026
 C            2.36440488        0.83110317       -2.21529845
 C            1.75397484        1.98045816       -1.73813276
 C            2.07270090       -1.47101662       -1.93015294
 C            1.53282170       -0.29716766       -2.59462150
 C            1.31616360       -2.36367255        0.18494420
 C            1.19213318       -2.27517321       -1.21506746
 C            0.17272332       -2.51822223        0.98255054
 C            1.21816552       -1.04583635        2.64870042
 C            0.11423558       -1.88364337        2.22279109
 C            1.23564555        1.34467046        2.04751461
 C            0.68271040        0.30078664        2.79406657
 C            0.79760410        2.85679237        0.21318031
 C            0.39224473        2.26163347        1.40810732
 C            0.32865833        2.15408842       -1.95169903
 C           -0.15638467        2.99969085       -0.87308730
 C            0.14349559       -0.16133300       -2.65735786
 C           -0.45162894        1.08026591       -2.38542274
 C           -0.05884862       -2.44670566       -1.79359501
 C           -0.61401332       -1.33046487       -2.54541540
 C           -1.00590630       -3.00450251        0.42368636
 C           -1.12391413       -3.03733333       -1.01572376
 C           -2.28239597       -2.55071433        0.95548617
 C           -1.10885562       -1.20617266        2.62488245
 C           -0.76111479        0.17785181        2.91803131
 C           -2.29230870       -1.50030303        1.95935191
 C           -0.95447265        2.32725130        1.76525305
 C           -1.56867799        1.20771593        2.45824160
 C           -1.51197926        3.00666870       -0.58060769
 C           -1.92164826        2.83368361        0.80270463
 C           -1.83783145        1.17445841       -2.25708152
 C           -2.40325098        2.21428563       -1.41020522
 C           -2.03700132       -1.26425733       -2.26149027
 C           -2.36581368       -2.37527847       -1.38256200
 C           -3.10506006       -2.11509168       -0.16224358
 C           -2.62973513       -0.02590239       -2.05853950
 C           -3.13154386       -0.41883315        1.46512223
 C           -2.82424307        0.90051944        1.78957388
 C           -3.08175796        1.95700615        0.82504784
 C           -3.39774133        1.59917700       -0.54515577
 C           -3.55148608       -0.76123455        0.11100304
 C           -3.48829765        0.19437431       -0.89989900




