%chk=000370.chk
%mem=8GB
%Nproc=32
#p B3LYP/6-31G* opt pop=NPA

Template file

0 1
 C            3.17789552       -1.29951533        1.54709766
 C            2.48219127       -2.47459335        1.07364390
 C            2.63276854       -2.52282267       -0.37494990
 C            3.85711650       -0.71616774        0.40326154
 C            3.21050350       -1.25444914       -0.78238869
 C            3.87384216        0.71713009        0.60445868
 C            2.40302245       -0.23832623        2.15809641
 C            3.03061992        1.00442060        1.75949365
 C            1.01088544       -0.31009084        2.15316665
 C            1.06583191       -2.59754968        1.34665534
 C            0.36338319       -1.53340314        1.91569616
 C            1.35224099       -2.92764844       -0.92924821
 C            0.49268186       -3.26309452        0.19611885
 C            0.82375892       -2.20658158       -1.99237170
 C            2.48480552       -0.40938750       -1.62791952
 C            1.39336303       -0.90996822       -2.33625705
 C            3.42657237        1.56444356       -0.48050460
 C            2.67620745        0.97192558       -1.57610494
 C            2.17973143        2.12772137        1.41574875
 C            2.59084600        2.59436329        0.10357205
 C            0.26911980        0.87550029        2.19398783
 C            0.81425542        2.06242516        1.68607417
 C           -1.09634698        0.80444684        2.45333524
 C           -1.03310204       -1.57398058        1.87294541
 C           -1.75639513       -0.48487214        2.35779157
 C           -0.88326117       -3.20574929        0.04124763
 C           -1.65753405       -2.53873120        1.07279462
 C           -0.62041831       -2.11729548       -2.14259654
 C           -1.44027528       -2.77331339       -1.23280269
 C            0.29898875       -0.01871446       -2.69331677
 C           -0.94793157       -0.75734044       -2.55159645
 C            1.55922321        1.86107587       -1.86940330
 C            1.55089265        2.91380754       -0.85582546
 C            0.35210582        1.32352970       -2.32722444
 C           -0.01602114        2.95496452        1.00769138
 C            0.33023918        3.33771602       -0.35511060
 C           -1.98955305        1.80571254        1.88774128
 C           -1.45800319        2.79718740        1.07514676
 C           -3.12208395       -0.24974278        1.91353800
 C           -3.20561213        1.12800664        1.46377427
 C           -2.95721578       -2.27592175        0.48189017
 C           -2.75742486       -2.22541189       -0.95827052
 C           -3.68010631       -1.08330435        0.86921471
 C           -2.07544031       -0.12062675       -2.03200142
 C           -3.55401099        1.11533436        0.04987072
 C           -3.05766976       -0.87056199       -1.38458736
 C           -3.83500316       -0.25855768       -0.32038305
 C           -0.83960528        2.01201382       -2.10239948
 C           -0.84594340        3.12279815       -1.16905107
 C           -1.97630331        2.95013719       -0.27490722
 C           -2.07791097        1.26850289       -1.90937196
 C           -2.81992072        1.90455913       -0.82546047




