%chk=000113.chk
%mem=8GB
%Nproc=32
#p B3LYP/6-31G* opt pop=NPA

Template file

0 1
 C            4.38769616        0.22837785        0.30374620
 C            3.93104736       -1.13420455        0.50297508
 C            3.50858183       -1.64939178       -0.78481881
 C            4.04031352        0.61813567       -1.05520365
 C            3.44615679       -0.52822331       -1.70984989
 C            3.27235012        1.84191473       -0.97631058
 C            3.63795414        1.08157452        1.20983844
 C            3.13715463        2.19002165        0.43195658
 C            2.97126922       -1.13109190        1.59424139
 C            2.67868563        0.25516180        1.92619337
 C            1.92162237       -2.03576066        1.56095677
 C            2.23995825       -2.35171987       -0.86027690
 C            1.61526962       -2.73989586        0.31735544
 C            2.07860969       -0.44235809       -2.20010802
 C            1.43575425       -1.70531333       -1.88477037
 C            1.93763069        1.89101734       -1.55838424
 C            1.34136827        0.73936950       -2.07190498
 C            1.76206341        2.58877896        0.63384136
 C            1.15638216        2.73259857       -0.67692610
 C            1.34495428        0.67511669        2.03158555
 C            1.00106217        1.97483484        1.62594027
 C            0.65236021       -1.63961323        2.13785062
 C            0.33953592       -0.28485533        2.23855853
 C            0.17862341       -2.95113489        0.29320673
 C           -0.33284307       -2.54941874        1.59304339
 C            0.05128247       -1.72448823       -1.76592473
 C           -0.54282239       -2.59350878       -0.84423763
 C           -0.05442770        0.66004815       -2.07751659
 C           -0.65496065       -0.59902470       -2.18509189
 C           -0.22778246        2.66087382       -0.73314529
 C           -0.80775562        1.75490263       -1.62725222
 C           -0.33147964        2.36490173        1.67643882
 C           -0.89385220        2.92448805        0.46009109
 C           -1.00501224        0.09900623        2.28069798
 C           -1.32419650        1.44787102        2.19493471
 C           -1.67110994       -2.20796244        1.68852068
 C           -2.01287817       -0.85905231        2.11585069
 C           -1.93303378       -2.62458058       -0.75656282
 C           -2.53328715       -2.53602619        0.56537307
 C           -2.03194753       -0.69780687       -2.33085847
 C           -2.71165622       -1.78111718       -1.64799108
 C           -2.19957806        1.71703575       -1.73508410
 C           -2.84145815        0.49457249       -2.18221020
 C           -2.32970499        2.75864347        0.52440396
 C           -2.60448605        1.85068642        1.62903075
 C           -3.00723821        2.25161098       -0.64992319
 C           -3.26789053       -0.49813008        1.46592611
 C           -3.59548075       -1.54819308        0.51290095
 C           -3.80758626       -1.20825109       -0.88247715
 C           -3.92232055        0.18875450       -1.25437461
 C           -3.51812934        0.83218625        1.14666588
 C           -3.90476837        1.19863949       -0.21092094




