%chk=000044.chk
%mem=8GB
%Nproc=32
#p B3LYP/6-31G* opt pop=NPA

Template file

0 1
 C            4.42073375        0.00000000        0.25243582
 C            3.91527070        0.00000000        1.61397664
 C            3.06421401       -1.16463271        1.77149396
 C            3.88040595       -1.16822067       -0.42249947
 C            2.94578204       -1.81266588        0.47993523
 C            3.39787746       -0.72959722       -1.71084824
 C            3.88040595        1.16822067       -0.42249947
 C            3.39787746        0.72959722       -1.71084824
 C            3.06421401        1.16463271        1.77149396
 C            2.94578204        1.81266588        0.47993523
 C            1.83914445       -0.72678857        2.41901976
 C            1.83914445        0.72678857        2.41901976
 C            0.64986950       -1.36190669        2.07576969
 C            1.66340700       -2.13853883        0.04305419
 C            0.66853496       -2.26892430        1.00978572
 C            2.07614123       -1.14994743       -2.13517465
 C            1.27780501       -1.92268311       -1.29035629
 C            2.07614123        1.14994743       -2.13517465
 C            1.47752613       -0.00000000       -2.77895669
 C            1.66340700        2.13853883        0.04305419
 C            1.27780501        1.92268311       -1.29035629
 C            0.64986950        1.36190669        2.07576969
 C            0.66853496        2.26892430        1.00978572
 C           -0.54511757       -0.69963394        2.36590706
 C           -0.54511757        0.69963394        2.36590706
 C           -1.73835098       -1.40134665        2.21205353
 C           -0.51918774       -2.87862671        0.63353592
 C           -1.70456313       -2.62128636        1.42849305
 C           -0.07362876       -2.06872266       -1.62469528
 C           -0.89790610       -2.79371964       -0.76533610
 C            0.10653859       -0.00000000       -2.95672864
 C           -0.64941505       -1.16636799       -2.52759179
 C           -0.07362876        2.06872266       -1.62469528
 C           -0.64941505        1.16636799       -2.52759179
 C           -0.51918774        2.87862671        0.63353592
 C           -0.89790610        2.79371964       -0.76533610
 C           -1.73835098        1.40134665        2.21205353
 C           -1.70456313        2.62128636        1.42849305
 C           -2.96301970       -0.69333062        1.87486628
 C           -2.96301970        0.69333062        1.87486628
 C           -2.84783232       -2.62213618        0.53455943
 C           -2.33851199       -2.60443616       -0.82548120
 C           -3.57554842       -1.38578789        0.75111122
 C           -2.02866091       -0.72807183       -2.35185615
 C           -2.02866091        0.72807183       -2.35185615
 C           -2.86157371       -1.42337983       -1.48624435
 C           -3.67989982       -0.69566470       -0.52486507
 C           -2.33851199        2.60443616       -0.82548120
 C           -2.84783232        2.62213618        0.53455943
 C           -3.57554842        1.38578789        0.75111122
 C           -2.86157371        1.42337983       -1.48624435
 C           -3.67989982        0.69566470       -0.52486507




