%chk=000366.chk
%mem=8GB
%Nproc=32
#p B3LYP/6-31G* opt pop=NPA

Template file

0 1
 C            3.69573573       -1.12937293        0.18628221
 C            3.84723244        0.28862834        0.41322353
 C            3.60448626        0.95127090       -0.85913617
 C            3.34285998       -1.30287499       -1.21543364
 C            2.90619434       -0.00727942       -1.69224462
 C            2.42128192       -2.41157366       -1.28974446
 C            2.70428828       -1.85311892        0.95431652
 C            2.20094078       -2.88644890        0.06833551
 C            1.79797307       -1.16126282        1.76200798
 C            2.98711314        0.93111231        1.38530230
 C            1.93068334        0.22390516        1.96427803
 C            2.95567380        2.21002980       -0.56663483
 C            2.73611771        2.26599418        0.87170759
 C            1.68061604        2.48999163       -1.19108483
 C            1.55475709        0.20539548       -1.98900608
 C            1.04631056        1.51207957       -1.96135934
 C            1.11237148       -2.18557667       -1.86215829
 C            0.68456119       -0.88799150       -2.15768737
 C            0.80312364       -3.27078778        0.16961362
 C            0.21270651       -3.06738247       -1.14612699
 C            0.62087100       -1.81401677        2.13664702
 C            0.08970778       -2.88040911        1.29631024
 C           -0.50282873       -1.06118820        2.66575776
 C            0.88190407        0.95376203        2.52828537
 C           -0.37896619        0.30746946        2.84455584
 C            1.42984530        2.86720185        1.09210138
 C            0.90034175        3.22869043       -0.21445952
 C            0.58398260        2.29042335        2.03028642
 C           -0.47305276        3.31251811       -0.40270138
 C           -0.27249132        1.74353775       -2.33665239
 C           -1.01850883        2.78026794       -1.63917305
 C           -0.68559444       -0.67317668       -2.34191603
 C           -1.16444405        0.61825100       -2.53881850
 C           -1.14802583       -2.82690904       -1.24935439
 C           -1.58612798       -1.70111167       -2.05455820
 C           -1.34940487       -2.69642995        1.19595671
 C           -1.72367144       -1.61321888        2.09799501
 C           -1.96553689       -2.82094891       -0.04651507
 C           -2.78680741       -0.77045151        1.78422632
 C           -1.45617167        1.19728091        2.43422729
 C           -0.85609341        2.38773940        1.85204984
 C           -1.37323451        2.92216482        0.67524180
 C           -2.62351365        0.67145228        1.89066085
 C           -2.34818015        2.27132829       -1.36139735
 C           -2.48292123        0.99297315       -2.03646724
 C           -2.56349892        2.33667832        0.07471250
 C           -3.21175062        1.27949798        0.70550504
 C           -2.93187882       -1.37252716       -1.61846524
 C           -3.15406282       -2.03902085       -0.34296657
 C           -3.59898806       -1.04050162        0.61041268
 C           -3.29881646        0.02242598       -1.46913280
 C           -3.77710876        0.21150998       -0.10680500




