%chk=000356.chk
%mem=8GB
%Nproc=32
#p B3LYP/6-31G* opt pop=NPA

Template file

0 1
 C            3.80903832       -0.95242835       -0.09059679
 C            3.52473976       -1.04286155        1.32595475
 C            2.49772521       -2.05893818        1.50607784
 C            3.09927350       -2.03610017       -0.75119090
 C            2.12837681       -2.56024388        0.19243116
 C            2.62556894       -1.53476994       -2.02315986
 C            3.48664329        0.27292051       -0.80385638
 C            2.96344767       -0.12243441       -2.09999495
 C            2.89247415        1.34744584       -0.13790280
 C            3.09226108        0.15155270        2.02179677
 C            2.78806492        1.35006536        1.25795065
 C            1.45799697       -1.49711720        2.35072102
 C            1.90074361       -0.18610045        2.78417797
 C            0.13303629       -1.64526912        1.96369316
 C            0.77549089       -2.59596130       -0.15038732
 C           -0.16584519       -2.46488269        0.87551963
 C            1.21668627       -1.66072695       -2.32967262
 C            0.38051748       -2.37792680       -1.48101571
 C            1.81228412        0.58640592       -2.63481276
 C            0.74441496       -0.38066475       -2.83095763
 C            2.14452175        2.26163074       -0.87934376
 C            1.50049417        1.82910047       -2.11330068
 C            1.22347465        3.15200059       -0.19503625
 C            1.63223389        1.96422686        1.89722880
 C            0.97138284        0.92804080        2.67281607
 C            0.85552611        2.85936195        1.17755585
 C           -0.78921764       -0.67290574        2.34620148
 C           -0.37623551        0.66143927        2.43646462
 C           -2.14155464       -0.96852722        2.22826438
 C           -1.49888678       -2.75851535        0.61097798
 C           -2.52828713       -2.09292805        1.39424611
 C           -0.97801329       -2.30850236       -1.76805113
 C           -1.92885432       -2.75330183       -0.77019327
 C           -0.58618519       -0.02888188       -2.58729886
 C           -1.48497284       -1.07132575       -2.34685595
 C            0.10871160        2.23016246       -2.04334404
 C            0.00383142        3.21605456       -0.98328118
 C           -0.90207989        1.27657894       -2.17826030
 C           -0.59389866        2.74110634        1.22864341
 C           -1.18599090        1.67715708        1.91426320
 C           -1.12026169        3.12719412       -0.07477303
 C           -3.07357356        0.11016902        1.97253979
 C           -2.54189256        1.43256446        1.70296260
 C           -3.56404379       -1.63713264        0.48038471
 C           -3.10818080       -1.91040093       -0.87050242
 C           -2.78784455       -0.80498409       -1.76383919
 C           -3.90921294       -0.27680364        0.84443406
 C           -2.16127742        1.56243819       -1.63918587
 C           -2.27199336        2.50159223       -0.52663630
 C           -3.14096290        1.89716531        0.46383543
 C           -3.12401804        0.49669305       -1.41703842
 C           -3.80567709        0.76756844       -0.15865309




