%chk=000387.chk
%mem=8GB
%Nproc=32
#p B3LYP/6-31G* opt pop=NPA

Template file

0 1
 C            3.96507767       -0.58572578        0.47636636
 C            3.59816519       -1.14945951       -0.81045136
 C            2.80296324       -2.33182210       -0.54634735
 C            3.11592392       -1.20366052        1.48446591
 C            2.40388434       -2.29723627        0.85207066
 C            2.33869787       -0.15306762        2.10786758
 C            3.88103366        0.84876394        0.65616470
 C            2.96480660        1.10117678        1.76040483
 C            3.45149497        1.66720751       -0.46333159
 C            2.86345658       -0.33606158       -1.77066675
 C            2.79945363        1.04077111       -1.60602688
 C            1.75163878       -2.39059713       -1.54808393
 C            1.65927193       -1.06345941       -2.13934701
 C            0.57334240       -3.02601085       -1.19152060
 C            1.05437327       -2.48520270        1.13603430
 C            0.33863841       -3.25617186        0.22351359
 C            0.95284837       -0.24908058        2.06854456
 C            0.37255261       -1.50406981        1.87492200
 C            0.16203989        0.90992961        1.98521495
 C            2.11438742        2.20755583        1.38291241
 C            2.53486073        2.65605249        0.06570259
 C            0.74590192        2.14113906        1.62702742
 C            1.53330840        1.72345598       -1.82127719
 C            1.49980689        2.87336963       -0.92890923
 C            0.42317577       -0.40998022       -2.16236387
 C            0.36207235        0.98616588       -2.02522318
 C           -0.67642141       -2.51017866       -1.71276395
 C           -0.74838032       -1.17573865       -2.11106915
 C           -1.08815617       -3.43043982        0.39870376
 C           -1.71978706       -3.04706914       -0.85612401
 C           -0.98419359       -1.65470825        2.14031877
 C           -1.73623214       -2.69640290        1.46195219
 C           -1.23836901        0.79334650        2.06434128
 C           -1.82132606       -0.46915458        2.19527847
 C           -2.05472977        1.86726642        1.70387080
 C           -0.02762155        3.07124025        0.94373910
 C            0.26364466        3.28969894       -0.46497744
 C           -1.46422956        3.02890308        1.08115231
 C           -0.87280078        1.61987986       -1.84552108
 C           -0.91873742        2.84169841       -1.16895689
 C           -2.01720544        3.12058772       -0.26118591
 C           -1.98989327       -0.54419025       -2.12490219
 C           -2.04894020        0.90333013       -2.05805964
 C           -2.86129631       -2.21028235       -0.54320415
 C           -2.93146318       -2.09019960        0.90583991
 C           -3.06688715       -0.76816139        1.49269210
 C           -3.08271811       -1.07622978       -1.31383385
 C           -3.28937019        1.60612635        0.98408607
 C           -3.19143868        2.27693793       -0.30497471
 C           -3.26017574        1.25834652       -1.33107888
 C           -3.67220915        0.22949056        0.73973699
 C           -3.76423919        0.05192082       -0.70272284




