%chk=000159.chk
%mem=8GB
%Nproc=32
#p B3LYP/6-31G* opt pop=NPA

Template file

0 1
 C            4.03826904       -0.33371341        1.17514384
 C            4.11701474       -0.19379427       -0.26912778
 C            3.59206071       -1.40946406       -0.85824396
 C            3.24520885       -1.51779384        1.46291449
 C            3.07652064       -2.23845505        0.22290164
 C            2.05469913       -1.09664406        2.18506566
 C            3.31373655        0.81164950        1.69271366
 C            2.22570062        0.31259824        2.50694570
 C            3.50887072        1.07255719       -0.63344986
 C            2.98877036        1.68894282        0.58193475
 C            2.76111368        1.15085728       -1.80183951
 C            2.55638000       -1.30864288       -1.87690843
 C            2.22177532       -0.06795406       -2.40123139
 C            1.74052950       -2.65001977       -0.14319290
 C            1.49316924       -2.22435936       -1.50856572
 C            0.79243393       -1.56154522        1.78774917
 C            0.69554481       -2.52445349        0.76908399
 C           -0.34625752       -0.83858401        2.18066870
 C            1.09298967        1.09698013        2.61409086
 C           -0.18837320        0.43602214        2.72260674
 C            1.73798537        2.31242704        0.56297790
 C            0.90649708        2.20230118        1.67868885
 C            1.73270052        2.16701679       -1.88741768
 C            1.19527181        2.71667964       -0.65452114
 C            0.83785654        0.18822314       -2.76548093
 C            0.62411482        1.61212877       -2.64533419
 C            0.17169079       -1.95409764       -1.85630331
 C           -0.16802247       -0.67555231       -2.33103010
 C           -0.56143125       -2.85568880        0.27854487
 C           -0.78382987       -2.67421229       -1.14902141
 C           -1.62177305       -1.24597226        1.77479419
 C           -1.74305512       -2.36001239        0.94862780
 C           -2.71039549       -0.38064422        1.94978659
 C           -1.17898159        1.44936230        2.43399050
 C           -0.53174412        2.41144749        1.54487289
 C           -2.47016642        1.03931506        2.15913545
 C           -0.24805563        2.79804083       -0.81552839
 C           -0.59861698        2.06205887       -2.02188626
 C           -1.08810458        2.68986427        0.29223108
 C           -1.47360809       -0.17814157       -2.14903405
 C           -1.68482921        1.20099143       -1.95866211
 C           -2.18178043       -2.36723655       -1.34228470
 C           -2.81292840       -2.42877199       -0.03497663
 C           -2.51298574       -1.08267433       -1.91275250
 C           -3.88085764       -0.49174265        1.09048413
 C           -3.85302289       -1.42363021       -0.01619466
 C           -3.72587971       -0.64515222       -1.24293617
 C           -3.19242173        1.74820811        1.12620064
 C           -2.42342181        2.35649265        0.05753962
 C           -2.74158806        1.63181921       -1.16294141
 C           -4.14172541        0.82287546        0.53133237
 C           -3.85704805        0.75009334       -0.89216089




