%chk=000127.chk
%mem=8GB
%Nproc=32
#p B3LYP/6-31G* opt pop=NPA

Template file

0 1
 C            3.65845789        1.93758682       -0.57763610
 C            4.07746071        0.96833354        0.41793280
 C            4.31034157       -0.28190366       -0.28083511
 C            3.27328577        1.20176290       -1.77185780
 C            3.69533961       -0.16863297       -1.59681854
 C            1.86818174        1.46818460       -2.01841795
 C            2.46944644        2.59995247       -0.07600547
 C            1.44853866        2.50958231       -1.10185681
 C            3.11961985        1.00971449        1.51683665
 C            2.14957299        2.05264348        1.22913249
 C            2.68918059       -0.17072494        2.10909459
 C            3.84102410       -1.51495767        0.32070767
 C            3.14499689       -1.45482428        1.59421529
 C            2.70188291       -1.21807555       -1.70723403
 C            2.95230103       -2.15967417       -0.63358995
 C            0.98033278        0.41821294       -2.25488312
 C            1.37563326       -0.90831207       -2.00696022
 C           -0.38703793        0.72030245       -2.23215101
 C            0.12564244        2.48220507       -0.68686492
 C           -0.80119010        1.85328121       -1.51749393
 C            0.80119010        1.85328121        1.51749393
 C           -0.12564244        2.48220507        0.68686492
 C            1.29019243       -0.31213405        2.48101655
 C            0.38703793        0.72030245        2.23215101
 C            1.98572394       -2.32249983        1.49527368
 C            1.81083693       -2.67882609        0.10024441
 C            0.87721596       -1.66721504        2.16801118
 C            0.40120540       -1.84054213       -1.65349710
 C            0.53980842       -2.52343981       -0.44070394
 C           -1.29019243       -0.31213405       -2.48101655
 C           -0.87721596       -1.66721504       -2.16801118
 C           -2.68918059       -0.17072494       -2.10909459
 C           -2.14957299        2.05264348       -1.22913249
 C           -3.11961985        1.00971449       -1.51683665
 C           -1.44853866        2.50958231        1.10185681
 C           -2.46944644        2.59995247        0.07600547
 C           -0.98033278        0.41821294        2.25488312
 C           -1.86818174        1.46818460        2.01841795
 C           -0.40120540       -1.84054213        1.65349710
 C           -0.53980842       -2.52343981        0.44070394
 C           -1.37563326       -0.90831207        2.00696022
 C           -1.98572394       -2.32249983       -1.49527368
 C           -3.14499689       -1.45482428       -1.59421529
 C           -1.81083693       -2.67882609       -0.10024441
 C           -2.70188291       -1.21807555        1.70723403
 C           -3.84102410       -1.51495767       -0.32070767
 C           -2.95230103       -2.15967417        0.63358995
 C           -4.07746071        0.96833354       -0.41793280
 C           -3.65845789        1.93758682        0.57763610
 C           -3.27328577        1.20176290        1.77185780
 C           -4.31034157       -0.28190366        0.28083511
 C           -3.69533961       -0.16863297        1.59681854




