%chk=000039.chk
%mem=8GB
%Nproc=32
#p B3LYP/6-31G* opt pop=NPA

Template file

0 1
 C            4.44451453        0.26103312       -0.30021705
 C            4.10922432        0.92756716        0.94401449
 C            3.39302486       -0.02173204        1.77892589
 C            3.95848675       -1.10477546       -0.21335952
 C            3.18381356       -1.23138909        1.01154926
 C            3.30518184       -1.39703675       -1.47004553
 C            3.69888154        0.90986132       -1.36695080
 C            3.11285083       -0.13549730       -2.17415009
 C            3.18225527        2.00107744        0.63356704
 C            2.81651306        1.89025232       -0.76231682
 C            2.22473330        0.65791940        2.29681037
 C            2.11114189        1.93852236        1.60723313
 C            1.05553291       -0.07125068        2.49243530
 C            1.89338971       -1.76178876        0.95491822
 C            0.93964338       -1.33607685        1.89686803
 C            2.01773161       -2.05741438       -1.42912803
 C            1.47796667       -2.43640672       -0.20550559
 C            1.70393057       -0.04357233       -2.50973495
 C            1.14540388       -1.36772886       -2.36120762
 C            1.45664789        1.88804343       -1.06939331
 C            0.94476946        1.02777297       -2.05623431
 C            0.83581183        2.34144548        1.21861207
 C            0.57293472        2.46935379       -0.15299433
 C           -0.09907774        0.67334507        2.71859092
 C           -0.20482214        1.96347150        2.06117551
 C           -1.40228110        0.03597784        2.67236958
 C           -0.26638936       -2.02799196        1.99739052
 C           -1.48383879       -1.30985426        2.34768074
 C            0.19269179       -2.95985801       -0.25284036
 C           -0.60142428       -2.97495251        0.95612058
 C           -0.22650246       -1.48180093       -2.16142061
 C           -0.67013069       -2.51918314       -1.33978630
 C           -0.43950404        0.93488781       -2.19786466
 C           -1.02718773       -0.34180163       -2.29433691
 C           -0.72776550        2.72358392       -0.57937029
 C           -1.19068206        2.02033857       -1.75681801
 C           -1.57940837        2.14475796        1.63590585
 C           -2.33943894        0.98358439        2.08800657
 C           -1.81669535        2.69005872        0.38210080
 C           -3.41971611        0.52031476        1.34276045
 C           -2.55949037       -1.78555890        1.48790792
 C           -1.99060899       -2.76885431        0.58050356
 C           -2.03972750       -2.52184218       -0.85378196
 C           -3.50616161       -0.89114770        0.99563448
 C           -2.41008016       -0.49602441       -2.17249499
 C           -2.92748118       -1.57012683       -1.33831956
 C           -3.87157138       -0.97448499       -0.40913647
 C           -2.63448109        1.93290076       -1.68287904
 C           -3.02674034        2.33188429       -0.33850493
 C           -3.88257024        1.29158828        0.20007270
 C           -3.25999475        0.66357327       -1.97189285
 C           -4.17330389        0.36503502       -0.88046910




