%chk=000165.chk
%mem=8GB
%Nproc=32
#p B3LYP/6-31G* opt pop=NPA

Template file

0 1
 C           -4.12655036       -0.79644678        0.12623155
 C           -3.97508211        0.47112554       -0.56451354
 C           -3.63666496        1.46723958        0.43264539
 C           -3.55177293       -0.64505129        1.45372323
 C           -3.31501193        0.76287969        1.66783277
 C           -2.43084217       -1.56200187        1.55221466
 C           -3.32766684       -1.78191223       -0.57741600
 C           -2.50862756       -2.45690201        0.40929019
 C           -3.07326222        0.26884098       -1.68690245
 C           -2.64739207       -1.12220597       -1.68014320
 C           -2.14841903        1.25265572       -2.00050638
 C           -2.54512930        2.38715015        0.15911392
 C           -1.94612413        2.38274275       -1.09770437
 C           -1.99165174        1.18937384        2.07254464
 C           -1.70429578        2.40904257        1.34433973
 C           -1.17378771       -1.10364111        1.96091483
 C           -0.96583860        0.25852997        2.24677732
 C           -0.07179902       -1.94414615        1.76326594
 C           -1.33039808       -3.02894026       -0.03645713
 C           -0.17126124       -2.97856163        0.83206317
 C           -1.30891854       -1.45302302       -1.91340400
 C           -0.84427965       -2.64190660       -1.35212581
 C           -0.84443861        0.85257347       -2.49044069
 C           -0.39276386       -0.45070990       -2.27715890
 C           -0.55677876        2.79725154       -1.22406416
 C            0.05311058        1.96742671       -2.25307934
 C           -0.37920820        2.80295788        1.23193544
 C            0.16889263        3.11851182       -0.08038782
 C            0.33794522        0.74289053        2.37538749
 C            0.63206526        2.03795220        1.94110249
 C            1.18904659       -1.53627675        2.19538280
 C            1.37575019       -0.15517993        2.59118567
 C            2.37816122       -1.94990531        1.45824892
 C            0.96560816       -3.27828542       -0.01841337
 C            0.57022466       -2.94380500       -1.38005429
 C            2.22877412       -2.62029411        0.25114531
 C            0.98975878       -0.70122436       -2.27894036
 C            1.48463849       -1.93357404       -1.85798704
 C            2.64923867       -1.97608111       -0.98748195
 C            1.41681918        1.72346361       -2.21790671
 C            1.88438020        0.36252610       -2.40820846
 C            1.59797507        2.84167850       -0.03691498
 C            1.90156200        2.31237505        1.28861372
 C            2.22421152        2.31118781       -1.16047804
 C            2.73854139        0.22821843        2.25415556
 C            3.35981534       -0.88588287        1.55712555
 C            2.96000920        1.42930661        1.46845584
 C            3.49995071       -0.87615694       -0.94580781
 C            3.19729137        0.26941108       -1.78682921
 C            3.40102518        1.47517748       -0.99756265
 C            3.96167488       -0.37287650        0.33919166
 C            3.80149479        1.07250156        0.33800086




