%chk=000411.chk
%mem=8GB
%Nproc=32
#p B3LYP/6-31G* opt pop=NPA

Template file

0 1
 C            3.85446713       -0.00000000       -0.31367586
 C            3.50176501        1.24243399        0.33873377
 C            2.88772602        2.09295533       -0.66338952
 C            3.22876331       -0.00000000       -1.63129535
 C            2.50521613        1.24316357       -1.77666051
 C            2.50521613       -1.24316357       -1.77666051
 C            3.50176501       -1.24243399        0.33873377
 C            2.88772602       -2.09295533       -0.66338952
 C            2.60844197       -1.21446737        1.48515737
 C            2.60844197        1.21446737        1.48515737
 C            2.15668161       -0.00000000        2.00854681
 C            1.84937752        2.86799948       -0.01096127
 C            1.66877714        2.31654607        1.32934533
 C            0.72567242        3.19125060       -0.75450920
 C            1.16685357        1.22196237       -2.16179408
 C            0.40507879        2.36530556       -1.91155872
 C            1.16685357       -1.22196237       -2.16179408
 C            0.52336804        0.00000000       -2.41664852
 C            0.40507879       -2.36530556       -1.91155872
 C            1.84937752       -2.86799948       -0.01096127
 C            1.66877714       -2.31654607        1.32934533
 C            0.72567242       -3.19125060       -0.75450920
 C            0.38758816       -2.19753153        1.87255575
 C            1.00266625       -0.00000000        2.78596597
 C            0.14382882       -1.17490992        2.78639817
 C            0.38758816        2.19753153        1.87255575
 C            0.14382882        1.17490992        2.78639817
 C           -0.51050847        3.44567634       -0.04626324
 C           -0.68766457        2.85517578        1.26753846
 C           -1.03994849        2.32787415       -2.04691827
 C           -1.60812025        3.00309497       -0.88947770
 C           -0.82561058        0.00000000       -2.77857100
 C           -1.64505586        1.17372722       -2.52002224
 C           -1.03994849       -2.32787415       -2.04691827
 C           -1.64505586       -1.17372722       -2.52002224
 C           -0.51050847       -3.44567634       -0.04626324
 C           -0.68766457       -2.85517578        1.26753846
 C           -1.60812025       -3.00309497       -0.88947770
 C           -2.02214401       -2.26879998        1.30395606
 C           -2.56106157       -2.29610232       -0.04826879
 C           -1.21852889       -0.72695908        3.01943298
 C           -1.21852889        0.72695908        3.01943298
 C           -2.26896154       -1.17793658        2.12723968
 C           -2.02214401        2.26879998        1.30395606
 C           -2.56106157        2.29610232       -0.04826879
 C           -2.26896154        1.17793658        2.12723968
 C           -2.93485914        0.00000000        1.59013805
 C           -2.88309229        0.72571991       -1.90218957
 C           -2.88309229       -0.72571991       -1.90218957
 C           -3.21051540       -1.17773517       -0.55893639
 C           -3.21051540        1.17773517       -0.55893639
 C           -3.39492504        0.00000000        0.27672374




