%chk=000086.chk
%mem=8GB
%Nproc=16
#p B3LYP/6-31G* opt pop=NPA

Template file

0 1
 C                  3.98826600   -1.02430000   -1.20687100
 C                  4.42611000   -0.05895900   -0.22580200
 C                  3.74290000    1.15395600   -0.56510000
 C                  3.02162200   -0.37882800   -2.09647500
 C                  2.89934100    1.00739100   -1.78119400
 C                  1.83285100   -1.15412300   -2.21352400
 C                  3.22515200   -2.05444100   -0.54391200
 C                  1.96018900   -2.25791400   -1.23398500
 C                  3.81963200   -0.44776800    1.03413400
 C                  3.16882300   -1.74385700    0.89161400
 C                  3.12623900    1.70855200    0.60332000
 C                  3.05932800    0.61236900    1.60805400
 C                  2.02493600    2.51721400    0.42155600
 C                  1.63490800    1.65351700   -1.88420800
 C                  1.39850900    2.68729100   -0.90823600
 C                  0.57765800   -0.54091600   -2.43486300
 C                  0.46964800    0.91956300   -2.37755800
 C                 -0.60252900   -1.37403600   -2.18556000
 C                  0.80108500   -2.67358200   -0.52220600
 C                 -0.50013900   -2.43454900   -1.15507500
 C                  1.98059400   -1.97596400    1.58404400
 C                  0.87371300   -2.66874900    0.93241300
 C                  1.84051200    0.37860800    2.34469700
 C                  1.39598100   -0.97972000    2.44260100
 C                  0.95794500    2.55385800    1.44449200
 C                  0.79288400    1.42125600    2.34424600
 C                  0.06595900    3.09744800   -0.64966300
 C                 -0.18427400    3.12106000    0.81871300
 C                 -0.90692424    1.51299174   -2.46003861
 C                 -1.05259000    2.59812500   -1.28561500
 C                 -1.87005000   -0.79779500   -2.43369200
 C                 -1.98879800    0.64423300   -2.38414700
 C                 -3.07888100   -1.33978800   -1.85000600
 C                 -1.67010300   -2.71279700   -0.36310900
 C                 -2.95159200   -2.20060000   -0.75797900
 C                 -0.31252800   -2.41273600    1.68739800
 C                 -0.00958500   -1.30035300    2.59740400
 C                 -1.56256100   -2.52544600    1.08779900
 C                 -0.57309600    1.05844100    2.62039900
 C                 -0.95392100   -0.34123800    2.75822900
 C                 -1.50274700    2.70531300    1.04813400
 C                 -2.14364800    2.55944700   -0.27975600
 C                 -1.71913700    1.71650800    2.01712400
 C                 -3.24705200    0.91874800   -1.67709000
 C                 -3.90450400   -0.24599000   -1.41089800
 C                 -3.20070300    1.71268500   -0.44427300
 C                 -3.61196100   -1.57871800    0.44779900
 C                 -2.67427100   -1.68454300    1.52132900
 C                 -2.32927400   -0.52156300    2.27741500
 C                 -2.80402200    0.74789200    1.81420800
 C                 -4.12132900   -0.36511400    0.05454000
 C                 -3.64472900    0.83127900    0.67437400

