%chk=000187.chk
%mem=8GB
%Nproc=32
#p B3LYP/6-31G* opt pop=NPA

Template file

0 1
 C            3.79067648       -0.46297713        1.50049335
 C            3.73224190        0.88499993        0.96488660
 C            3.97503361        0.78892660       -0.45886961
 C            3.69934786       -1.38182910        0.37756974
 C            3.81356089       -0.60749062       -0.83888838
 C            2.51051895       -2.18669652        0.56739267
 C            2.61335188       -0.66240176        2.32837302
 C            1.93097475       -1.84756315        1.85714817
 C            2.49642126        1.49758888        1.43143133
 C            1.86273543        0.57234465        2.35386638
 C            1.68514477        2.21381329        0.54823358
 C            3.14938785        1.57759749       -1.34654175
 C            2.07363011        2.37810839       -0.78814466
 C            2.73356088       -0.67539454       -1.80926814
 C            2.53416775        0.67070708       -2.30522400
 C            1.63629033       -2.39321141       -0.49496819
 C            1.61112248       -1.46052778       -1.54621474
 C            0.46153180       -3.06424429       -0.17753149
 C            0.54346168       -1.90341183        1.96799923
 C           -0.11516534       -2.80636562        1.13283270
 C            0.47855438        0.49323001        2.34150775
 C           -0.14505235       -0.76172879        2.40068479
 C            0.33952206        2.40834966        0.88206700
 C           -0.23773864        1.58784949        1.86377409
 C           -0.47381070        3.05380353       -0.05057549
 C            1.04919721        2.40137674       -1.81521090
 C            1.17482993        1.13812220       -2.52157569
 C           -0.21772505        2.82264575       -1.45696549
 C            0.38926290       -1.11052372       -2.13830257
 C            0.11982898        0.23034207       -2.45011263
 C           -0.61791822       -3.08474355       -1.14110077
 C           -0.64746485       -2.03734437       -2.13724400
 C           -1.55980712       -2.74138300        0.98339822
 C           -1.87120184       -3.03702097       -0.40596646
 C           -1.53538288       -0.81143769        2.49116866
 C           -2.26571642       -1.74968447        1.65453058
 C           -1.59960489        1.65864162        2.14612904
 C           -2.28618019        0.43396540        2.51078782
 C           -1.91583384        3.05110942        0.11000485
 C           -2.48276288        2.40125098        1.26930452
 C           -1.35811347        2.06607142       -1.93981424
 C           -1.18012539        0.73457739       -2.31392141
 C           -2.47501616        2.41760296       -1.07668400
 C           -2.01567983       -1.56744675       -2.22947673
 C           -2.76903792       -2.16034902       -1.13251017
 C           -2.25912792       -0.13961595       -2.21472818
 C           -3.31432771       -1.00557402        0.96738929
 C           -3.42878009        0.28563510        1.62074666
 C           -3.51217778        1.48458265        0.80577842
 C           -3.38546288        1.37378650       -0.63885340
 C           -3.43384534       -1.08486972       -0.41828727
 C           -3.30129645        0.11680659       -1.23051811




