%chk=000198.chk
%mem=8GB
%Nproc=32
#p B3LYP/6-31G* opt pop=NPA

Template file

0 1
 C            3.36542977        2.29319491       -0.12689100
 C            3.67445016        1.31617296        0.90016968
 C            4.21351626        0.15922565        0.22000065
 C            3.25551034        1.57368778       -1.38545586
 C            3.83013519        0.26423578       -1.18444880
 C            1.87556794        1.66717462       -1.82203025
 C            2.05700518        2.84083160        0.17363480
 C            1.22077395        2.66187588       -0.99605462
 C            2.48810197        1.15601295        1.73197706
 C            1.59015855        2.25214386        1.41345597
 C            1.95336420       -0.11753326        1.95282147
 C            3.80205665       -1.14935859        0.67865742
 C            2.71994021       -1.24731944        1.64527728
 C            3.02851702       -0.90295965       -1.49793793
 C            3.37099977       -1.89066785       -0.49361278
 C            1.15555317        0.51833941       -2.14834221
 C            1.68772310       -0.75735751       -1.87372200
 C           -0.22466396        0.65725043       -2.31274280
 C           -0.14115907        2.50834431       -0.78273557
 C           -0.86405715        1.74695187       -1.69741696
 C            0.22616757        2.03808505        1.53174495
 C           -0.60112838        2.55140950        0.53336148
 C            0.57572110       -0.24485958        2.20966399
 C           -0.21153676        0.91908520        2.23338017
 C           -0.03966919       -1.51058175        2.14772526
 C            2.04764051       -2.48900111        1.33996799
 C            2.34028937       -2.80439199       -0.05200726
 C            0.61358503       -2.54562889        1.49943080
 C            0.82800316       -1.86028190       -1.74649027
 C            1.07208948       -2.80502861       -0.75317225
 C            0.04712548       -3.02380889        0.24936170
 C           -0.94911516       -0.47314664       -2.67212056
 C           -0.47974914       -1.75667033       -2.20259318
 C           -2.39585348       -0.48317206       -2.57044136
 C           -2.25517430        1.81219526       -1.62247461
 C           -3.06406196        0.70159877       -2.08373931
 C           -1.97437930        2.53494984        0.74998646
 C           -2.84919992        2.29808994       -0.38750279
 C           -1.56826272        0.84241910        2.54056838
 C           -2.48018460        1.75683880        1.86815328
 C           -1.42444176       -1.59427362        2.14521066
 C           -2.20215744       -0.45548669        2.57073291
 C           -1.26544173       -2.66960492       -0.05937742
 C           -1.54531378       -2.31639310       -1.38074629
 C           -2.76353731       -1.59345495       -1.70257225
 C           -2.06859867       -2.17619399        0.97500219
 C           -3.92989654        0.30272714       -0.98519713
 C           -3.87492636        1.35070818        0.01965984
 C           -3.62861062        0.99384401        1.40426783
 C           -3.39875493       -0.39726047        1.74569700
 C           -3.57955633       -1.06445576       -0.62770922
 C           -3.25999454       -1.38850124        0.68762546




