%chk=000324.chk
%mem=8GB
%Nproc=32
#p B3LYP/6-31G* opt pop=NPA

Template file

0 1
 C            3.86263404       -0.47102239       -0.51096381
 C            3.60959901       -1.07974387        0.78239876
 C            2.83608833       -2.28715568        0.55643408
 C            3.19262302       -1.27763238       -1.52186535
 C            2.41741704       -2.28873234       -0.83400927
 C            2.51007539       -0.38356619       -2.42607523
 C            3.48198686        0.91466449       -0.72625047
 C            2.77647926        0.97946414       -1.99139252
 C            3.02097481        1.67945398        0.34101890
 C            2.92742499       -0.30520710        1.80227041
 C            2.82616291        1.07157853        1.65571941
 C            1.80414197       -2.35939323        1.57742132
 C            1.75402339       -1.05879234        2.22916861
 C            0.60810174       -2.96874543        1.23749318
 C            1.05829683       -2.44869113       -1.10408011
 C            0.33823544       -3.19413447       -0.17464025
 C            1.07458797       -0.51931456       -2.58758222
 C            0.37483137       -1.49944886       -1.89017062
 C            1.52547219        1.71257743       -2.06509733
 C            0.52436241        0.81871136       -2.63197690
 C            1.93904112        2.63235908        0.12976035
 C            1.15399717        2.56714437       -1.02708914
 C            1.70788867        1.74495461        2.28754759
 C            1.29697142        2.83090733        1.41706429
 C            0.52755486       -0.40123998        2.39138065
 C            0.52246145        0.97025509        2.61478797
 C           -0.61710821       -2.42041592        1.77648057
 C           -0.66643563       -1.05352175        2.06255234
 C           -1.09757634       -3.30520699       -0.31525137
 C           -1.66982783       -3.03529682        0.99670094
 C           -1.01343554       -1.35682527       -1.77026523
 C           -1.75568428       -2.41209046       -1.23816690
 C           -0.80600671        1.01452808       -2.28278281
 C           -1.60727560       -0.09621994       -1.97482390
 C           -0.17652078        2.98829113       -0.98054749
 C           -1.14925093        2.27215028       -1.78834354
 C           -0.14647886        2.90630460        1.46284744
 C           -0.63042463        1.74943534        2.21168877
 C           -0.81158677        3.26708851        0.30351690
 C           -1.82545462       -0.30686113        1.76985412
 C           -1.78545058        1.09789354        1.78356714
 C           -2.88916798       -2.29518328        0.78437374
 C           -3.05613064       -2.15922850       -0.65523450
 C           -2.98481745       -0.95749215        1.32769130
 C           -2.96079198        0.10304407       -1.67736721
 C           -3.67507483       -0.87600276       -0.88501603
 C           -3.87986197       -0.26849690        0.42191956
 C           -2.44804037        2.48825780       -1.18680159
 C           -2.21015994        2.90172081        0.18645015
 C           -2.70658501        1.83464846        1.03221454
 C           -3.38303817        1.38407351       -1.14753439
 C           -3.71924799        1.15615530        0.25100515




