%chk=000319.chk
%mem=8GB
%Nproc=32
#p B3LYP/6-31G* opt pop=NPA

Template file

0 1
 C            3.90799407       -0.72533805        0.28337713
 C            3.90799407        0.72533805        0.28337713
 C            3.51547031        1.15787774       -1.04949708
 C            3.51547031       -1.15787774       -1.04949708
 C            2.96974291       -0.00000000       -1.73294622
 C            2.68088206       -2.32821779       -0.89876718
 C            3.07178636       -1.43787906        1.23391607
 C            2.47451820       -2.55149975        0.52511386
 C            2.30089681       -0.72955476        2.14947845
 C            3.07178636        1.43787906        1.23391607
 C            2.30089681        0.72955476        2.14947845
 C            2.68088206        2.32821779       -0.89876718
 C            2.47451820        2.55149975        0.52511386
 C            1.37515654        2.33072591       -1.52467661
 C            1.62688406       -0.00000000       -2.12971329
 C            0.93955962        1.22366187       -2.24458218
 C            1.37515654       -2.33072591       -1.52467661
 C            0.93955962       -1.22366187       -2.24458218
 C            1.06410807       -2.84398847        0.72205463
 C            0.45220663       -2.95105142       -0.59327079
 C            0.94877313       -1.17670607        2.46280795
 C            0.35335766       -2.21281709        1.73966289
 C            0.94877313        1.17670607        2.46280795
 C            0.16468020        0.00000000        2.81160084
 C            1.06410807        2.84398847        0.72205463
 C            0.45220663        2.95105142       -0.59327079
 C            0.35335766        2.21281709        1.73966289
 C           -0.90906645        2.68348718       -0.72034579
 C           -0.38922467        1.23738821       -2.64888258
 C           -1.34980963        1.99805472       -1.85804602
 C           -0.38922467       -1.23738821       -2.64888258
 C           -1.01734115       -0.00000000       -3.04671790
 C           -0.90906645       -2.68348718       -0.72034579
 C           -1.34980963       -1.99805472       -1.85804602
 C           -1.03535322       -2.28534053        1.69639548
 C           -1.67521755       -2.65781818        0.44327965
 C           -1.20630537        0.00000000        2.58115917
 C           -1.82594956       -1.21260246        2.27628962
 C           -1.03535322        2.28534053        1.69639548
 C           -1.67521755        2.65781818        0.44327965
 C           -1.82594956        1.21260246        2.27628962
 C           -3.00005533        2.06272941        0.43096012
 C           -3.12752827        1.24407762        1.62727829
 C           -2.60400750        1.25342043       -1.84358848
 C           -2.38126802       -0.00000000       -2.54432724
 C           -2.60400750       -1.25342043       -1.84358848
 C           -3.40138938        1.25879722       -0.70614205
 C           -3.00005533       -2.06272941        0.43096012
 C           -3.12752827       -1.24407762        1.62727829
 C           -3.76449321        0.00000000        1.25071801
 C           -3.40138938       -1.25879722       -0.70614205
 C           -3.92611524        0.00000000       -0.19540415




