%chk=000112.chk
%mem=8GB
%Nproc=32
#p B3LYP/6-31G* opt pop=NPA

Template file

0 1
 C            4.36697136       -0.18015948        0.60841736
 C            3.83792198       -1.49178681        0.28850252
 C            3.48587371       -1.49945612       -1.11899256
 C            4.19486037        0.66207956       -0.56461259
 C            3.56960978       -0.13276375       -1.60328221
 C            3.53052335        1.86875743       -0.13014530
 C            3.54706485        0.37721751        1.67364534
 C            3.19445803        1.71678434        1.28243070
 C            2.79821585       -1.79471065        1.25537590
 C            2.47773593       -0.56057589        1.95474594
 C            1.74511672       -2.59968975        0.85862570
 C            2.18320910       -2.01952736       -1.49127192
 C            1.48955490       -2.79079172       -0.56911125
 C            2.25087565        0.24236058       -2.09781638
 C            1.45676139       -0.96636491       -2.18817476
 C            2.30904646        2.28525862       -0.79644052
 C            1.63668269        1.41309281       -1.66300300
 C            1.81434263        2.13810689        1.42334201
 C            1.54236050        2.93372031        0.24494956
 C            1.14412647       -0.12608288        1.99773145
 C            0.83006000        1.23409727        1.84612042
 C            0.45243437       -2.36961233        1.46915814
 C            0.12958369       -1.08417412        1.90825838
 C            0.05026023       -2.89783526       -0.71814034
 C           -0.48650376       -3.06566523        0.62117548
 C            0.07380883       -0.88624731       -2.02593399
 C           -0.60622502       -2.02568519       -1.58669260
 C            0.24701966        1.53126265       -1.77376472
 C           -0.54137273        0.37112440       -1.91407793
 C            0.22351645        3.21500912       -0.02243540
 C           -0.32453676        2.69168615       -1.25625885
 C           -0.50538813        1.61726898        1.66250012
 C           -0.74254054        2.81165132        0.97043189
 C           -1.21233445       -0.69297863        1.89507028
 C           -1.53368406        0.66831665        1.77723572
 C           -1.82944137       -2.80643067        0.80335980
 C           -2.17994283       -1.67826605        1.64959904
 C           -1.99411211       -2.00205646       -1.53267315
 C           -2.62643339       -2.65021519       -0.39481559
 C           -1.94274510        0.44049640       -1.81154662
 C           -2.68299113       -0.74243893       -1.74563281
 C           -1.76058838        2.78010619       -1.10585074
 C           -2.01128106        3.02305067        0.31205214
 C           -2.56864240        1.64489338       -1.47865069
 C           -2.86190147        1.06905878        1.56710567
 C           -3.12531414        2.19736786        0.70053281
 C           -3.66577005        1.64018392       -0.52509881
 C           -3.53416579       -1.30796161        1.28568250
 C           -3.79919124       -1.88535606       -0.02395883
 C           -3.90984907       -0.78300085       -0.95758182
 C           -3.87052335        0.09191232        1.20866914
 C           -4.26651658        0.37496913       -0.16875465




