%chk=000134.chk
%mem=8GB
%Nproc=32
#p B3LYP/6-31G* opt pop=NPA

Template file

0 1
 C            4.25022117        0.43700835        0.40031386
 C            3.79487688       -0.61991620        1.28622809
 C            3.47398593       -1.77562881        0.46970844
 C            3.99723497        0.00993866       -0.96564690
 C            3.58137587       -1.38038604       -0.92562335
 C            3.11806521        0.98888162       -1.58468858
 C            3.43189100        1.60923167        0.65351425
 C            2.86483113        2.04155775       -0.61025979
 C            2.76477525       -0.06974062        2.15181685
 C            2.52410854        1.30663952        1.74899943
 C            1.67849486       -0.86143423        2.49633067
 C            2.18521595       -2.42030934        0.65276182
 C            1.41633714       -2.09602778        1.76201550
 C            2.34883226       -1.76300004       -1.59203654
 C            1.53463753       -2.51076034       -0.64561615
 C            2.08387502        0.55196867       -2.40827854
 C            1.72622525       -0.86228234       -2.44517303
 C            0.85307786        1.32539253       -2.49401050
 C            1.62217514        2.66090834       -0.58183898
 C            0.64808761        2.38551101       -1.62825927
 C            1.21390885        1.78411886        1.68164031
 C            0.89215030        2.69584791        0.67484184
 C            0.39735758       -0.22330756        2.74411788
 C            0.18838862        1.09262923        2.34041925
 C           -0.02274840       -2.25170277        1.67562269
 C           -0.63431985       -1.21357539        2.48670224
 C            0.14085425       -2.42862798       -0.72175818
 C           -0.61124718       -2.56937889        0.45708363
 C            0.28950476       -0.94698432       -2.61392543
 C           -0.23620347        0.40088898       -2.75015488
 C           -0.44343858       -1.86391472       -1.86807754
 C           -1.51871641        0.65351189       -2.26198519
 C           -0.67276115        2.58537684       -1.05659397
 C           -0.49669248        2.94041842        0.34601927
 C           -1.74048262        1.76061413       -1.42069276
 C           -1.12729169        1.54586397        2.24308941
 C           -1.46848669        2.55708355        1.25314842
 C           -1.91884754       -0.78856760        2.15856260
 C           -2.21399367        0.57426417        2.27019237
 C           -1.99822376       -2.50350614        0.39750498
 C           -2.68320876       -1.61337193        1.32620206
 C           -1.82718581       -1.75543563       -1.94473106
 C           -2.38644513       -0.44031345       -2.22374275
 C           -2.62224471       -2.34420382       -0.89422015
 C           -3.87001595       -1.10234769        0.65916983
 C           -3.66333512       -0.34427072       -1.54715185
 C           -3.81763463       -1.53417737       -0.72649064
 C           -2.90634654        1.84873110       -0.65285303
 C           -2.78894958        2.24301847        0.73949599
 C           -3.32768838        1.15812339        1.53909708
 C           -3.90873626        0.80257394       -0.70626333
 C           -4.11524455        0.32306875        0.65547358




