%chk=000416.chk
%mem=8GB
%Nproc=32
#p B3LYP/6-31G* opt pop=NPA

Template file

0 1
 C            3.61751679       -1.01133198        0.23587985
 C            3.56609646       -0.36966887       -1.06383129
 C            3.43970671        1.06084011       -0.84963199
 C            3.42174888        0.01244463        1.25023737
 C            3.33358413        1.29623487        0.58335575
 C            2.33006010       -0.40962558        2.10949090
 C            2.69383967       -2.09695789        0.51051947
 C            1.94860688       -1.75808937        1.71624316
 C            2.02909024       -2.70102274       -0.54782327
 C            2.53357285       -0.77443109       -2.00321290
 C            1.87498974       -1.98052766       -1.80920820
 C            2.39062637        1.55450670       -1.72891681
 C            1.75279421        0.40338752       -2.34897648
 C            1.60104787        2.61002214       -1.29791147
 C            2.40895127        2.22499121        1.04111222
 C            1.74312138        3.07782938        0.07184513
 C            1.33643804        0.49999175        2.46698532
 C            1.41436037        1.82572754        2.03235707
 C            0.11434198        0.00515625        2.91537307
 C            0.61679363       -2.15216555        1.85552242
 C           -0.21554388       -1.39150937        2.67295594
 C            0.77784029       -3.37984409       -0.27393098
 C            0.05585208       -3.04966284        0.94166351
 C            0.48367525       -2.08737727       -2.20397617
 C           -0.11384304       -3.13413361       -1.39406979
 C            0.35855199        0.32330140       -2.39416997
 C           -0.25890074       -0.93648013       -2.46346923
 C            0.18301581        2.60669262       -1.61092831
 C           -0.40218630        1.48850070       -2.20756597
 C            0.41763931        3.38174453        0.58072053
 C            0.18822497        2.56422032        1.75702537
 C           -0.51466437        3.27619701       -0.52072805
 C           -1.09557560        0.78653421        2.70954590
 C           -1.04024087        1.92618763        1.91187890
 C           -1.65719619       -1.48835184        2.52302527
 C           -2.20367532       -0.14170433        2.57072224
 C           -1.35563236       -2.95199180        0.58899566
 C           -1.45036967       -2.92280716       -0.86482013
 C           -2.19913375       -2.15569253        1.35511877
 C           -1.64668182       -1.03948358       -2.41646153
 C           -2.25602411       -1.97197017       -1.47920480
 C           -1.79334548        1.43516866       -2.25931719
 C           -2.45291425        0.15974231       -2.42856167
 C           -1.81548570        2.88930538       -0.23845011
 C           -2.08889373        2.21449012        1.02728727
 C           -2.55025268        2.18627915       -1.27306198
 C           -3.11429871        0.01633972        1.45535277
 C           -3.11947340       -1.23471090        0.70279287
 C           -3.21449240       -1.22094536       -0.68672964
 C           -3.45872095        0.03129291       -1.38239436
 C           -3.14317340        1.23467083        0.78751186
 C           -3.47136856        1.26868612       -0.62616629




