%chk=000196.chk
%mem=8GB
%Nproc=32
#p B3LYP/6-31G* opt pop=NPA

Template file

0 1
 C            4.05645487       -1.16737417        0.15080717
 C            3.93983172        0.08311452        0.87037360
 C            3.98509870        1.12611979       -0.13109887
 C            3.62919887       -0.91431663       -1.21842240
 C            3.60590594        0.51537067       -1.40132281
 C            2.40353528       -1.66123897       -1.42549994
 C            3.09962096       -2.08874370        0.72664953
 C            2.37132447       -2.66979767       -0.38001340
 C            2.76981146       -0.00541463        1.73851828
 C            2.31931093       -1.38351525        1.73330065
 C            1.82495977        1.01444133        1.72159142
 C            3.12628224        2.27220878        0.05648044
 C            2.15220139        2.23801991        1.13177647
 C            2.36756505        1.14089642       -1.82102303
 C            2.35554991        2.42631783       -1.16467168
 C            1.21091018       -0.99984449       -1.76000680
 C            1.17861366        0.40146139       -1.85599329
 C            0.01270074       -1.71223726       -1.62721959
 C            1.14284950       -3.21507100       -0.08108605
 C            0.06522152       -2.96619606       -1.00622746
 C            0.95552621       -1.66957222        1.79288455
 C            0.56674804       -2.87290666        1.20847993
 C            0.48082541        0.71163478        1.96832925
 C            0.02527488       -0.61377091        1.86291424
 C           -0.43909747        1.75932111        2.02768495
 C            1.08059541        3.09348954        0.67782195
 C            1.07454214        2.95867407       -0.77272694
 C           -0.14284628        3.00133901        1.32022528
 C           -0.04795513        1.07858739       -1.75625632
 C           -0.06914741        2.43026627       -1.35185595
 C           -1.21779912       -1.04858494       -1.74911855
 C           -1.24451722        0.35221245       -1.84737258
 C           -2.40458901       -1.76090456       -1.51689437
 C           -1.09373446       -3.46455161       -0.30154078
 C           -0.83802005       -3.18953098        1.10817116
 C           -2.37524873       -2.89344020       -0.61861661
 C           -1.35511388       -0.87735616        1.72433569
 C           -1.79530646       -2.18637464        1.50540676
 C           -2.93050860       -2.41218315        0.63481609
 C           -1.85535879        1.48159220        1.85968331
 C           -2.27164513        0.17891961        1.60082053
 C           -1.31456786        3.31180488        0.52369152
 C           -1.25658509        2.97946538       -0.88866590
 C           -2.42351308        2.57632497        1.08528810
 C           -2.46524371        1.03666417       -1.82620784
 C           -2.50808088        2.35755676       -1.24149502
 C           -3.30415319        2.26449498       -0.02230373
 C           -3.60550224       -1.05262955       -1.13252787
 C           -3.76518849       -1.28539924        0.29879154
 C           -3.49181980       -0.01767966        0.93713838
 C           -3.65352044        0.37438968       -1.33354516
 C           -3.93139675        0.96394644       -0.03426787




