%chk=000168.chk
%mem=8GB
%Nproc=32
#p B3LYP/6-31G* opt pop=NPA

Template file

0 1
 C            4.17616102       -0.28197713        0.21682196
 C            3.81203941        1.07764622        0.57330515
 C            3.39444375        1.75025268       -0.64126575
 C            3.70612986       -0.52415740       -1.13776685
 C            3.31098604        0.74895585       -1.69487389
 C            2.72192174       -1.59300328       -1.08157843
 C            3.44744807       -1.17866244        1.09366854
 C            2.78015950       -2.15754840        0.25861286
 C            2.88572001        1.01842931        1.69176183
 C            2.62711153       -0.38103041        1.99144911
 C            1.83259486        1.91715629        1.74523578
 C            2.14420079        2.49302248       -0.63317400
 C            1.49654605        2.72005533        0.57094400
 C            1.99790132        0.85505647       -2.29073906
 C            1.36092905        2.05455582       -1.77453545
 C            1.47465729       -1.43283324       -1.69854748
 C            1.21183241       -0.27960573       -2.46438216
 C            0.42705282       -2.28750376       -1.31668614
 C            1.63456953       -2.74365530        0.76610754
 C            0.54522696       -3.03065266       -0.14400906
 C            1.32363522       -0.81608433        2.25190753
 C            1.01970859       -2.14046978        1.93889498
 C            0.58162475        1.48473359        2.33566259
 C            0.28785941        0.12308208        2.40510856
 C            0.05527368        2.88598013        0.56485647
 C           -0.42740136        2.40178053        1.84871689
 C           -0.03446344        2.08340841       -1.72161747
 C           -0.67971985        2.60579830       -0.59069465
 C           -0.07557726       -0.04903480       -2.93258314
 C           -0.71957504        1.20301122       -2.56137039
 C           -0.82631020       -2.17786792       -1.91546762
 C           -1.06150648       -1.10115313       -2.84838570
 C           -2.03016589       -2.33611741       -1.10675622
 C           -0.62854687       -3.22899141        0.68767628
 C           -0.35513130       -2.58768959        1.96702465
 C           -1.91433297       -2.74672774        0.21539621
 C           -1.05798547       -0.28159818        2.42998762
 C           -1.39626491       -1.61351861        2.19508995
 C           -2.47844519       -1.92315149        1.27282961
 C           -1.75695207        2.04032968        1.95737661
 C           -2.07322159        0.67649640        2.35337050
 C           -2.06694239        2.50159639       -0.47240849
 C           -2.63983568        2.38676137        0.85959671
 C           -2.13213855        0.93826702       -2.35719616
 C           -2.34236479       -0.49230423       -2.52694654
 C           -2.94626749       -1.25819551       -1.44773499
 C           -2.80717590        1.60513783       -1.34673255
 C           -3.38989419       -0.92438226        0.95679785
 C           -3.32780914        0.31626744        1.70926890
 C           -3.70284575        1.39981703        0.81791946
 C           -3.63003668       -0.58304994       -0.44069438
 C           -3.75482323        0.86336821       -0.52924158




