%chk=000148.chk
%mem=8GB
%Nproc=32
#p B3LYP/6-31G* opt pop=NPA

Template file

0 1
 C            3.71457954       -1.39406673        1.07102840
 C            3.97608610       -0.00702950        0.73828272
 C            3.91226395        0.12026258       -0.70520026
 C            3.29950180       -2.07126041       -0.14807806
 C            3.42882572       -1.14202887       -1.24393707
 C            1.99778499       -2.65182439        0.09799486
 C            2.59293792       -1.42190264        1.99583785
 C            1.61983419       -2.34295312        1.46839018
 C            3.09332732        0.81807283        1.54512968
 C            2.16399242       -0.06444608        2.23630640
 C            2.60106482        1.99715952        1.00359895
 C            3.10129857        1.18620155       -1.26590114
 C            2.69169559        2.22258253       -0.43830906
 C            2.25459253       -0.86231823       -2.04824676
 C            2.13248291        0.58279511       -2.17272433
 C            0.99939991       -2.58764238       -0.87754055
 C            1.09398370       -1.62470418       -1.90180438
 C           -0.25948481       -3.03053405       -0.46842948
 C            0.27366404       -2.11009647        1.70505346
 C           -0.58314241       -2.88450441        0.94017720
 C            0.79860626        0.22587938        2.20230983
 C           -0.14485669       -0.81461110        2.07006023
 C            1.29084910        2.45458367        1.42481195
 C            0.40582407        1.55597313        2.02236034
 C            1.52664640        2.98923266       -0.83299582
 C            0.79467560        3.32052267        0.37501756
 C            0.86064392        1.14475313       -2.31878675
 C            0.58363879        2.39415975       -1.76322064
 C           -0.06217072       -1.12451236       -2.50046718
 C           -0.19716835        0.31438607       -2.67902668
 C           -1.44918657       -2.67165945       -1.21614050
 C           -1.36674179       -1.66032561       -2.15925245
 C           -2.00336113       -2.68296832        1.06004850
 C           -2.56333295       -2.70270984       -0.28309101
 C           -1.51799512       -0.50651477        2.07818248
 C           -2.45907778       -1.47284493        1.70234302
 C           -0.94674367        1.88074252        2.05180283
 C           -1.92281973        0.82150010        2.21577836
 C           -0.61822755        3.26458894        0.06737653
 C           -0.75481605        2.68426924       -1.26510210
 C           -1.47218547        2.81990812        1.06351011
 C           -1.56226748        0.68325195       -2.33193966
 C           -2.31412487       -0.55007702       -2.14050695
 C           -1.79793251        1.79094879       -1.51639628
 C           -3.57226226       -1.66183042       -0.34247459
 C           -3.66034376       -1.07692528        0.98585259
 C           -3.40930090       -0.56805681       -1.28329837
 C           -3.14742512        1.27809947        1.57549803
 C           -2.77582847        2.33938061        0.66077667
 C           -2.91976881        1.81614518       -0.68490859
 C           -3.94349706        0.33167422        0.82223900
 C           -3.78413815        0.65127366       -0.59198906




