%chk=000033.chk
%mem=8GB
%Nproc=32
#p B3LYP/6-31G* opt pop=NPA

Template file

0 1
 C            4.44168354        0.31652485        0.07770975
 C            4.17578334       -0.89140433       -0.67827937
 C            3.43326869       -1.79092024        0.18513184
 C            3.80448961        0.17554833        1.37842281
 C            3.03952989       -1.05599940        1.36596476
 C            3.11031570        1.41244533        1.64710337
 C            3.77330390        1.41072951       -0.60137657
 C            3.15197956        2.21298065        0.42879096
 C            3.29398063       -0.54296739       -1.78143373
 C            2.92105999        0.84546036       -1.63874813
 C            2.37249863       -2.35624570       -0.61583674
 C            2.23629437       -1.52326947       -1.80450049
 C            1.19061258       -2.72139548        0.01489334
 C            1.68172332       -1.04447644        1.68841875
 C            0.89091645       -2.11254549        1.24816167
 C            1.72223456        1.35482023        2.06925652
 C            1.05284788        0.13740405        2.12188055
 C            1.80409927        2.68022538        0.19472878
 C            1.05653685        2.45938384        1.41812920
 C            1.56609101        1.19100629       -1.66630844
 C            1.17024287        2.35861610       -1.00175650
 C            0.94884285       -1.12574463       -2.15587861
 C            0.59498820        0.22936094       -2.02524453
 C            0.14272970       -2.99944192       -0.85172726
 C           -0.03463015       -2.08909366       -1.96940351
 C           -1.15824663       -3.31864053       -0.31221002
 C           -0.39031932       -2.23374482        1.78598064
 C           -1.40122415       -2.99769033        1.07429022
 C           -0.34116935        0.17211316        2.20378250
 C           -1.02538214       -1.03671382        2.30810668
 C           -0.32659500        2.42850407        1.29807327
 C           -1.02940326        1.34713246        1.85347310
 C           -0.15146444        2.76020293       -1.09982810
 C           -0.83702761        3.02902202        0.15000080
 C           -0.75937949        0.60661617       -2.06177565
 C           -1.06847413        1.95312722       -1.87184937
 C           -1.42867916       -1.71159586       -2.00412075
 C           -2.14362374       -2.61609097       -1.11582474
 C           -1.77376812       -0.36748388       -2.00515582
 C           -2.65340279       -2.26537256        1.14509274
 C           -2.44538628       -1.10711273        2.00333227
 C           -3.13769446       -2.06257390       -0.21510682
 C           -2.42505058        1.32969153        1.75469425
 C           -3.13618060        0.06159044        1.72017068
 C           -2.25435776        2.95965183       -0.12034018
 C           -2.39781940        2.34957636       -1.43696779
 C           -3.08060489        2.21598492        0.80349351
 C           -3.06445050       -0.03674902       -1.57936786
 C           -3.69658303       -0.83422332       -0.53632201
 C           -3.99792858        0.07874749        0.54948374
 C           -3.42693311        1.34365401       -1.33971283
 C           -3.99027471        1.42137545        0.00050911




