%chk=000269.chk
%mem=8GB
%Nproc=32
#p B3LYP/6-31G* opt pop=NPA

Template file

0 1
 C            3.72643587       -0.44404373       -1.22665692
 C            3.68951310        0.65894154       -0.28352139
 C            3.26362514        0.13854633        1.00330143
 C            3.29232361       -1.63918335       -0.52522033
 C            3.16022003       -1.31191355        0.87781614
 C            2.13538239       -2.17115329       -1.21867728
 C            2.75334457       -0.16268432       -2.26854973
 C            1.81405731       -1.25883523       -2.30917540
 C            2.91433780        1.72348977       -0.88334941
 C            2.23273915        1.16620873       -2.04740804
 C            2.20154522        2.56272877       -0.04124239
 C            2.30756857        0.84380482        1.74168088
 C            1.88676912        2.10445908        1.30939770
 C            1.54939250        0.16896983        2.69687246
 C            2.19727257       -1.98141332        1.61591193
 C            1.57947327       -1.28226313        2.72419121
 C            1.08731465       -2.72575480       -0.48033254
 C            1.14753752       -2.72220434        0.91858925
 C           -0.15453938       -2.84301249       -1.10379341
 C            0.47423344       -0.99747956       -2.56688876
 C           -0.40709533       -2.03551422       -2.28369232
 C            0.86555420        1.39031286       -2.20531831
 C            0.00947765        0.33269848       -2.55672093
 C            1.01476474        3.20483443       -0.57174793
 C            0.32908743        2.56570714       -1.67840406
 C            0.54164968        2.56078143        1.63336486
 C            0.05915490        3.34666196        0.51127992
 C            0.17804416        0.58671506        2.95404039
 C           -0.33619231        1.70139048        2.28999751
 C            0.21405578       -1.75791203        2.84834644
 C           -0.07992928       -2.58562000        1.69313615
 C           -0.63433165       -0.61532268        3.11468815
 C           -1.36903843       -2.81300056       -0.30458507
 C           -1.29198986       -2.42231831        1.02780372
 C           -1.83536869       -1.83102692       -2.38855401
 C           -2.43656902       -2.30456049       -1.15067347
 C           -1.35822153        0.59441884       -2.68854696
 C           -2.31837595       -0.49381669       -2.64186513
 C           -1.09599838        2.66129353       -1.41438341
 C           -1.26034042        3.06434246       -0.02346233
 C           -1.94189586        1.70855627       -1.96186771
 C           -1.70511890        1.78176879        2.02200258
 C           -2.16898574        2.39184814        0.78236884
 C           -1.92763924       -0.63012409        2.61736219
 C           -2.27501233       -1.58554536        1.57082713
 C           -2.55336870        0.63426258        2.28835932
 C           -3.30149970       -1.25762860       -0.64459864
 C           -3.30106772       -0.17480033       -1.61802106
 C           -3.05136199        1.18869329       -1.17540547
 C           -3.14094633        1.49344246        0.17897370
 C           -3.27055991       -0.95601111        0.71060667
 C           -3.40942769        0.42826542        1.13174385




