%chk=000290.chk
%mem=8GB
%Nproc=32
#p B3LYP/6-31G* opt pop=NPA

Template file

0 1
 C            3.06973265       -2.36669776        0.76123811
 C            2.04516523       -3.07556626        0.01531038
 C            0.84428657       -3.10040210        0.82740174
 C            2.43156695       -1.74597892        1.91027917
 C            1.06599756       -2.20519613        1.95508228
 C            2.66685086       -0.32242486        1.83381399
 C            3.56611783       -1.29751666       -0.08265792
 C            3.57685136       -0.08992155        0.71634052
 C            1.96330120       -2.49084082       -1.30802699
 C            2.78159695       -1.28713027       -1.30399274
 C            0.72380550       -2.45233977       -1.92246885
 C           -0.39920795       -3.06424682        0.19554225
 C           -0.44034000       -2.95079474       -1.19968017
 C           -1.49093812       -2.64207671        0.95884855
 C            0.05572531       -1.31176331        2.28036161
 C           -1.23119565       -1.79904174        2.11471230
 C            1.60372254        0.56281653        2.04177893
 C            0.28886269        0.07414781        2.15872175
 C            1.81100973        1.90044402        1.71253216
 C            3.47047207        1.11560995        0.04443847
 C            2.86436448        2.21572161        0.76079708
 C            2.24245821       -0.06940010       -1.72600620
 C            2.85927210        1.10022568       -1.28206150
 C            0.31237681       -1.22504131       -2.57653530
 C            0.92736749       -0.02781711       -2.21556703
 C           -1.60276948       -2.37065770       -1.85106470
 C           -1.13012653       -1.28041674       -2.69573257
 C           -2.69972612       -2.14287289        0.32089639
 C           -2.69361308       -1.86619400       -1.04002036
 C           -2.35298148       -0.91305858        2.29251229
 C           -3.31866283       -1.20501020        1.24235418
 C           -0.79761840        0.96840482        2.06804289
 C           -2.10121086        0.50904245        2.28035782
 C            0.67819806        2.75354934        1.40899420
 C           -0.61046131        2.25375130        1.54216391
 C            2.32526758        3.12018080       -0.23448492
 C            2.19054482        2.36933816       -1.47263905
 C            0.99163635        3.48687365        0.19130175
 C            0.16329348        1.15106493       -2.12919639
 C            0.78647559        2.36373470       -1.83207890
 C            0.11361144        3.30371471       -0.94726209
 C           -1.89904630       -0.10129116       -2.36611391
 C           -3.00107248       -0.52270211       -1.51331478
 C           -1.23774598        1.09155803       -2.09008198
 C           -3.80812739        0.06347117        0.73811571
 C           -3.19948017        1.10986288        1.54419957
 C           -3.59288366        0.40368872       -0.65929262
 C           -1.58516509        2.79911621        0.70411832
 C           -1.22485985        3.08932345       -0.67171524
 C           -1.94700047        2.11494805       -1.46448232
 C           -2.91261282        2.22172450        0.66756439
 C           -3.14308538        1.78408686       -0.70334419




