%chk=000018.chk
%mem=8GB
%Nproc=32
#p B3LYP/6-31G* opt pop=NPA

Template file

0 1
 C            4.26198308       -1.14355865       -0.23918280
 C            4.49799367        0.23412987       -0.62866878
 C            4.25392859        1.06480138        0.53680119
 C            3.71669039       -1.14262549        1.10975956
 C            3.70158914        0.22032525        1.58449495
 C            2.46054252       -1.86581775        1.07382650
 C            3.23539258       -1.67644886       -1.11567998
 C            2.25497392       -2.34083052       -0.28047463
 C            3.51111133        0.58495195       -1.63951127
 C            2.76017506       -0.60754481       -1.97359170
 C            3.22983324        2.02786212        0.17978256
 C            2.77558596        1.73903733       -1.16821388
 C            2.42873268        0.79178597        1.98600243
 C            2.23076875        2.01572790        1.23254164
 C            1.34550112       -1.37155618        1.75034655
 C            1.31787220       -0.03024019        2.18016971
 C            0.12705052       -2.00429119        1.49323200
 C            0.94232184       -2.37790624       -0.72793641
 C           -0.05010504       -2.58633786        0.22696392
 C            1.38408744       -0.50230830       -2.15046121
 C            0.61153604       -1.62218876       -1.85717863
 C            1.40495912        1.79319488       -1.39114084
 C            0.77273574        0.75750047       -2.09159875
 C            0.92459864        2.33063538        0.88160148
 C            0.64557211        2.51044941       -0.47553384
 C            0.07622874        0.60224138        2.31298844
 C           -0.09908158        1.85032584        1.69918843
 C           -0.97462518       -1.58436914        2.23099013
 C           -1.02901593       -0.18941827        2.61338023
 C           -2.30973414       -2.00559827        1.85614767
 C           -1.32303594       -2.89877044       -0.24386461
 C           -2.48768503       -2.68021279        0.59107037
 C           -0.70863589       -1.61965894       -2.28328304
 C           -1.65829991       -2.47234217       -1.58817879
 C           -0.61705600        0.83977684       -2.27696374
 C           -1.34713530       -0.33350639       -2.50907772
 C           -0.65200590        2.82751274       -0.83999165
 C           -1.28411487        1.99190692       -1.84735881
 C           -1.37919036        2.35544453        1.48137517
 C           -1.61855315        3.03261743        0.22084600
 C           -2.37497456        0.29334172        2.35077694
 C           -3.16425633       -0.82993328        1.86335228
 C           -2.54754131        1.54202115        1.77343054
 C           -3.46019709       -1.92925105       -0.18981085
 C           -2.93292381       -1.77990266       -1.53348352
 C           -2.73459924       -0.44431865       -2.06617152
 C           -3.81341394       -0.73869080        0.56323458
 C           -2.70373725        1.93202520       -1.53692917
 C           -2.91811506        2.62991755       -0.28039869
 C           -3.47764465        1.68022726        0.66275309
 C           -3.34185449        0.63558121       -1.43944014
 C           -3.86423250        0.49428593       -0.08093139




