%chk=000403.chk
%mem=8GB
%Nproc=32
#p B3LYP/6-31G* opt pop=NPA

Template file

0 1
 C            3.65498885       -1.33887811        0.17125725
 C            3.27656026       -0.92011159        1.50415207
 C            3.26555856        0.53243960        1.52426063
 C            3.70009102       -0.15357746       -0.67328510
 C            3.36178985        0.99526436        0.15057412
 C            2.91909617       -0.42192291       -1.86655254
 C            2.83985963       -2.33017970       -0.49778365
 C            2.47661657       -1.80130885       -1.80368605
 C            1.61845643       -2.80019267        0.13865327
 C            2.01324512       -1.37430028        2.06045314
 C            1.24450225       -2.33920925        1.40354388
 C            2.12872090        0.96230058        2.32133911
 C            1.34442006       -0.21964038        2.64256898
 C            1.46685886        2.11916992        1.94795940
 C            2.42879925        1.92484925       -0.30482814
 C            1.75365423        2.69509443        0.64190702
 C            2.03655247        0.54645647       -2.32246355
 C            1.90947015        1.80300877       -1.59763069
 C            0.70483568        0.16106036       -2.77499326
 C            1.07316788       -2.10363655       -2.02659437
 C            0.61057575       -2.90661028       -0.90457046
 C            0.22548355       -1.13159632       -2.55194893
 C           -0.73552278       -2.85998263       -0.55617360
 C           -0.08807582       -2.47362431        1.78293823
 C           -1.06556140       -2.91132152        0.79994285
 C           -0.04914713       -0.17604629        2.61331346
 C           -0.70761445       -1.39688044        2.53973357
 C            0.02992474        2.18672229        2.12515207
 C           -0.70365277        1.00028926        2.20927319
 C            0.59037902        3.47178882        0.25111441
 C           -0.42929429        3.26346410        1.26832635
 C            0.60053702        2.35381572       -1.92310101
 C           -0.17640200        1.30290482       -2.56968008
 C           -0.01816239        3.22899007       -1.04261512
 C           -1.50836845        1.08703261       -2.21886124
 C           -1.14636675       -1.33371348       -2.43707601
 C           -1.63013570       -2.31828144       -1.48198583
 C           -2.04194444       -0.18877446       -2.37528903
 C           -2.97068813       -1.92220794       -1.08284700
 C           -3.20460484       -0.57969180       -1.59245351
 C           -2.36495503       -2.45672493        1.27052870
 C           -2.12746066       -1.42929144        2.27415838
 C           -3.32443158       -1.93495081        0.32023842
 C           -2.03595185        0.96551295        1.75241071
 C           -3.61837522        0.25918815       -0.48162365
 C           -2.77127782       -0.21532651        1.82751843
 C           -3.63860503       -0.57043113        0.71317666
 C           -1.69803141        3.11902779        0.59541847
 C           -1.45103366        3.13225773       -0.84058327
 C           -2.17864846        2.01161561       -1.41669251
 C           -2.50169670        1.94825896        0.87775208
 C           -3.08813551        1.53790085       -0.38434626




