%chk=000314.chk
%mem=8GB
%Nproc=32
#p B3LYP/6-31G* opt pop=NPA

Template file

0 1
 C            3.85806476       -0.00000000        0.69992531
 C            3.22689368        1.16907930        1.27869398
 C            2.13768689        0.72581879        2.13180260
 C            3.22689368       -1.16907930        1.27869398
 C            2.13768689       -0.72581879        2.13180260
 C            2.90480650       -2.06106244        0.18654064
 C            3.54751974       -0.00000000       -0.72120650
 C            2.86940564       -1.23955307       -1.01848532
 C            2.90480650        2.06106244        0.18654064
 C            2.86940564        1.23955307       -1.01848532
 C            1.86762055        2.95748068        0.38274929
 C            0.92440579        1.40254358        2.05458980
 C            0.89129967        2.65290357        1.42319027
 C           -0.26808923        0.70362053        2.26615569
 C            0.92440579       -1.40254358        2.05458980
 C           -0.26808923       -0.70362053        2.26615569
 C            1.86762055       -2.95748068        0.38274929
 C            0.89129967       -2.65290357        1.42319027
 C            1.11719089       -3.37067087       -0.78579608
 C            1.70470746       -1.22348923       -1.78689762
 C            1.01233523       -2.43006147       -1.88721529
 C            1.70470746        1.22348923       -1.78689762
 C            1.04137544       -0.00000000       -2.03400663
 C            1.11719089        3.37067087       -0.78579608
 C            1.01233523        2.43006147       -1.88721529
 C           -0.38171985        3.22843198        1.01309690
 C           -0.22887650        3.70047658       -0.35377253
 C           -1.46811405        1.41649297        2.23108636
 C           -1.55828356        2.59274271        1.38871672
 C           -2.73149717        0.72167968        2.09945115
 C           -1.46811405       -1.41649297        2.23108636
 C           -2.73149717       -0.72167968        2.09945115
 C           -0.38171985       -3.22843198        1.01309690
 C           -0.22887650       -3.70047658       -0.35377253
 C           -1.55828356       -2.59274271        1.38871672
 C           -0.36243973       -2.43776666       -2.32726753
 C           -1.14010240       -3.21340493       -1.37071496
 C           -0.28436834        0.00000000       -2.52058830
 C           -1.02534224       -1.17320052       -2.51460489
 C           -0.36243973        2.43776666       -2.32726753
 C           -1.14010240        3.21340493       -1.37071496
 C           -1.02534224        1.17320052       -2.51460489
 C           -2.58771752        2.31871372        0.39060189
 C           -3.33303852        1.16262889        0.84972284
 C           -2.27577816        2.40804043       -0.95942863
 C           -2.27601451        1.19883485       -1.77083761
 C           -3.33303852       -1.16262889        0.84972284
 C           -2.58771752       -2.31871372        0.39060189
 C           -2.27577816       -2.40804043       -0.95942863
 C           -2.27601451       -1.19883485       -1.77083761
 C           -3.42946179        0.00000000       -0.01637240
 C           -2.77180750        0.00000000       -1.25050686




