%chk=000346.chk
%mem=8GB
%Nproc=32
#p B3LYP/6-31G* opt pop=NPA

Template file

0 1
 C            3.89798899        0.42101774        0.61590129
 C            3.95975064       -0.68976804       -0.31139349
 C            3.45204172       -0.22194698       -1.59331204
 C            3.50685570        1.60027981       -0.13966940
 C            2.97494569        1.14031588       -1.40779828
 C            2.66058691        2.40134952        0.71610388
 C            3.01169360        0.33870855        1.76573657
 C            2.47230910        1.67260408        1.96119553
 C            2.17032808       -0.76498788        1.93332813
 C            3.25231566       -1.90725734        0.02377973
 C            2.34284744       -1.91224457        1.15921274
 C            2.53387282       -1.22665681       -2.10571768
 C            2.49112966       -2.31326456       -1.14679849
 C            1.34727224       -0.80794277       -2.69102442
 C            1.66301435        1.45268141       -1.77120976
 C            1.01175472        0.60610367       -2.66901272
 C            1.34677965        2.77375380        0.23685734
 C            0.92849127        2.40350686       -1.04137539
 C            1.08061360        1.81386461        2.35269104
 C            0.41581099        2.62136105        1.34336690
 C            0.98963611       -0.61780874        2.65893582
 C            0.42072416        0.70996007        2.86008154
 C           -0.11408555       -1.54394036        2.43826505
 C            1.17748765       -2.68730256        0.76516291
 C            1.19966118       -2.79261906       -0.68615347
 C           -0.04471324       -2.46976737        1.39467399
 C            0.11408555       -1.54394036       -2.43826505
 C            0.04471324       -2.46976737       -1.39467399
 C           -0.42072416        0.70996007       -2.86008154
 C           -0.98963611       -0.61780874       -2.65893582
 C           -0.41581099        2.62136105       -1.34336690
 C           -1.08061360        1.81386461       -2.35269104
 C           -0.92849127        2.40350686        1.04137539
 C           -1.34677965        2.77375380       -0.23685734
 C           -1.01175472        0.60610367        2.66901272
 C           -1.34727224       -0.80794277        2.69102442
 C           -1.66301435        1.45268141        1.77120976
 C           -2.53387282       -1.22665681        2.10571768
 C           -1.19966118       -2.79261906        0.68615347
 C           -1.17748765       -2.68730256       -0.76516291
 C           -2.49112966       -2.31326456        1.14679849
 C           -2.17032808       -0.76498788       -1.93332813
 C           -2.34284744       -1.91224457       -1.15921274
 C           -3.25231566       -1.90725734       -0.02377973
 C           -2.47230910        1.67260408       -1.96119553
 C           -2.66058691        2.40134952       -0.71610388
 C           -3.01169360        0.33870855       -1.76573657
 C           -2.97494569        1.14031588        1.40779828
 C           -3.45204172       -0.22194698        1.59331204
 C           -3.95975064       -0.68976804        0.31139349
 C           -3.50685570        1.60027981        0.13966940
 C           -3.89798899        0.42101774       -0.61590129




