%chk=000036.chk
%mem=8GB
%Nproc=32
#p B3LYP/6-31G* opt pop=NPA

Template file

0 1
 C            4.46196749       -0.42684295       -0.16451552
 C            3.95688801       -1.72262016        0.23634673
 C            3.04023571       -2.16627971       -0.79749770
 C            3.81008201       -0.07011136       -1.41557520
 C            2.76592817       -1.04578879       -1.66674558
 C            3.43767528        1.31637693       -1.30439163
 C            4.01728386        0.53560589        0.82694320
 C            3.61296680        1.70980559        0.09244698
 C            3.16540326       -1.53604036        1.44279368
 C            3.03050478       -0.11751482        1.67350523
 C            1.91552330       -2.74608314       -0.11684868
 C            1.95669336       -2.29800400        1.26726090
 C            0.67487945       -2.67412689       -0.72177147
 C            1.43302294       -0.63588171       -1.80884383
 C            0.40740687       -1.56044115       -1.54552409
 C            2.09052712        1.70281053       -1.67313470
 C            1.11864574        0.72799769       -1.92643559
 C            2.38424461        2.36543490        0.48303089
 C            1.75820267        2.77203236       -0.75773907
 C            1.74757362        0.43305184        1.78009684
 C            1.57273150        1.78760388        1.46200580
 C            0.76333639       -1.80607214        1.78884294
 C            0.62289034       -0.41111434        1.93035835
 C           -0.34922334       -3.11151901        0.09427253
 C           -0.35822208       -2.54830623        1.43425760
 C           -1.68902708       -3.05994555       -0.41904430
 C           -0.92917529       -1.18503344       -1.77146257
 C           -1.93875978       -2.11055357       -1.47387520
 C           -0.22033532        1.12776178       -1.88427887
 C           -1.24162902        0.17541536       -1.93263492
 C            0.44076412        3.17444012       -0.69335694
 C           -0.52366796        2.43611182       -1.48782212
 C            0.33017012        2.37481701        1.65937253
 C           -0.14552016        3.28627770        0.62964052
 C           -0.66311094        0.15784842        2.00652953
 C           -0.79363473        1.54420870        2.05042616
 C           -1.67743386       -2.00194349        1.64631537
 C           -2.54015233       -2.67840485        0.68934786
 C           -1.81083200       -0.63171260        1.84004883
 C           -3.30748613       -1.67623171       -1.27732595
 C           -3.65076114       -1.95110995        0.11656031
 C           -2.56862414        0.62138700       -1.86908650
 C           -3.64085337       -0.30054522       -1.54762640
 C           -1.82092767        2.72550441       -0.90554878
 C           -1.57241116        3.09072677        0.48200171
 C           -1.99802339        2.17433259        1.52560618
 C           -2.86568300        1.85762495       -1.16436092
 C           -3.04845497       -0.02676454        1.58945654
 C           -4.01493040       -0.69121527        0.72387349
 C           -4.32009892        0.21355481       -0.36789191
 C           -3.10865394        1.38735872        1.26986305
 C           -3.71791541        1.49211716       -0.04786529




