%chk=000246.chk
%mem=8GB
%Nproc=32
#p B3LYP/6-31G* opt pop=NPA

Template file

0 1
 C            3.31894660       -2.02769361        0.72653495
 C            3.78955213       -0.86741796       -0.00567343
 C            3.58594225        0.29703367        0.83671680
 C            2.58045195       -1.54927872        1.88365054
 C            2.69562659       -0.10605765        1.92029057
 C            1.25398562       -2.13138455        1.83403536
 C            2.38002548       -2.73357296       -0.12427943
 C            1.19499639       -2.99923240        0.66566587
 C            3.18152933       -0.88637567       -1.32632672
 C            2.22438722       -1.98030683       -1.35867869
 C            2.84601449        0.32153616       -1.91715165
 C            3.38790677        1.52783473        0.22224587
 C            3.14784063        1.56222304       -1.21334070
 C            2.48144414        2.47900397        0.83994564
 C            1.55913300        0.65190383        2.19102050
 C            1.55849995        2.00516755        1.85507859
 C            0.15114138       -1.33190658        2.13105758
 C            0.34304275        0.01653508        2.47648822
 C           -1.11478648       -1.77869478        1.73729221
 C           -0.01128017       -3.10189248       -0.00661537
 C           -1.21731843       -2.66642031        0.66894408
 C            0.93437860       -1.77235471       -1.85335440
 C           -0.09304445       -2.58700804       -1.36694096
 C            1.54021951        0.47046245       -2.53531396
 C            0.62805322       -0.58641558       -2.53861827
 C            2.06433917        2.49849679       -1.46659712
 C            1.68528986        3.09842822       -0.21094255
 C            1.04896262        1.80373760       -2.22628304
 C            0.29530159        2.67497594        1.60745988
 C            0.29386756        3.02790872        0.19960066
 C           -0.76444069        0.81426537        2.76143787
 C           -0.85487431        2.12532493        2.14116444
 C           -2.25056789       -1.08772627        2.14513829
 C           -2.09456617        0.23313822        2.71457072
 C           -3.41142436       -1.04937682        1.26657888
 C           -2.21006844       -2.42529648       -0.36328742
 C           -1.48380893       -2.24685662       -1.61750137
 C           -3.31054980       -1.62888877       -0.06365013
 C           -0.70243211       -0.27155288       -2.82798166
 C           -1.77257847       -1.17476114       -2.44666139
 C           -0.29692608        1.94450294       -1.90067885
 C           -0.66648032        2.44912730       -0.63764199
 C           -1.16174422        1.08427290       -2.56451469
 C           -2.04587469        2.09705336        1.31535024
 C           -2.93585919        1.14078585        1.94866732
 C           -3.81359807        0.34145413        1.11932966
 C           -1.90696905        2.10660397       -0.07600415
 C           -3.75481525       -0.62444074       -1.01496097
 C           -2.95970723       -0.37246404       -2.20267439
 C           -2.54985802        1.02347796       -2.16860101
 C           -3.87701827        0.63490093       -0.29856269
 C           -2.91028771        1.55722098       -0.87542780




