%chk=000404.chk
%mem=8GB
%Nproc=32
#p B3LYP/6-31G* opt pop=NPA

Template file

0 1
 C            3.76963455       -0.61068318        0.72658902
 C            3.43540069       -1.44309961       -0.40898317
 C            2.60525279       -2.52613146        0.08249788
 C            2.92687673       -1.02608717        1.84148733
 C            2.11994181       -2.14149033        1.39585902
 C            2.25875898        0.14988990        2.35290767
 C            3.64169407        0.82449215        0.58855368
 C            2.88372301        1.30540658        1.73060538
 C            3.01284777        1.37123906       -0.60228724
 C            2.74673430       -0.85216208       -1.54436226
 C            2.52030228        0.52315645       -1.60200041
 C            1.62428369       -2.83355115       -0.94137784
 C            1.67945649       -1.76367086       -1.93489375
 C            0.38440426       -3.29093236       -0.52474473
 C            0.74368193       -2.12644929        1.61057453
 C           -0.03816088       -2.98487296        0.83581569
 C            0.87518126        0.14055227        2.50241123
 C            0.14307431       -1.02967193        2.24805657
 C            0.21799124        1.36897938        2.55359003
 C            2.03313894        2.39223423        1.27161020
 C            2.22210777        2.51513531       -0.16751056
 C            0.75353233        2.49352140        1.80256670
 C            1.17608839        2.95950908       -0.96751966
 C            1.53330744        0.99011195       -2.46402788
 C            0.95451877        2.30386683       -2.24213854
 C            0.49827283       -1.24456498       -2.47636170
 C            0.46205070        0.09154760       -2.86998923
 C           -0.75162288       -3.05774786       -1.38926537
 C           -0.70592757       -1.92573044       -2.29577819
 C           -1.48428203       -2.85599675        0.83512038
 C           -1.92731823       -2.91507498       -0.54890234
 C           -1.24055811       -1.02447193        2.44318865
 C           -2.08165061       -1.94388649        1.69214756
 C           -1.22782938        1.42451435        2.46213282
 C           -1.94959427        0.24225657        2.54413279
 C           -0.32632202        3.02505238        0.98699047
 C           -0.12723627        3.23043234       -0.37530108
 C           -1.56760686        2.42648374        1.45595104
 C           -0.47883459        2.20644855       -2.45879671
 C           -0.79187024        0.82733854       -2.79139258
 C           -1.14978562        2.82143665       -1.32954198
 C           -1.93868705       -1.16886371       -2.12022761
 C           -2.72548836       -1.82421152       -1.08057153
 C           -1.90404807        0.22231639       -2.21189045
 C           -3.24875016       -1.20665286        1.23083714
 C           -3.20305333        0.11932793        1.82116633
 C           -3.47463956       -1.05626980       -0.19941427
 C           -2.60059722        2.19115084        0.55401754
 C           -2.33246592        2.25215745       -0.87349492
 C           -2.78588539        0.99549259       -1.45344583
 C           -3.51164564        1.08169018        0.78011690
 C           -3.64839708        0.35653302       -0.47470672




