%chk=000429.chk
%mem=8GB
%Nproc=32
#p B3LYP/6-31G* opt pop=NPA

Template file

0 1
 C            3.69904213       -0.35020341       -0.05543046
 C            3.38357512       -0.04019304       -1.43623145
 C            2.95626952        1.34828487       -1.49596310
 C            3.42744644        0.83425348        0.74279805
 C            2.98626792        1.89016184       -0.15020551
 C            2.56882427        0.44519649        1.84891639
 C            3.03621105       -1.47794234        0.57376980
 C            2.37893385       -0.99641517        1.78215890
 C            2.39056206       -2.41429477       -0.22261739
 C            2.39103058       -0.84679393       -2.12761191
 C            1.99209278       -2.05785757       -1.58152814
 C            1.71399579        1.40387399       -2.24673492
 C            1.38388130        0.04947427       -2.66829467
 C            0.68844283        2.24620546       -1.82015886
 C            1.94556736        2.71186938        0.25699349
 C            0.87880154        3.03401307       -0.68102961
 C            1.49273155        1.25683877        2.20009467
 C            1.31973454        2.48199178        1.55169068
 C            0.43719249        0.69163826        2.91753648
 C            1.15840644       -1.54048584        2.18548345
 C            0.30264947       -0.75723611        2.95647969
 C            1.31476919       -3.18946910        0.36208037
 C            0.66781479       -2.69203224        1.56292088
 C            0.62110534       -2.49367601       -1.76827641
 C            0.28906433       -3.36360494       -0.65238652
 C            0.04299859       -0.33150226       -2.70691010
 C           -0.34238612       -1.59914385       -2.23466892
 C           -0.60404122        1.99513859       -2.28511157
 C           -0.89855379        0.68770090       -2.84936995
 C           -1.76548027        2.40839937       -1.50569155
 C           -0.26803596        3.44273597        0.11219539
 C            0.00060355        3.08795052        1.49745153
 C           -1.57793438        2.93317577       -0.23734776
 C           -0.90215743        1.26336850        2.83903623
 C           -1.13488436        2.34119065        1.99973657
 C           -2.10078357        2.20919668        0.91522734
 C           -1.11463725       -1.07145612        2.99980925
 C           -1.85384325        0.17048383        2.84385367
 C           -0.76763558       -2.87372678        1.38616534
 C           -1.00575582       -3.21203143       -0.01064673
 C           -1.64990456       -2.03487793        2.05615570
 C           -1.68173529       -1.87789168       -1.94863973
 C           -2.01674225       -2.56601715       -0.71145578
 C           -2.30771647        0.42590473       -2.64331615
 C           -2.80126025        1.41046070       -1.69389819
 C           -2.70645456       -0.87965577       -2.17305291
 C           -2.79601989        1.00858703        0.72956431
 C           -2.74959949        0.01771363        1.71198065
 C           -2.72957525       -1.38670312        1.32519590
 C           -2.97278731       -1.73230291        0.00152049
 C           -3.29592478        0.69227915       -0.53319078
 C           -3.42416569       -0.70257424       -0.91904617




