%chk=000433.chk
%mem=8GB
%Nproc=32
#p B3LYP/6-31G* opt pop=NPA

Template file

0 1
 C            1.96891007       -2.45026597        1.63171292
 C            2.54247267       -2.52599486        0.31051284
 C            3.44481264       -1.39785537        0.14841549
 C            2.44477822       -1.22721993        2.26198649
 C            3.32525853       -0.55465536        1.32779852
 C            1.28900905       -0.51661596        2.78315655
 C            0.52632885       -2.47436121        1.75532141
 C            0.13902254       -1.39890287        2.65276972
 C           -0.27739875       -2.73850654        0.64856088
 C            1.64617385       -2.54586688       -0.82734173
 C            0.27739875       -2.73850654       -0.64856088
 C            3.21069073       -0.81946578       -1.16602382
 C            2.08888551       -1.52883762       -1.77085449
 C            3.32525853        0.55465536       -1.32779852
 C            3.21069073        0.81946578        1.16602382
 C            3.44481264        1.39785537       -0.14841549
 C            1.13349752        0.84489971        2.52957468
 C            2.08888551        1.52883762        1.77085449
 C           -0.13902254        1.39890287        2.65276972
 C           -1.13349752       -0.84489971        2.52957468
 C           -1.28900905        0.51661596        2.78315655
 C           -1.64617385       -2.54586688        0.82734173
 C           -2.08888551       -1.52883762        1.77085449
 C           -2.54247267       -2.52599486       -0.31051284
 C           -0.52632885       -2.47436121       -1.75532141
 C           -1.96891007       -2.45026597       -1.63171292
 C            1.13349752       -0.84489971       -2.52957468
 C           -0.13902254       -1.39890287       -2.65276972
 C            2.44477822        1.22721993       -2.26198649
 C            1.28900905        0.51661596       -2.78315655
 C            2.54247267        2.52599486       -0.31051284
 C            1.64617385        2.54586688        0.82734173
 C            1.96891007        2.45026597       -1.63171292
 C           -0.52632885        2.47436121        1.75532141
 C            0.27739875        2.73850654        0.64856088
 C           -2.44477822        1.22721993        2.26198649
 C           -1.96891007        2.45026597        1.63171292
 C           -3.21069073       -0.81946578        1.16602382
 C           -3.44481264       -1.39785537       -0.14841549
 C           -3.32525853        0.55465536        1.32779852
 C           -2.44477822       -1.22721993       -2.26198649
 C           -1.28900905       -0.51661596       -2.78315655
 C           -3.32525853       -0.55465536       -1.32779852
 C            0.13902254        1.39890287       -2.65276972
 C            0.52632885        2.47436121       -1.75532141
 C           -0.27739875        2.73850654       -0.64856088
 C           -1.13349752        0.84489971       -2.52957468
 C           -2.54247267        2.52599486        0.31051284
 C           -3.44481264        1.39785537        0.14841549
 C           -3.21069073        0.81946578       -1.16602382
 C           -1.64617385        2.54586688       -0.82734173
 C           -2.08888551        1.52883762       -1.77085449




