%chk=000389.chk
%mem=8GB
%Nproc=32
#p B3LYP/6-31G* opt pop=NPA

Template file

0 1
 C            4.01980681       -0.34679370        0.72535990
 C            3.49501925        0.80553843        1.43675848
 C            2.51155856        0.32625921        2.39625065
 C            3.28388732       -1.51823962        1.17418965
 C            2.28382025       -1.07980411        2.13677789
 C            2.85129926       -2.25897242       -0.00000000
 C            4.01980681       -0.34679370       -0.72535990
 C            3.28388732       -1.51823962       -1.17418965
 C            3.49501925        0.80553843       -1.43675848
 C            2.88684262        1.90158641        0.69709613
 C            2.88684262        1.90158641       -0.69709613
 C            1.37456686        1.22576195        2.35744210
 C            1.68390357        2.28912585        1.41605637
 C            0.08625839        0.69639215        2.36842070
 C            0.97473588       -1.53056271        2.00086338
 C           -0.08625839       -0.69639215        2.36842070
 C            1.57887506       -2.81518643       -0.00000000
 C            0.72620245       -2.61245210        1.15769178
 C            0.72620245       -2.61245210       -1.15769178
 C            2.28382025       -1.07980411       -2.13677789
 C            2.51155856        0.32625921       -2.39625065
 C            0.97473588       -1.53056271       -2.00086338
 C            1.68390357        2.28912585       -1.41605637
 C            1.37456686        1.22576195       -2.35744210
 C            0.63659005        2.88802677        0.72910963
 C            0.63659005        2.88802677       -0.72910963
 C           -0.97473588        1.53056271        2.00086338
 C           -0.72620245        2.61245210        1.15769178
 C           -2.28382025        1.07980411        2.13677789
 C           -1.37456686       -1.22576195        2.35744210
 C           -2.51155856       -0.32625921        2.39625065
 C           -0.63659005       -2.88802677        0.72910963
 C           -0.63659005       -2.88802677       -0.72910963
 C           -1.68390357       -2.28912585        1.41605637
 C           -1.68390357       -2.28912585       -1.41605637
 C           -0.08625839       -0.69639215       -2.36842070
 C            0.08625839        0.69639215       -2.36842070
 C           -1.37456686       -1.22576195       -2.35744210
 C           -0.72620245        2.61245210       -1.15769178
 C           -1.57887506        2.81518643        0.00000000
 C           -0.97473588        1.53056271       -2.00086338
 C           -3.28388732        1.51823962        1.17418965
 C           -2.85129926        2.25897242        0.00000000
 C           -3.49501925       -0.80553843        1.43675848
 C           -2.88684262       -1.90158641        0.69709613
 C           -2.88684262       -1.90158641       -0.69709613
 C           -4.01980681        0.34679370        0.72535990
 C           -2.51155856       -0.32625921       -2.39625065
 C           -2.28382025        1.07980411       -2.13677789
 C           -3.28388732        1.51823962       -1.17418965
 C           -3.49501925       -0.80553843       -1.43675848
 C           -4.01980681        0.34679370       -0.72535990




