%chk=000287.chk
%mem=8GB
%Nproc=32
#p B3LYP/6-31G* opt pop=NPA

Template file

0 1
 C            3.83530025       -0.45079809        0.61151154
 C            3.32935168       -1.55471636       -0.18353496
 C            2.34048751       -2.26173300        0.60858370
 C            3.03196907       -0.36960284        1.81978268
 C            2.13505007       -1.50194206        1.83556705
 C            2.45633577        0.95397584        1.88302030
 C            3.61360003        0.76979321       -0.14133308
 C            2.95878700        1.71259053        0.74134853
 C            2.92759029       -1.03221724       -1.47386830
 C            2.94578117        0.42000361       -1.38315117
 C            1.86798383       -1.64517897       -2.11886225
 C            1.22841022       -2.81061800       -0.03181944
 C            1.11403336       -2.68030247       -1.42040402
 C            0.09115821       -3.06564259        0.73935508
 C            0.83395973       -1.33625796        2.29444871
 C           -0.04708917       -2.37538083        2.00998789
 C            1.11979240        1.09439117        2.25645361
 C            0.33568826       -0.03936603        2.53032354
 C            0.49842685        2.32056836        2.01513416
 C            2.12600523        2.66041595        0.16691043
 C            1.03219752        3.17191480        0.96867890
 C            1.82304114        1.15685065       -1.76958720
 C            1.59699635        2.39923543       -1.16762915
 C            0.90370661       -0.81822840       -2.81814233
 C            0.80623976        0.53836581       -2.50896444
 C           -0.19512461       -2.74393135       -2.04832963
 C           -0.31092050       -1.60428675       -2.94491208
 C           -1.23085978       -3.11690302        0.12561191
 C           -1.37560304       -2.77758063       -1.20981746
 C           -1.45839807       -2.23966528        2.29520552
 C           -2.18435932       -2.58861616        1.08384763
 C           -1.01023327        0.14275717        2.86404552
 C           -1.94649612       -0.95996086        2.75436159
 C           -0.95064411        2.40261714        1.94499224
 C           -1.70379985        1.32820722        2.39301094
 C           -0.05899315        3.51036617        0.07281431
 C            0.28950865        3.02823600       -1.25482899
 C           -1.29651494        3.06185477        0.69221749
 C           -0.41005842        1.19315981       -2.71981186
 C           -0.69310176        2.44609867       -2.04088208
 C           -1.58485128       -0.95926017       -2.69442872
 C           -2.21743546       -1.64310259       -1.57142545
 C           -1.64838456        0.42374484       -2.76877190
 C           -2.99059252       -1.44115748        0.70910882
 C           -3.00752753       -0.54245499        1.85093123
 C           -2.85650855        0.88323095        1.62243207
 C           -2.87176162       -0.90910595       -0.57452472
 C           -2.30103251        2.53603942       -0.11240535
 C           -2.05713667        2.38100755       -1.53822377
 C           -2.62930466        1.11241077       -1.95566481
 C           -3.05473463        1.37644491        0.33861325
 C           -3.14993485        0.44372926       -0.77697550




