%chk=000066.chk
%mem=8GB
%Nproc=32
#p B3LYP/6-31G* opt pop=NPA

Template file

0 1
 C            4.00538046        0.00000000        1.38019373
 C            4.33486050       -0.00000000       -0.03319473
 C            3.71491128       -1.16720464       -0.63284410
 C            3.18594598       -1.17004560        1.64775845
 C            2.95585988       -1.85986371        0.39855539
 C            2.02959374       -0.72904610        2.39358723
 C            3.18594598        1.17004560        1.64775845
 C            2.02959374        0.72904610        2.39358723
 C            3.71491128        1.16720464       -0.63284410
 C            2.95585988        1.85986371        0.39855539
 C            3.01477888       -0.72947188       -1.82939501
 C            3.01477888        0.72947188       -1.82939501
 C            1.85941001       -1.41266380       -2.18870586
 C            1.66204987       -2.27998082        0.10024560
 C            1.29345350       -2.35843237       -1.24169285
 C            0.81218285       -1.37303740        2.19405450
 C            0.66119324       -2.22150810        1.08379857
 C           -0.30769612       -0.72616230        2.70825613
 C            0.81218285        1.37303740        2.19405450
 C           -0.30769612        0.72616230        2.70825613
 C            1.66204987        2.27998082        0.10024560
 C            0.66119324        2.22150810        1.08379857
 C            1.85941001        1.41266380       -2.18870586
 C            1.29345350        2.35843237       -1.24169285
 C            0.74464941       -0.69219212       -2.78597107
 C            0.74464941        0.69219212       -2.78597107
 C           -0.10111240       -2.53050333       -1.59031788
 C           -0.47431304       -1.40217802       -2.43451722
 C           -0.60152769       -2.74630282        0.78751316
 C           -0.98183877       -2.94306650       -0.60495605
 C           -1.63926698       -1.18021164        2.36039707
 C           -1.77462018       -2.25684301        1.49648572
 C           -1.63926698        1.18021164        2.36039707
 C           -2.48486351        0.00000000        2.21282663
 C           -0.60152769        2.74630282        0.78751316
 C           -1.77462018        2.25684301        1.49648572
 C           -0.10111240        2.53050333       -1.59031788
 C           -0.47431304        1.40217802       -2.43451722
 C           -0.98183877        2.94306650       -0.60495605
 C           -1.65204872       -0.70351107       -2.15697807
 C           -1.65204872        0.70351107       -2.15697807
 C           -2.37640906       -2.56809007       -0.74306129
 C           -2.90356278       -2.31102966        0.58510312
 C           -2.69930821       -1.41678556       -1.56702573
 C           -3.54956239        0.00000000        1.31402386
 C           -3.79326102       -1.16686182        0.48455295
 C           -3.78197120       -0.72188427       -0.90176750
 C           -2.90356278        2.31102966        0.58510312
 C           -2.37640906        2.56809007       -0.74306129
 C           -2.69930821        1.41678556       -1.56702573
 C           -3.79326102        1.16686182        0.48455295
 C           -3.78197120        0.72188427       -0.90176750




