%chk=000413.chk
%mem=8GB
%Nproc=32
#p B3LYP/6-31G* opt pop=NPA

Template file

0 1
 C            3.37857042        1.79134086        0.47414326
 C            2.90000471        2.14390879       -0.84565524
 C            3.04545101        0.97634401       -1.70289225
 C            3.70038961        0.37340070        0.46919366
 C            3.53791827       -0.12312124       -0.88958710
 C            2.94672774       -0.26049408        1.54223153
 C            2.52074784        2.04458326        1.61198618
 C            2.35198668        0.79202618        2.33650689
 C            1.19158036        2.59164228        1.39623547
 C            1.53854245        2.63197072       -1.00588915
 C            0.69283787        2.76311328        0.10032032
 C            1.79485850        0.80994104       -2.42799661
 C            1.02350427        2.02221132       -2.21836602
 C            1.15239173       -0.42815890       -2.39616187
 C            2.97843635       -1.38208069       -1.06667378
 C            1.89492062       -1.54464425       -2.02409892
 C            2.20506293       -1.40100795        1.25050307
 C            2.56319343       -2.11882014        0.10982804
 C            0.92248449       -1.56441611        1.80126522
 C            0.95219658        0.68610793        2.69540262
 C            0.34580282        1.97117924        2.39679128
 C            0.24926463       -0.47501897        2.38198960
 C           -1.02350427        2.02221132        2.21836602
 C           -0.69283787        2.76311328       -0.10032032
 C           -1.53854245        2.63197072        1.00588915
 C           -0.34580282        1.97117924       -2.39679128
 C           -1.19158036        2.59164228       -1.39623547
 C           -0.24926463       -0.47501897       -2.38198960
 C           -0.95219658        0.68610793       -2.69540262
 C           -0.92248449       -1.56441611       -1.80126522
 C            1.20784184       -2.77157341       -1.67096906
 C            1.71371252       -3.18922009       -0.36826416
 C           -0.23746407       -2.76111767       -1.58731341
 C            0.23746407       -2.76111767        1.58731341
 C            0.57922926       -3.57809610        0.43770841
 C           -0.57922926       -3.57809610       -0.43770841
 C           -1.20784184       -2.77157341        1.67096906
 C           -1.71371252       -3.18922009        0.36826416
 C           -1.15239173       -0.42815890        2.39616187
 C           -1.79485850        0.80994104        2.42799661
 C           -1.89492062       -1.54464425        2.02409892
 C           -2.90000471        2.14390879        0.84565524
 C           -3.04545101        0.97634401        1.70289225
 C           -2.52074784        2.04458326       -1.61198618
 C           -2.35198668        0.79202618       -2.33650689
 C           -3.37857042        1.79134086       -0.47414326
 C           -2.20506293       -1.40100795       -1.25050307
 C           -2.56319343       -2.11882014       -0.10982804
 C           -2.97843635       -1.38208069        1.06667378
 C           -3.53791827       -0.12312124        0.88958710
 C           -2.94672774       -0.26049408       -1.54223153
 C           -3.70038961        0.37340070       -0.46919366




