%chk=000021.chk
%mem=8GB
%Nproc=32
#p B3LYP/6-31G* opt pop=NPA

Template file

0 1
 C            4.22426128       -0.49830089        1.17462109
 C            4.56248772        0.28717092       -0.00000000
 C            4.22426128       -0.49830089       -1.17462109
 C            3.58558152       -1.72132353        0.72266484
 C            3.58558152       -1.72132353       -0.72266484
 C            2.30645022       -1.82285949        1.39758443
 C            3.23886348        0.24601942        1.94213954
 C            2.11905780       -0.63803363        2.21295419
 C            3.71370404        1.46500584       -0.00000000
 C            2.96303197        1.48604998        1.24547438
 C            3.23886348        0.24601942       -1.94213954
 C            2.96303197        1.48604998       -1.24547438
 C            2.30645022       -1.82285949       -1.39758443
 C            2.11905780       -0.63803363       -2.21295419
 C            1.19883371       -2.28563752        0.70220910
 C            1.19883371       -2.28563752       -0.70220910
 C           -0.03300375       -2.13230638        1.32836310
 C            0.83725126       -0.08711406        2.26207996
 C           -0.25828209       -0.93070789        2.02187319
 C            1.64247168        1.91259419        1.19134695
 C            0.70062949        1.28104187        2.00806947
 C            1.64247168        1.91259419       -1.19134695
 C            1.19645157        2.47945645       -0.00000000
 C            0.83725126       -0.08711406       -2.26207996
 C            0.70062949        1.28104187       -2.00806947
 C           -0.03300375       -2.13230638       -1.32836310
 C           -0.25828209       -0.93070789       -2.02187319
 C           -1.10171553       -2.77678465        0.72418962
 C           -1.10171553       -2.77678465       -0.72418962
 C           -2.44090396       -2.47493395        1.16722251
 C           -1.55651104       -0.40133582        2.11405724
 C           -2.66156439       -1.19899891        1.80952283
 C           -0.56366018        1.85148134        2.08972449
 C           -1.72616857        0.98341501        2.16862801
 C           -0.04325951        3.10330829       -0.00000000
 C           -0.88378802        2.93261990        1.17184786
 C           -0.56366018        1.85148134       -2.08972449
 C           -0.88378802        2.93261990       -1.17184786
 C           -1.55651104       -0.40133582       -2.11405724
 C           -1.72616857        0.98341501       -2.16862801
 C           -2.44090396       -2.47493395       -1.16722251
 C           -3.30287590       -2.55276737        0.00000000
 C           -2.66156439       -1.19899891       -1.80952283
 C           -3.81361456       -0.58662641        1.16619044
 C           -4.15573586       -1.38025858        0.00000000
 C           -3.81361456       -0.58662641       -1.16619044
 C           -2.80595752        1.60830188        1.41097920
 C           -2.25450624        2.76099630        0.72461496
 C           -2.25450624        2.76099630       -0.72461496
 C           -2.80595752        1.60830188       -1.41097920
 C           -3.70214260        0.79148547        0.73243309
 C           -3.70214260        0.79148547       -0.73243309




