%chk=000282.chk
%mem=8GB
%Nproc=32
#p B3LYP/6-31G* opt pop=NPA

Template file

0 1
 C            3.91075804       -0.77267203        0.28427292
 C            3.19091870       -1.87416512       -0.32736292
 C            2.57367699       -1.39447563       -1.55186596
 C            3.69758748        0.40527124       -0.53557349
 C            2.86827589        0.02777511       -1.66807265
 C            3.23661496        1.47297394        0.33087286
 C            3.30404344       -0.51928033        1.57894001
 C            2.94963822        0.88786958        1.63582846
 C            2.33419119       -2.45987325        0.68397219
 C            2.26041165       -1.51208501        1.78557564
 C            1.16631881       -3.06992033        0.26062049
 C            1.30082564       -1.85687564       -1.88117907
 C            0.74712413       -2.89212775       -1.12336610
 C            0.47659199       -1.04681846       -2.66358801
 C            1.86622345        0.89935097       -2.08842695
 C            0.76620650        0.37550098       -2.76762224
 C            2.36552169        2.41291244       -0.20439083
 C            1.79850429        2.17596330       -1.52496324
 C            1.30865396        2.97100425        0.62343661
 C            1.78815228        1.24583849        2.30903427
 C            0.97971501        2.35428799        1.82312720
 C            1.01254266       -1.09663288        2.25471414
 C            0.87696715        0.20068590        2.75286022
 C           -0.02645324       -2.92710685        1.07168415
 C           -0.12769762       -1.85321000        1.95613338
 C           -0.68397829       -3.14198324       -1.16681998
 C           -1.15002781       -3.24542162        0.20836961
 C           -0.97225981       -1.20870416       -2.63807442
 C           -1.54593361       -2.20570970       -1.85986575
 C           -0.50303854        1.09201586       -2.79655523
 C           -1.57527839        0.11495078       -2.68329765
 C            0.56797673        2.94281776       -1.60639766
 C            0.24533068        3.40389907       -0.26319847
 C           -0.61920989        2.32127249       -2.16162161
 C           -1.12248162        3.00876488        0.02170168
 C           -1.71033452        2.54890637       -1.22775096
 C           -0.41432155        2.05503817        2.13025322
 C           -0.43954090        0.79840753        2.86825340
 C           -1.42678909        2.34335985        1.20974258
 C           -1.39489734       -1.38222202        2.31246699
 C           -1.55607654       -0.01560903        2.78262616
 C           -2.36576707       -2.46600252        0.33285009
 C           -2.65495826       -1.88506429       -0.97442799
 C           -2.54899672       -1.70725350        1.48248539
 C           -2.69423545        0.39736353       -1.90444525
 C           -2.77721961        1.65994081       -1.18258973
 C           -3.27475631       -0.64099992       -1.06512619
 C           -2.65038820        1.68348568        1.31361023
 C           -2.76135264        0.52428103        2.18222051
 C           -3.40858618       -0.53925518        1.43191119
 C           -3.40019337        1.39509230        0.10207724
 C           -3.78799894       -0.00556183        0.13694150




