%chk=000209.chk
%mem=8GB
%Nproc=32
#p B3LYP/6-31G* opt pop=NPA

Template file

0 1
 C            3.96936418       -0.69626322        0.78053842
 C            3.13187198       -1.82525576        1.13871105
 C            2.80240280       -2.51520058       -0.08706064
 C            3.83216094       -0.48861953       -0.65323104
 C            3.15478986       -1.64120827       -1.19778867
 C            3.23897240        0.81931203       -0.84889709
 C            3.43220522        0.47759577        1.44249806
 C            3.27488105        1.50598048        0.43637935
 C            2.03983590       -1.33683968        1.96566547
 C            2.25415578        0.08235278        2.19477055
 C            0.74215577       -1.78257000        1.72210390
 C            1.42764557       -2.92180309       -0.28115586
 C            0.51822226       -2.78172417        0.75867071
 C            1.95300498       -1.43565832       -1.98397193
 C            1.01066883       -2.47163640       -1.59583232
 C            2.11723460        0.97368999       -1.67225007
 C            1.47339622       -0.14961786       -2.22353310
 C            1.46225810        2.20601189       -1.64111865
 C            2.32860248        2.48921371        0.67289831
 C            1.64290876        3.05094722       -0.47410168
 C            1.15398173        0.93773112        2.19339355
 C            1.31099354        2.23254275        1.68562337
 C           -0.32250138       -0.98043145        2.14716294
 C           -0.13002044        0.39711295        2.31073994
 C           -1.61180529       -1.50755532        2.13495115
 C           -0.79167867       -3.12204958        0.45006903
 C           -1.84897697       -2.69217512        1.33835785
 C           -0.35363091       -2.27108154       -1.80767393
 C           -1.23873161       -2.88428132       -0.91689841
 C            0.17785187       -0.03927850       -2.72398644
 C           -0.76234420       -1.13358439       -2.51306742
 C            0.07047078        2.31058422       -2.04579687
 C           -0.55279622        1.21048967       -2.61180838
 C            0.33269342        3.49183089       -0.03225674
 C            0.14019871        3.01932070        1.33093171
 C           -0.63096193        3.11529804       -1.05380504
 C           -1.22891276        1.25639765        2.32681981
 C           -1.11570447        2.56660286        1.70808513
 C           -2.75289516       -0.62438969        1.95677724
 C           -2.55748526        0.74610890        2.02920953
 C           -3.03608142       -2.46971809        0.53145605
 C           -2.62347822       -2.45347071       -0.86211890
 C           -3.54510106       -1.15153171        0.85663743
 C           -2.08080704       -0.54810546       -2.28829849
 C           -1.93194338        0.89834988       -2.26913067
 C           -2.97523146       -1.16376018       -1.42180186
 C           -3.62630280       -0.38492250       -0.37608381
 C           -1.91666154        2.76322413       -0.65842667
 C           -2.21399390        2.69593293        0.76361239
 C           -3.12131105        1.58453751        0.98189649
 C           -2.59706712        1.65191912       -1.30749393
 C           -3.42650347        0.98964525       -0.31037079




