%chk=000028.chk
%mem=8GB
%Nproc=32
#p B3LYP/6-31G* opt pop=NPA

Template file

0 1
 C            4.49875317        0.71295483        0.23472836
 C            4.06364019        0.27379737        1.54974356
 C            3.53201480       -1.07027146        1.41989774
 C            4.24503312       -0.36678059       -0.70455150
 C            3.63647381       -1.46545560        0.02685289
 C            3.53615099        0.19954075       -1.83741923
 C            3.66298902        1.83466183       -0.16048070
 C            3.18888946        1.57295673       -1.50093944
 C            2.96502596        1.12710310        1.96376677
 C            2.67990150        2.05464550        0.88495785
 C            2.22180959       -1.09183405        2.05338333
 C            1.88110222        0.27062922        2.42150333
 C            1.21962726       -1.88315646        1.50458259
 C            2.57096015       -2.15502247       -0.53890833
 C            1.47569257       -2.57642365        0.31804503
 C            2.32815006       -0.45633124       -2.31088620
 C            1.96886988       -1.68801832       -1.78559990
 C            1.77552229        1.74379230       -1.77067752
 C            1.30576086        0.56299896       -2.46212090
 C            1.34166024        2.24529924        0.54935514
 C            0.94207974        2.28409262       -0.79661926
 C            0.57364748        0.69527121        2.19906253
 C            0.38954691        1.89097455        1.50478735
 C           -0.10596926       -1.58957185        1.82424386
 C           -0.44312955       -0.26485008        2.14847199
 C           -1.08112435       -2.44203912        1.31850350
 C            0.36819006       -2.88013576       -0.57141379
 C            0.55954555       -2.04587570       -1.74367131
 C           -0.90191421       -2.94864134       -0.02957723
 C           -0.03655066        0.23327325       -2.30094801
 C           -0.41486963       -1.09478231       -2.05534575
 C           -0.42984097        2.25465194       -1.05620551
 C           -0.90626954        1.25503037       -1.92258641
 C           -0.90410303        2.34460973        1.31105417
 C           -1.25868290        2.71925052       -0.03961080
 C           -1.76965751        0.17748545        2.03679014
 C           -2.00050317        1.53380290        1.80119614
 C           -2.47827961       -2.08935338        1.45807792
 C           -2.80539475       -0.74633429        1.87749504
 C           -2.00340116       -2.40172458       -0.79731370
 C           -1.74445357       -1.36435854       -1.70260924
 C           -3.09518039       -2.28802401        0.15466740
 C           -2.27116129        1.00310475       -2.02089147
 C           -2.70898629       -0.37767892       -1.92739213
 C           -2.69674258        2.58997696       -0.16476949
 C           -3.17558343        1.96263077        1.05849401
 C           -3.20771150        1.82250335       -1.27492827
 C           -4.00988759       -0.38087603        1.14509049
 C           -4.07996963       -1.24423435       -0.02519146
 C           -3.96608121       -0.39713242       -1.19208931
 C           -4.17808434        0.98453228        0.69069006
 C           -4.25750475        0.95933604       -0.76269433




