%chk=000200.chk
%mem=8GB
%Nproc=32
#p B3LYP/6-31G* opt pop=NPA

Template file

0 1
 C            4.00143916       -0.25175126        1.06534917
 C            3.30260321       -1.51311993        1.23587966
 C            3.18284161       -2.12136848       -0.06869472
 C            4.03671856        0.04519302       -0.35792698
 C            3.56868768       -1.13223075       -1.06435675
 C            3.35069875        1.30841167       -0.56716322
 C            3.21043216        0.77925192        1.70937842
 C            2.97452209        1.83180796        0.73961028
 C            2.08388916       -1.26160104        1.98948307
 C            2.05784920        0.14933181        2.33334341
 C            0.89137684       -1.87002812        1.59789532
 C            1.88856190       -2.64059108       -0.44812421
 C            0.88975625       -2.76160388        0.50980163
 C            2.47079604       -1.00215339       -2.01088394
 C            1.51332891       -2.05377808       -1.72146653
 C            2.47182110        1.43937474       -1.63982846
 C            2.00310215        0.25612625       -2.35631824
 C            1.35451937        2.36427796       -1.54254563
 C            1.80613559        2.57056307        0.86544497
 C            1.07875424        2.97929696       -0.32560638
 C            0.83878699        0.82087773        2.30307530
 C            0.81300648        2.13667329        1.83504552
 C           -0.31244563       -1.28575018        2.01249099
 C           -0.34646610        0.08038516        2.32047966
 C           -1.50067855       -1.99039827        1.83176107
 C           -0.33427725       -3.20084760        0.02323411
 C           -1.50323557       -3.06308337        0.86181443
 C            0.15018213       -1.86207101       -1.95682384
 C           -0.70260933       -2.75834498       -1.31517200
 C            0.58614958        0.42974309       -2.62235658
 C            0.26454795        1.81696792       -2.33744181
 C           -0.32206644       -0.57528514       -2.27700215
 C           -1.04507683        2.14632986       -2.02554821
 C           -0.30490720        3.19881452        0.06823290
 C           -0.45069744        2.73608252        1.44637131
 C           -1.32046940        2.96480887       -0.85394928
 C           -1.56519454        0.76076323        2.35396731
 C           -1.62924074        2.12351471        1.85064339
 C           -2.75872411       -1.27339037        1.69406488
 C           -2.79286649        0.08556135        1.96686962
 C           -2.64318835       -2.87828366       -0.01774321
 C           -2.12641974       -2.51918201       -1.32871086
 C           -3.40038507       -1.74598717        0.47856036
 C           -1.67490551       -0.23565512       -2.09241086
 C           -2.05618925        1.10639964       -2.07475373
 C           -2.58970814       -1.18627181       -1.63993086
 C           -3.56602343       -0.81423084       -0.62203079
 C           -2.64768697        2.61512768       -0.37671302
 C           -2.81098512        2.23751973        1.01406679
 C           -3.51034527        0.96499017        1.05290727
 C           -3.13813252        1.51877003       -1.19732415
 C           -3.73758212        0.53004267       -0.31894443




