%chk=000172.chk
%mem=8GB
%Nproc=32
#p B3LYP/6-31G* opt pop=NPA

Template file

0 1
 C            3.96526897       -0.70292092        0.99418215
 C            4.04695726        0.05530666       -0.24348008
 C            3.57096390       -0.79910201       -1.31523690
 C            3.23403262       -1.92652470        0.71488422
 C            3.11329667       -2.04541208       -0.71942529
 C            2.01525272       -1.91687070        1.50644871
 C            3.18025711        0.07393185        1.93545143
 C            2.01308518       -0.70747809        2.30897478
 C            3.39718392        1.33665183       -0.02630964
 C            2.97133151        1.39117767        1.36589155
 C            2.57234355        1.86001356       -1.01843121
 C            2.51756099       -0.31190884       -2.19236412
 C            2.12723546        1.01637272       -2.12449097
 C            1.80468471       -2.33558564       -1.26267814
 C            1.49745543       -1.34231848       -2.27696662
 C            0.81181610       -2.32384512        0.93282487
 C            0.77534853       -2.72563037       -0.41487164
 C           -0.37499106       -1.93545851        1.56296497
 C            0.80257540       -0.04828094        2.50402499
 C           -0.38865125       -0.75620876        2.32629494
 C            1.79944272        2.05942390        1.69566432
 C            0.77740031        1.34884451        2.44892292
 C            1.46283247        2.72469608       -0.64835285
 C            1.11135676        2.85523069        0.69059576
 C            0.74682948        1.35658958       -2.41231877
 C            0.42453419        2.55490620       -1.65168662
 C            0.15562671       -0.99932454       -2.46767508
 C           -0.21325868        0.35187284       -2.55814552
 C           -0.46390121       -2.87880562       -1.02335106
 C           -0.79825132       -1.95183411       -2.09518308
 C           -1.56486353       -2.54106578        1.16192720
 C           -1.63714342       -3.03966369       -0.19158850
 C           -2.84106015       -1.91635689        1.45049610
 C           -1.58886183       -0.09708459        2.59529691
 C           -2.85265478       -0.66890704        2.17826063
 C           -0.48159381        2.03966639        2.21763917
 C           -0.29509303        2.91148641        1.06550612
 C           -1.66653833        1.33268638        2.36416851
 C           -0.90088492        2.80441244       -1.32146119
 C           -1.27315408        2.97221476        0.07704880
 C           -1.56092745        0.71281778       -2.51913160
 C           -1.92915818        2.00352890       -1.96031087
 C           -2.19410338       -1.57913223       -1.94142927
 C           -2.74387643       -2.36464741       -0.84915754
 C           -3.52078831       -1.70119761        0.18088055
 C           -2.56005177       -0.24928503       -2.08953746
 C           -3.53032851        0.32373477        1.35757663
 C           -2.76534530        1.56068525        1.43759771
 C           -2.55293038        2.31065736        0.28482209
 C           -2.99603317        1.78830252       -0.99768965
 C           -3.78827213       -0.27945792        0.05937037
 C           -3.41195628        0.39909659       -1.09644269




