%chk=000254.chk
%mem=8GB
%Nproc=32
#p B3LYP/6-31G* opt pop=NPA

Template file

0 1
 C            3.72233317        1.34185092        0.70937220
 C            3.87572698        0.01043393        0.15293057
 C            3.42693114        0.04563490       -1.22986571
 C            3.00806455        2.14875308       -0.26423143
 C            2.87255348        1.36930211       -1.48198085
 C            1.80564386        2.66258757        0.37404206
 C            2.88085206        1.23266904        1.88678354
 C            1.80552689        2.19691923        1.75290701
 C            3.25544635       -0.93443101        1.06854196
 C            2.53164301       -0.16720116        2.06955712
 C            2.67189496       -2.07819964        0.54541855
 C            2.80043614       -1.08082662       -1.75359583
 C            2.63039218       -2.24584767       -0.89983105
 C            1.58921309       -0.93690534       -2.54983340
 C            1.70233601        1.49905009       -2.21789197
 C            1.08329899        0.32533793       -2.81741377
 C            0.60888192        2.67338544       -0.34435795
 C            0.63008219        2.33492677       -1.69849895
 C           -0.60888192        2.67338544        0.34435795
 C            0.59114367        1.89488228        2.34499330
 C           -0.63008219        2.33492677        1.69849895
 C            1.20845464       -0.49091016        2.37325305
 C            0.35560097        0.53118268        2.79820477
 C            1.39469017       -2.52725062        1.07282782
 C            0.67626518       -1.71777914        1.95769118
 C            1.36395594       -2.86906034       -1.24081982
 C            0.67221667       -2.00238491       -2.17826610
 C            0.69300264       -3.21611938       -0.00403056
 C           -0.67626518       -1.71777914       -1.95769118
 C           -0.35560097        0.53118268       -2.79820477
 C           -0.59114367        1.89488228       -2.34499330
 C           -1.20845464       -0.49091016       -2.37325305
 C           -1.80564386        2.66258757       -0.37404206
 C           -1.80552689        2.19691923       -1.75290701
 C           -3.00806455        2.14875308        0.26423143
 C           -1.70233601        1.49905009        2.21789197
 C           -1.08329899        0.32533793        2.81741377
 C           -2.87255348        1.36930211        1.48198085
 C           -0.67221667       -2.00238491        2.17826610
 C           -1.58921309       -0.93690534        2.54983340
 C           -0.69300264       -3.21611938        0.00403056
 C           -1.39469017       -2.52725062       -1.07282782
 C           -1.36395594       -2.86906034        1.24081982
 C           -3.42693114        0.04563490        1.22986571
 C           -2.80043614       -1.08082662        1.75359583
 C           -2.67189496       -2.07819964       -0.54541855
 C           -2.63039218       -2.24584767        0.89983105
 C           -2.53164301       -0.16720116       -2.06955712
 C           -2.88085206        1.23266904       -1.88678354
 C           -3.72233317        1.34185092       -0.70937220
 C           -3.25544635       -0.93443101       -1.06854196
 C           -3.87572698        0.01043393       -0.15293057




