%chk=000177.chk
%mem=8GB
%Nproc=32
#p B3LYP/6-31G* opt pop=NPA

Template file

0 1
 C           -3.49778587        0.65376781        1.87763001
 C           -3.91979518       -0.21302552        0.79166115
 C           -3.88713822        0.56598258       -0.43101343
 C           -2.99411635        1.88561786        1.29232285
 C           -3.30623766        1.86299454       -0.11688828
 C           -1.60389425        2.03214074        1.68539662
 C           -2.38988513        0.00516779        2.55437442
 C           -1.27390853        0.92965950        2.56943866
 C           -3.13550528       -1.43488062        0.86069130
 C           -2.17990523       -1.29627076        1.94909678
 C           -2.72033118       -2.03977174       -0.31828378
 C           -3.18267334        0.02536871       -1.58184399
 C           -2.81163213       -1.31227401       -1.58212187
 C           -2.23017119        2.10235618       -1.05364272
 C           -2.22881543        1.02989599       -2.03508173
 C           -0.64558915        2.42539488        0.74859335
 C           -1.00344624        2.57931048       -0.60528650
 C            0.70123449        2.23363846        1.08513572
 C            0.00783992        0.40646143        2.48463276
 C            1.02349562        1.23786538        2.02066193
 C           -0.86596788       -1.72420272        1.76604238
 C            0.16307977       -0.97569212        2.35031806
 C           -1.46622369       -2.77029286       -0.32507248
 C           -0.56736758       -2.61855758        0.72910398
 C           -1.68725472       -1.71273752       -2.40400549
 C           -0.95310804       -2.73643788       -1.68245241
 C           -1.00902698        0.64952251       -2.60838126
 C           -0.73487127       -0.70248114       -2.83018908
 C            0.00267768        2.62362515       -1.56167675
 C            0.06077017        1.54280705       -2.53585196
 C            1.68126922        2.76531924        0.24815451
 C            1.35781480        2.92245731       -1.14954439
 C            3.03772782        2.25627678        0.29447859
 C            2.34025332        0.81805110        2.20065540
 C            3.38332753        1.29264386        1.31499776
 C            1.44813466       -1.50773625        2.38700885
 C            2.58332744       -0.59749497        2.41761883
 C            0.76127547       -2.97493825        0.50252605
 C            1.77270605       -2.57341928        1.46229954
 C            0.46495387       -2.49281302       -1.87596507
 C            0.60382183       -1.21755241       -2.56321951
 C            1.32355055       -2.78068504       -0.82898209
 C            1.41639433        1.02058125       -2.50204168
 C            2.24470411        2.04164850       -1.89365959
 C            3.30123662        1.63504146       -0.99652341
 C            1.61121783       -0.32532038       -2.19485867
 C            3.92336896        0.12612627        0.63686253
 C            3.53824470       -1.03831363        1.40949615
 C            2.94405971       -2.15777847        0.70892599
 C            2.51861374       -1.97809241       -0.66911789
 C            3.49741420        0.22134821       -0.74944791
 C            2.58213610       -0.71030241       -1.25297220




