%chk=000020.chk
%mem=8GB
%Nproc=32
#p B3LYP/6-31G* opt pop=NPA

Template file

0 1
 C            4.20908035       -0.72409204        1.06504527
 C            4.52670789        0.42921169        0.24282814
 C            4.25724585        0.07645329       -1.14119883
 C            3.64988111       -1.74817660        0.19852311
 C            3.65727512       -1.24585341       -1.15604554
 C            2.37656549       -2.14620328        0.76264211
 C            3.16667546       -0.33230682        2.00052804
 C            2.12019392       -1.32652467        1.92957157
 C            3.61242981        1.49559231        0.61154090
 C            2.80256924        1.04127046        1.73219715
 C            3.26498177        1.00667681       -1.65201567
 C            2.92211293        1.93313008       -0.59035875
 C            2.38665341       -1.14678443       -1.85047840
 C            2.18517358        0.23500405       -2.24567330
 C            1.29430365       -2.38718668       -0.07705944
 C            1.28127453       -1.83781486       -1.37119876
 C            0.05974840       -2.56707507        0.54525865
 C            0.80405920       -0.92689810        2.12557606
 C           -0.18791628       -1.80672195        1.70100519
 C            1.45141669        1.37630477        1.72577012
 C            0.50025222        0.44414241        2.16756103
 C            1.58679203        2.28968316       -0.46834721
 C            1.04344698        2.34215850        0.81387908
 C            0.89090953        0.75262741       -2.16669200
 C            0.72594238        1.97967452       -1.52162999
 C            0.04501050       -1.49411868       -1.91152130
 C           -0.19286196       -0.13802486       -2.19900103
 C           -0.99844813       -2.92780880       -0.28181953
 C           -1.01745279       -2.33072766       -1.60007139
 C           -2.35047787       -2.92627718        0.23534358
 C           -1.48972602       -1.52681012        2.09636543
 C           -2.60619574       -2.19318899        1.45345871
 C           -0.84798396        0.83868479        2.20047644
 C           -1.84705217       -0.13730502        2.30973862
 C           -0.23368265        2.86050286        0.94665810
 C           -1.18656135        2.12155834        1.75849061
 C           -0.53842766        2.54972867       -1.49172307
 C           -0.91903473        3.24106433       -0.27318335
 C           -1.49740504        0.38411634       -2.14896304
 C           -1.67605915        1.74492377       -1.90145957
 C           -2.36446287       -1.88857125       -1.86827124
 C           -3.21613937       -2.39385114       -0.80351482
 C           -2.59436992       -0.46837831       -1.99754025
 C           -3.62104121       -1.19189425        1.17028838
 C           -3.15870290        0.07764647        1.70438044
 C           -3.93867212       -1.26717206       -0.24260607
 C           -3.66269644       -0.10757157       -1.07004825
 C           -2.50858146        2.36606860        1.20240916
 C           -2.34052228        3.05437700       -0.06503200
 C           -2.81904306        2.16648818       -1.10679417
 C           -3.38448974        1.23648762        0.97215176
 C           -3.62269517        1.14376136       -0.46944065




