%chk=000163.chk
%mem=8GB
%Nproc=32
#p B3LYP/6-31G* opt pop=NPA

Template file

0 1
 C            3.99320982       -1.16696967        0.23498066
 C            4.01293246        0.28198913        0.32280408
 C            3.72419467        0.80184783       -0.99965720
 C            3.39870520       -1.52247710       -1.04372726
 C            3.29768567       -0.31628753       -1.83129865
 C            2.18902904       -2.27550421       -0.77148459
 C            3.11102454       -1.66228600        1.27603201
 C            2.16561338       -2.56587487        0.65263517
 C            3.16124383        0.67784663        1.43181233
 C            2.58193343       -0.52497716        2.00981341
 C            2.36910647        1.81021539        1.30826537
 C            2.73012926        1.85379858       -1.13720671
 C            2.19525735        2.44477052        0.00425279
 C            2.01169423        0.03374373       -2.39976354
 C            1.84075413        1.46185299       -2.21791107
 C            0.98963450       -1.93959571       -1.40436203
 C            0.90589367       -0.79916530       -2.22271925
 C           -0.18635920       -2.51522611       -0.91828125
 C            0.92957098       -2.71583813        1.25947209
 C           -0.23401541       -2.91985063        0.41704453
 C            1.23327408       -0.54010336        2.37347373
 C            0.53290496       -1.74534451        2.27037918
 C            1.08546248        1.84374961        1.98283905
 C            0.52744362        0.66454232        2.47939939
 C            0.84893501        2.99717581       -0.04151275
 C            0.24606768        2.79098667        1.26571253
 C            0.55322465        1.97783821       -2.26526281
 C            0.07831479        2.83720456       -1.18867758
 C           -0.35147530       -0.29600299       -2.56595634
 C           -0.54069765        1.08808163       -2.61833197
 C           -1.37996626       -2.28247522       -1.59282153
 C           -1.46213508       -1.12667583       -2.46494965
 C           -2.63106140       -2.37403170       -0.85694265
 C           -1.39458375       -2.58492597        1.22812525
 C           -0.92108327       -1.75334236        2.32589169
 C           -2.59031560       -2.28179071        0.59082182
 C           -0.83152262        0.64738663        2.79372722
 C           -1.59154625       -0.58242634        2.64487367
 C           -1.13410760        2.68911762        1.38341504
 C           -1.67378259        1.74384906        2.34378667
 C           -1.36115869        2.64578967       -1.07188827
 C           -1.75863223        1.67338912       -2.07840297
 C           -1.95903984        2.62510440        0.18427362
 C           -2.77635746       -0.52823471       -2.29223097
 C           -3.52365425       -1.34130417       -1.35034231
 C           -2.85749080        0.85396205       -1.85723099
 C           -3.33879183       -1.09433838        0.98132591
 C           -2.84766224       -0.26157252        1.98206269
 C           -2.89157837        1.17953916        1.78778383
 C           -3.06410323        1.71411077        0.44555534
 C           -3.88520603       -0.49535180       -0.22681650
 C           -3.52691294        0.87408090       -0.56278024




