%chk=000011.chk
%mem=8GB
%Nproc=32
#p B3LYP/6-31G* opt pop=NPA

Template file

0 1
 C            4.38621691        0.97504409       -0.07296602
 C            4.51695346       -0.30704712       -0.73825599
 C            4.23050043       -1.33735430        0.24365929
 C            3.86105489        0.73591680        1.26342331
 C            3.73538600       -0.68881460        1.44897088
 C            2.67019889        1.54360322        1.41159584
 C            3.38941002        1.74436429       -0.79645033
 C            2.48436137        2.30443621        0.18393442
 C            3.49163859       -0.37800513       -1.76920511
 C            2.81043790        0.89978099       -1.82048082
 C            3.14860506       -2.14708729       -0.28020441
 C            2.69483738       -1.56356615       -1.52885991
 C            2.41751704       -1.23272985        1.73739979
 C            2.16491806       -2.29017911        0.77404791
 C            1.53270533        1.01372887        2.02405708
 C            1.35428578       -0.38267380        2.07426160
 C            0.40746788        1.82837278        1.98518946
 C            1.17313329        2.55706411       -0.20231649
 C            0.25817604        2.70386103        0.83371929
 C            1.42516421        0.90978790       -1.94198573
 C            0.72368493        1.99012711       -1.40263408
 C            1.31922190       -1.49542029       -1.72270145
 C            0.74248760       -0.29531503       -2.15637196
 C            0.84776106       -2.48113365        0.39454122
 C            0.53214367       -2.34924637       -0.95939324
 C            0.05487068       -0.91929707        2.01311146
 C           -0.12838563       -2.12009431        1.31125977
 C           -0.89476572        1.27217016        2.27605336
 C           -1.04785844       -0.10669920        2.31071509
 C           -1.15482511        2.80942891        0.52701812
 C           -1.87316998        2.08359543        1.56694842
 C           -0.61347992        2.12840574       -1.75652415
 C           -1.54874438        2.69535922       -0.79872437
 C           -0.64704110       -0.25115137       -2.33822487
 C           -1.27454961        0.99476184       -2.37756168
 C           -0.79765067       -2.48844967       -1.32951555
 C           -1.40365412       -1.40125009       -2.08157490
 C           -1.40786392       -2.60157897        1.07139996
 C           -1.74732751       -2.89553753       -0.30746705
 C           -2.33880284       -0.63083535        2.25636104
 C           -2.54179652       -1.93944875        1.67611215
 C           -3.12915334        1.54875829        1.30477496
 C           -3.43186926        0.21742710        1.80156018
 C           -2.86621945        2.17292379       -1.11007593
 C           -2.69542905        1.10873199       -2.08873621
 C           -3.69371984        1.66204667       -0.03185749
 C           -2.79846467       -1.29794748       -1.66276481
 C           -3.02066595       -2.26601261       -0.59885422
 C           -3.58421348       -1.82798089        0.66541585
 C           -4.15013334       -0.49691091        0.75705883
 C           -3.41763265       -0.05393227       -1.61236013
 C           -4.16572189        0.34600262       -0.42652237




