%chk=000290.chk
%mem=8GB
%Nproc=48
#p B3LYP/6-31G* opt pop=NPA

Template file

0 1
 C            4.42927162       -1.09155043        0.53557748
 C            4.48118797        0.06028824       -0.34803092
 C            3.93243500       -0.34135510       -1.63094959
 C            3.66469329       -2.12702977       -0.13651538
 C            3.43500143       -1.70090238       -1.49798850
 C            2.51029091       -2.42995402        0.68451006
 C            3.69461051       -0.70276950        1.72772963
 C            2.53209040       -1.56694955        1.85008928
 C            3.88169242        1.18492780        0.35036190
 C            3.48379831        0.72931000        1.67622179
 C            3.05615343        2.05900731       -0.35117250
 C            2.87464303        0.45932999       -2.22315900
 C            2.57976127        1.70366867       -1.68465610
 C            2.07419488       -1.72403905       -1.99958849
 C            1.77733277       -0.42991477       -2.57706694
 C            1.28019200       -2.65695471        0.08789554
 C            1.07324817       -2.34155000       -1.26359527
 C            0.17241170       -2.63283048        0.92241714
 C            1.32271497       -1.02230791        2.29364398
 C            0.12128031       -1.63075287        1.90236527
 C            2.32600415        1.23419064        2.25185451
 C            1.30227339        0.30547485        2.71586711
 C            1.97149985        2.73733039        0.34290123
 C            1.64324340        2.36018007        1.63346389
 C            1.22992023        2.21194750       -1.81734754
 C            0.90705030        2.96541351       -0.61662788
 C            0.46202161        0.03821537       -2.51177442
 C            0.23929019        1.41393566       -2.38393583
 C           -0.23948339       -2.12805159       -1.67487162
 C           -0.57001434       -0.86646105       -2.20220208
 C           -1.00681163       -3.12233111        0.38658740
 C           -1.21326162       -2.87675775       -1.02624155
 C           -2.24755972       -2.84850765        1.07068282
 C           -1.10592968       -1.01728446        2.21463817
 C           -2.29817014       -1.68426101        1.92887028
 C            0.04708812        1.02820594        2.72916357
 C            0.24464846        2.27608246        2.00603448
 C           -1.14561371        0.34190811        2.54391103
 C           -0.42535958        2.99849630       -0.20793401
 C           -0.75266475        2.69865719        1.12843447
 C           -1.06440075        1.87833435       -2.28594322
 C           -1.37339086        2.81223330       -1.21506564
 C           -1.90265776       -0.42023369       -2.20740339
 C           -2.16149632        0.93703800       -2.36112845
 C           -2.60488212       -2.55312524       -1.22470515
 C           -3.27651054       -2.71461483        0.05491126
 C           -2.92951152       -1.24253789       -1.73963627
 C           -3.48128132       -0.92161388        1.55684438
 C           -4.00274335       -1.49035699        0.32548231
 C           -3.96711457       -0.68263468       -0.88046118
 C           -2.26325472        1.10131883        2.20115054
 C           -2.05880257        2.33994747        1.46523275
 C           -3.45821096        0.45910965        1.68296568
 C           -2.77467389        2.66247117       -0.88710109
 C           -3.28180974        1.52985576       -1.64748452
 C           -4.05747413        0.69616650       -0.74827172
 C           -3.12917338        2.46802910        0.49676073
 C           -3.95778707        1.27655824        0.58428956




