%chk=001187.chk
%mem=8GB
%Nproc=16
#p B3LYP/6-31G* opt pop=NPA

Template file

0 1
 C            4.03842952       -0.64689712        0.36596767
 C            3.17070698       -1.79722940        0.16107448
 C            2.94548430       -1.92693980       -1.27007702
 C            4.24370672       -0.00506832       -0.92025610
 C            3.44084213       -0.71588849       -1.89687901
 C            3.72393674        1.34581071       -0.82302449
 C            3.62893985        0.37492819        1.31327100
 C            3.45905668        1.62195264        0.57716200
 C            2.71211325        0.02674334        2.29683091
 C            2.11501850       -2.01378811        1.04799551
 C            2.07322157       -1.27904276        2.23414951
 C            0.97743054       -2.70885300        0.61863241
 C            1.73027624       -2.42484539       -1.70794181
 C            0.80135193       -2.97451935       -0.73729595
 C            0.94234350       -1.61964065       -2.62671307
 C            2.47250061        0.21322471       -2.45694956
 C            2.63282798        1.48401017       -1.77561983
 C            1.18689702       -0.24862279       -2.71731962
 C            1.49503780        2.18564751       -1.39234669
 C            2.39556664        2.46129868        0.88296699
 C            1.51809946        2.89692119       -0.19194633
 C            1.70130747        0.98418483        2.72133863
 C            1.55220330        2.17861375        2.03520121
 C            0.83409577       -1.18205713        2.97990489
 C            0.51830900        0.23438187        3.10928753
 C           -0.11911073       -2.84800397        1.46927844
 C           -0.18656179       -2.07371569        2.69883870
 C           -1.45943049       -2.90098216        0.90011714
 C           -0.53256049       -2.87935905       -1.31434483
 C           -0.42451334       -2.09848302       -2.54246090
 C           -1.63014135       -2.71122703       -0.46981982
 C           -1.45165833       -1.23834929       -2.89263054
 C            0.11185919        0.64111956       -2.64241852
 C            0.26454439        1.86169668       -1.96988603
 C           -1.16115672        0.18371905       -2.98731878
 C           -0.85601691        2.62271942       -1.63175121
 C            0.26820174        3.30113979        0.42209383
 C            0.21501573        2.66219774        1.73071635
 C           -0.87688036        3.32330385       -0.35709325
 C           -0.75449339        0.69083273        2.75966024
 C           -0.90693590        1.90755151        2.08188604
 C           -1.55606333       -1.62468545        2.86662483
 C           -2.36157833       -2.24404367        1.82923066
 C           -1.82656175       -0.19814303        2.84423179
 C           -3.28152171       -1.24288169        1.32270089
 C           -3.00562863        0.00515356        2.02116032
 C           -2.77139210       -2.05603047       -0.93916766
 C           -2.73014649       -1.38740610       -2.22781108
 C           -3.55753431       -1.22306283       -0.03806692
 C           -2.34352618        0.90884869       -2.55481359
 C           -2.19270969        2.10866840       -1.87749018
 C           -3.30926880       -0.06464850       -2.06816616
 C           -3.80961835        0.04436556       -0.70666129
 C           -2.14324036        3.02720235        0.28439942
 C           -2.13320104        2.23029617        1.49890222
 C           -3.16359752        1.21510875        1.36302776
 C           -2.98945398        2.35516176       -0.68549055
 C           -3.63482219        1.23761107       -0.01489055




