%chk=000111.chk
%mem=8GB
%Nproc=48
#p B3LYP/6-31G* opt pop=NPA

Template file

0 1
 C            4.63176649       -0.72448932        0.03374730
 C            4.63176649        0.72448932       -0.03374730
 C            3.94051234        1.10428041       -1.25000020
 C            3.84026320       -1.22693235       -1.07837185
 C            3.36415103       -0.09353711       -1.84039990
 C            2.86191256       -2.14443078       -0.53728485
 C            3.94051234       -1.10428041        1.25000020
 C            3.03967795       -2.18660453        0.90774257
 C            3.84026320        1.22693235        1.07837185
 C            3.36415103        0.09353711        1.84039990
 C            3.03967795        2.18660453       -0.90774257
 C            2.86191256        2.14443078        0.53728485
 C            1.90376922        2.33612642       -1.68769014
 C            2.02752346       -0.05061520       -2.23462760
 C            1.47334124        1.19867202       -2.48841505
 C            1.56390896       -2.12636759       -1.03943303
 C            1.16903041       -1.11955133       -1.93868054
 C            0.58698812       -2.81219350       -0.31934535
 C            1.90376922       -2.33612642        1.68769014
 C            0.70685820       -2.87128262        1.06434573
 C            2.02752346        0.05061520        2.23462760
 C            1.47334124       -1.19867202        2.48841505
 C            1.56390896        2.12636759        1.03943303
 C            1.16903041        1.11955133        1.93868054
 C            0.70685820        2.87128262       -1.06434573
 C            0.58698812        2.81219350        0.31934535
 C            0.04186857        1.31479924       -2.67041122
 C           -0.41703920        2.44848459       -1.87989929
 C           -0.17380565       -1.06106602       -2.34248127
 C           -0.74318288        0.17227939       -2.70669894
 C           -0.67663135       -2.94323104       -0.87263307
 C           -0.99107755       -2.15269825       -2.04338689
 C           -1.83748459       -2.88361878        0.00427123
 C           -0.41703920       -2.44848459        1.87989929
 C            0.04186857       -1.31479924        2.67041122
 C           -1.68471155       -2.39887465        1.30405242
 C           -0.17380565        1.06106602        2.34248127
 C           -0.74318288       -0.17227939        2.70669894
 C           -0.67663135        2.94323104        0.87263307
 C           -0.99107755        2.15269825        2.04338689
 C           -1.68471155        2.39887465       -1.30405242
 C           -1.83748459        2.88361878       -0.00427123
 C           -2.11887856        0.37054809       -2.61508339
 C           -2.60869637        1.48867339       -1.82350779
 C           -2.43667348       -2.03368363       -2.09841773
 C           -2.96273465       -2.45417508       -0.80697793
 C           -3.01175464       -0.74942715       -2.41567531
 C           -3.71885175        1.00408137       -1.01239224
 C           -3.83205843       -1.40495683       -0.31223513
 C           -3.93799110       -0.39429071       -1.35214854
 C           -2.60869637       -1.48867339        1.82350779
 C           -2.11887856       -0.37054809        2.61508339
 C           -3.71885175       -1.00408137        1.01239224
 C           -2.43667348        2.03368363        2.09841773
 C           -2.96273465        2.45417508        0.80697793
 C           -3.83205843        1.40495683        0.31223513
 C           -3.01175464        0.74942715        2.41567531
 C           -3.93799110        0.39429071        1.35214854




