%chk=001055.chk
%mem=8GB
%Nproc=16
#p B3LYP/6-31G* opt pop=NPA

Template file

0 1
 C            3.89537691       -0.47656772        1.14407989
 C            3.44465952       -1.84914193        1.00583682
 C            3.30283662       -2.12860594       -0.41326584
 C            4.05640679        0.07257711       -0.19168216
 C            3.50798434       -0.88466386       -1.13570513
 C            3.52645567        1.42045704       -0.18855243
 C            3.09073667        0.45692152        1.91308230
 C            2.87894607        1.64244345        1.09997687
 C            2.04903272       -0.01857432        2.69558628
 C            2.21522939       -2.25613512        1.66207776
 C            1.62117313       -1.40989388        2.58718299
 C            2.05975619       -2.84903054       -0.60546191
 C            1.37761393       -2.92380314        0.67822345
 C            1.31221495       -2.58034735       -1.73901356
 C            2.54853381       -0.46147030       -2.05800864
 C            1.57134774       -1.35916698       -2.49351950
 C            2.89992166        1.87866024       -1.33664153
 C            2.36142537        0.90602632       -2.28107201
 C            1.92939507        2.94622468       -1.20392658
 C            1.65594364        2.31896129        1.15049249
 C            1.31660777        3.16361718        0.09340885
 C            0.86012694        0.79825884        2.85951901
 C            0.67687111        1.93759319        2.07973383
 C            0.17905926       -1.43780406        2.73560080
 C           -0.26377751       -0.09726308        3.08054047
 C           -0.01041641       -2.76724276        0.72828088
 C           -0.59881583       -2.19478381        1.86710782
 C           -0.12560880       -2.75848731       -1.68267517
 C           -0.75410588       -2.92680141       -0.45044578
 C            0.28708294       -0.84953027       -2.95296480
 C           -0.71390475       -1.85670615       -2.65873983
 C            1.05792572        1.38753056       -2.71956448
 C            0.85791706        2.70207348       -2.15576079
 C           -0.00800209        0.49716946       -2.77172433
 C           -0.07499229        3.48066027       -0.15518738
 C           -0.39268605        2.97880643       -1.48535713
 C           -0.60677665        2.47925302        2.00736735
 C           -0.99413664        3.28811073        0.86169812
 C           -1.54243281        0.30916790        2.70549756
 C           -1.74765165        1.65025232        2.37787572
 C           -1.97064407       -1.97918729        1.90306418
 C           -2.45919699       -0.66200561        2.28746488
 C           -2.14343107       -2.85225690       -0.41396146
 C           -2.79393900       -2.46656469        0.81869848
 C           -2.03144157       -1.46497273       -2.48734167
 C           -2.82951017       -2.17557624       -1.50348514
 C           -1.27631761        0.87566858       -2.30193354
 C           -1.46149093        2.09884598       -1.63637844
 C           -2.32568666       -0.04628266       -2.35224407
 C           -2.34692467        2.91082024        0.49406428
 C           -2.85867241        2.02055430        1.51989842
 C           -2.55672051        2.26770286       -0.79047695
 C           -3.54759456       -0.31209124        1.38340530
 C           -3.78360926       -1.44626999        0.50862218
 C           -3.77138909       -1.23409841       -0.92608828
 C           -3.44905392        0.08702528       -1.43765203
 C           -3.61168264        0.97244555        0.86091392
 C           -3.48996853        1.17749789       -0.58047033




