%chk=000144.chk
%mem=8GB
%Nproc=48
#p B3LYP/6-31G* opt pop=NPA

Template file

0 1
 C            4.24993804        0.98082570        1.17201139
 C            4.47179680        1.00355739       -0.26241999
 C            4.19485331       -0.32512771       -0.77406963
 C            3.78884257       -0.34910911        1.53283292
 C            3.73559728       -1.15332501        0.32985394
 C            2.57194460       -0.19984889        2.30427912
 C            3.17081621        1.90558323        1.46935673
 C            2.20838034        1.20687331        2.29587235
 C            3.49330260        1.90104538       -0.85074086
 C            2.69900517        2.47298443        0.22339603
 C            3.32498974       -0.17939676       -1.92745095
 C            2.79808532        1.17805690       -1.90474791
 C            2.45359266       -1.21839136       -2.20870055
 C            2.62488259       -1.96689452        0.12422264
 C            2.24115822       -2.23498998       -1.19016688
 C            1.55049266       -1.12737674        2.13087747
 C            1.68588028       -2.12251161        1.15078623
 C            0.27271604       -0.76895613        2.56614742
 C            0.86150167        1.51472769        2.14896768
 C           -0.06208987        0.58854467        2.62032386
 C            1.32621297        2.57337204        0.03230689
 C            0.46792884        2.37836755        1.11901929
 C            1.42495098        1.38158202       -2.04149066
 C            0.82537025        2.35816794       -1.24687010
 C            1.14689037       -0.90668620       -2.75475023
 C            0.62525283        0.37664808       -2.59881106
 C            0.94868800       -2.84663043       -1.45430698
 C            0.29890856       -2.05498940       -2.49064009
 C            0.64722716       -3.03367721        0.96581516
 C            0.20513388       -3.33195546       -0.38697844
 C           -0.72491527       -1.73713167        2.58984982
 C           -0.53455916       -2.93905166        1.80355477
 C           -2.11329782       -1.34196103        2.44652900
 C           -1.39301828        0.98256643        2.68298407
 C           -2.45323366       -0.01229536        2.63546084
 C           -0.89754770        2.62684434        0.93509490
 C           -1.80210694        2.11305286        1.86970764
 C           -0.49859696        2.68468795       -1.48255213
 C           -1.33525310        3.00097245       -0.33975361
 C           -0.75885128        0.56705893       -2.66972399
 C           -1.27552432        1.81918089       -2.34822403
 C           -1.07515098       -1.87201150       -2.46173066
 C           -1.61117445       -0.54076929       -2.69298071
 C           -1.24600143       -3.23409384       -0.41504712
 C           -1.70441151       -3.10148624        0.95313574
 C           -2.64223010       -2.04365883        1.28607452
 C           -1.86998969       -2.49261305       -1.41069612
 C           -2.90548981       -0.48163619       -2.02969944
 C           -3.26276144       -1.31429518        0.27151313
 C           -2.94803365       -1.57285077       -1.06603193
 C           -3.53983767        0.54082975        1.84647661
 C           -3.20142356        1.91682206        1.52577885
 C           -3.90513651       -0.12379101        0.60751802
 C           -2.71024027        2.77537868       -0.75551296
 C           -2.66957598        1.94898967       -1.95239991
 C           -3.44596400        0.75076003       -1.69399478
 C           -3.64287525        2.17208626        0.17104044
 C           -4.08504929        0.90794551       -0.40029575




