%chk=000813.chk
%mem=8GB
%Nproc=16
#p B3LYP/6-31G* opt pop=NPA

Template file

0 1
 C            4.11962706       -1.12067713        0.03880564
 C            3.42918365       -2.03716600        0.92433830
 C            2.56388495       -2.86455682        0.09894217
 C            3.64335738       -1.38061687       -1.31233120
 C            2.48878137       -2.25468176       -1.20738472
 C            3.48774019       -0.10648077       -1.97365904
 C            4.01391423        0.30848648        0.27428446
 C            3.79890169        0.94065193       -1.01154223
 C            3.31693609        0.78041581        1.38179231
 C            2.62289706       -1.50667013        2.01155682
 C            2.61667747       -0.14418463        2.26924315
 C            1.32905787       -3.05271256        0.81639329
 C            1.36462967       -2.23019380        2.01445333
 C            0.13898178       -3.07223211        0.11029336
 C            1.24103967       -1.82490809       -1.67047910
 C            0.06988819       -2.37582534       -1.11218813
 C            2.20306385        0.21328339       -2.55816575
 C            1.16121072       -0.70888889       -2.51823644
 C            2.77756025        1.96729897       -1.13301932
 C            1.91139231        1.59996044       -2.24186829
 C            2.49878187        1.98021664        1.26485075
 C            2.20328501        2.51896067        0.00678662
 C            1.37327063        0.48813438        2.67608767
 C            1.45843531        1.88215829        2.28154441
 C            0.17978472       -1.59522845        2.39965985
 C            0.16511662       -0.19962037        2.53841741
 C           -0.99150679       -3.11765377        0.90676175
 C           -1.00381187       -2.25656921        2.07916129
 C           -2.28641669       -3.04838347        0.28185886
 C           -1.18327001       -2.03454817       -1.65081479
 C           -2.35664676       -2.49253347       -1.04862974
 C           -0.08295496       -0.24927382       -2.92026510
 C           -1.27220586       -0.99339500       -2.56843312
 C            0.58114682        2.01694555       -2.23079122
 C           -0.38243317        1.17073365       -2.77871845
 C            1.03950423        3.26209932       -0.15792113
 C            0.19303765        2.99299492       -1.31348302
 C            0.28977956        2.60576109        2.12727033
 C            0.17599363        3.49026673        0.98492311
 C           -1.02250482        0.52547159        2.34427995
 C           -0.98336880        1.92122108        2.27689993
 C           -2.25253754       -1.52527675        2.05440796
 C           -3.13243670       -2.23937280        1.14000063
 C           -2.21722775       -0.13523568        2.04070643
 C           -3.55263757       -1.66381802       -1.09165733
 C           -4.01779208       -1.48523526        0.27748797
 C           -2.36597318       -0.03721254       -2.47541525
 C           -1.77539138        1.29105258       -2.37640333
 C           -3.48153084       -0.35371712       -1.71468634
 C           -1.19546980        3.08053335       -0.88227421
 C           -1.19932737        3.44838965        0.52328811
 C           -1.95089792        2.62251514        1.44804312
 C           -2.12205092        2.14181677       -1.32756778
 C           -3.27455889        0.58043573        1.47215043
 C           -4.15728949       -0.06475266        0.51421212
 C           -3.97625714        0.61793549       -0.75745866
 C           -3.02653351        1.90842469        0.94957685
 C           -3.19382970        1.81545711       -0.49508468




