%chk=000161.chk
%mem=8GB
%Nproc=48
#p B3LYP/6-31G* opt pop=NPA

Template file

0 1
 C            4.53119888       -1.08282536       -0.13918529
 C            4.42639387       -0.56680268        1.21404388
 C            4.04178069        0.83041089        1.12980860
 C            4.21773195        0.00108817       -1.05429119
 C            3.97948597        1.19891011       -0.27384367
 C            3.17205940       -0.46345084       -1.94695404
 C            3.51113124       -2.10494339       -0.30735234
 C            2.75484538       -1.78596815       -1.49673626
 C            3.34306481       -1.27212640        1.87305155
 C            2.78370622       -2.22957322        0.93407248
 C            2.85636390        1.01866774        1.95313682
 C            2.44360958       -0.28219133        2.44678974
 C            1.86993005        1.89622299        1.52015915
 C            2.96862803        2.05746765       -0.67853437
 C            2.05988967        2.58919777        0.32219591
 C            2.19052048        0.42872558       -2.37731953
 C            2.15505706        1.72054731       -1.84245314
 C            1.02485548       -0.11311492       -2.91043412
 C            1.39708609       -2.08832029       -1.53348448
 C            0.66043462       -1.46848617       -2.52860502
 C            1.39982668       -2.33125753        0.88232330
 C            0.74360812       -2.46893475       -0.35109529
 C            1.08377719       -0.57591697        2.46473357
 C            0.68464613       -1.80644568        1.95071004
 C            0.57088101        1.73842817        2.00511261
 C            0.16059844        0.47444579        2.46055170
 C           -0.37662558        2.68297479        1.62472725
 C            0.90361374        3.09246122       -0.39853412
 C            0.87644856        2.40963971       -1.68311731
 C           -0.28268192        3.25490143        0.29398350
 C           -0.19837812        0.67062428       -2.92597322
 C           -0.29828460        1.79469376       -2.11310349
 C           -0.78175929       -1.54768681       -2.50167141
 C           -1.29636822       -0.27416966       -2.98355614
 C           -0.65591279       -2.60646126       -0.33515435
 C           -1.41736881       -2.17849442       -1.43830912
 C           -0.64191101       -2.16787863        2.06665797
 C           -1.26542824       -2.77869598        0.91170389
 C           -1.20264763        0.15784214        2.56868566
 C           -1.57841520       -1.18416762        2.57088843
 C           -1.77720470        2.44253058        1.89412632
 C           -2.17643694        1.13104513        2.35011630
 C           -1.52852734        2.94292817       -0.37786706
 C           -1.51573089        2.09885598       -1.48874280
 C           -2.51095207        2.72617572        0.66895770
 C           -2.55160306        0.13305967       -2.56653228
 C           -2.66435372        1.36297049       -1.79795008
 C           -2.80314205       -2.02540523       -1.34037414
 C           -3.41626890       -0.85594216       -1.94808793
 C           -2.69493260       -2.60265161        1.07256695
 C           -2.89240998       -1.56782103        2.07899072
 C           -3.48377078       -2.25665304       -0.08333459
 C           -3.39768680        0.78525240        1.63575274
 C           -3.50205376        1.68304630        0.49082501
 C           -3.69184711        1.16062406       -0.78256330
 C           -4.20575695       -0.18877813       -0.92739067
 C           -3.75993693       -0.55251571        1.51186826
 C           -4.24277727       -1.05605900        0.23601068




