%chk=000907.chk
%mem=8GB
%Nproc=16
#p B3LYP/6-31G* opt pop=NPA

Template file

0 1
 C            3.83214253       -1.42756567       -0.03814800
 C            3.87185298       -0.44024375       -1.09422237
 C            3.89831930        0.87227261       -0.47161998
 C            3.83818905       -0.71347410        1.23118369
 C            3.60583648        0.68491529        0.93746607
 C            2.92405292       -1.39346877        2.11706075
 C            2.72135628       -2.36055719       -0.00046041
 C            2.39692135       -2.54186735        1.39636550
 C            1.67375353       -2.23412121       -0.91523218
 C            2.80307153       -0.43126292       -2.06847634
 C            1.83672475       -1.43226152       -2.05999319
 C            3.03492760        1.75383557       -1.24177109
 C            2.36532751        0.94387470       -2.24839407
 C            2.29812702        2.70418510       -0.55556629
 C            2.50280848        1.34900436        1.47533031
 C            2.15941778        2.56348856        0.88686514
 C            1.78779324       -0.65998681        2.64131183
 C            1.53397590        0.63804612        2.20966287
 C            1.00369074       -2.66808284        1.75677260
 C            0.68667443       -1.59801819        2.69170733
 C            0.40467772       -2.73688388       -0.57414222
 C            0.06973495       -2.96388785        0.77054573
 C           -0.58976352       -2.80847511       -1.54746320
 C            0.76001381       -1.24010899       -2.91508647
 C           -0.41041869       -2.07664834       -2.78216434
 C            1.02347026        1.17350826       -2.56495494
 C            0.31773568        0.12500291       -3.16052202
 C            0.99430915        3.07572921       -1.06542236
 C            0.32718764        2.21908279       -1.94061880
 C            0.92981995        3.22058192        1.27070884
 C            0.26873662        3.65892965        0.05002755
 C            0.22962181        1.13326453        2.33165429
 C           -0.03609134        2.46861569        2.03656786
 C           -0.61894923       -1.11960609        2.70099856
 C           -0.83961803        0.26235592        2.59131216
 C           -1.26540125       -2.90089652        1.16294747
 C           -1.59955884       -2.00591429        2.25682285
 C           -1.98099562       -2.65632593       -1.16194084
 C           -2.32374060       -2.80138523        0.17178082
 C           -1.58318078       -1.23888240       -2.98203465
 C           -1.13458757        0.12697475       -3.17592595
 C           -2.51780602       -1.52851929       -1.91049128
 C           -1.06699076        2.27175585       -2.00274347
 C           -1.81618921        1.15312964       -2.54494194
 C           -1.14741842        3.37490732        0.19260663
 C           -1.34528319        2.83520481        1.53034663
 C           -1.82524935        2.80812949       -0.87954419
 C           -2.14691130        0.75528398        2.51502281
 C           -2.40459921        1.97493654        1.77049579
 C           -2.96026043       -1.55352168        2.06274123
 C           -3.36504487       -1.94861941        0.72251546
 C           -3.24445928       -0.14501147        2.21711713
 C           -3.13481989       -0.48069298       -1.22684160
 C           -2.89203177        0.84142366       -1.61199499
 C           -2.94441449        1.91417014       -0.62683422
 C           -3.30809102        1.62679369        0.68282497
 C           -3.73622980       -0.74318917        0.00245739
 C           -3.86216648        0.32007589        0.98433114




