%chk=000690.chk
%mem=8GB
%Nproc=48
#p B3LYP/6-31G* opt pop=NPA

Template file

0 1
 C            4.17529511        0.52484147       -0.95885930
 C            4.00380312        0.96157111        0.41527850
 C            3.48931085       -0.16319585        1.17628031
 C            3.83664962       -0.88386124       -1.00968264
 C            3.68286876       -1.34917109        0.35656657
 C            2.70945491       -1.05202454       -1.91381833
 C            3.20223856        1.23877902       -1.76313467
 C            2.25511992        0.27458264       -2.28978126
 C            3.22316840        2.17947859        0.39156670
 C            2.68453452        2.32880126       -0.95875765
 C            2.37740322        2.42272212        1.46386488
 C            2.29971456       -0.00390319        1.89637910
 C            1.87733828        1.28170080        2.22739109
 C            1.39876553       -1.07202238        1.98432258
 C            2.84288095       -2.42764078        0.56096815
 C            1.85580580       -2.33505184        1.61687886
 C            1.76618470       -2.02358699       -1.59433050
 C            2.10430466       -2.92559960       -0.58288865
 C            0.41320277       -1.77465565       -1.86612501
 C            0.90312468        0.57394914       -2.20023653
 C           -0.02652967       -0.46193875       -2.07511338
 C            1.34524418        2.68509317       -1.10781276
 C            0.51838370        1.88362839       -1.90672047
 C            1.26073384        3.31864062        1.24661944
 C            0.76704839        3.46426561       -0.10822236
 C            0.47075001        1.50894436        2.49739482
 C            0.15339539        2.85011658        2.05858183
 C            0.01526481       -0.81988228        2.07210945
 C           -0.43986029        0.49505152        2.23132465
 C           -0.91737708       -1.86835563        1.97340453
 C            0.90457296       -3.39324043        1.35433413
 C            1.09107053       -3.80078377       -0.03551520
 C           -0.50170684       -3.12584693        1.53859161
 C           -0.52510271       -2.77402829       -1.62086649
 C           -0.20986753       -3.81793884       -0.66434016
 C           -1.18332228       -3.71565666        0.40295190
 C           -1.91153641       -2.40881911       -1.39463694
 C           -2.32495627       -3.00616723       -0.12548867
 C           -1.39524496       -0.16171397       -2.10323843
 C           -2.34068635       -1.11696665       -1.69442888
 C           -0.81940617        2.22716876       -2.06408581
 C           -1.78111741        1.16486856       -2.31383171
 C           -0.67635622        3.55313610       -0.02343973
 C           -1.05872505        3.04517651        1.28994313
 C           -1.42511957        3.15873282       -1.12227311
 C           -1.75966248        0.82510600        1.90703623
 C           -2.06231593        2.08379972        1.35773423
 C           -2.27514296       -1.56501583        1.83413653
 C           -3.02897390       -2.20634707        0.75836542
 C           -2.71602710       -0.18348347        1.91501486
 C           -3.55172775       -0.70378709       -1.13147764
 C           -3.89597232       -1.20299848        0.18406124
 C           -3.89434929       -0.06212165        1.07760592
 C           -3.05981092        1.63359460       -1.81959427
 C           -2.78321223        2.70795110       -0.88406704
 C           -3.10248708        2.20430053        0.43698885
 C           -3.92489316        0.69414478       -1.14271144
 C           -4.03614280        1.11565938        0.24978352




