%chk=001144.chk
%mem=8GB
%Nproc=16
#p B3LYP/6-31G* opt pop=NPA

Template file

0 1
 C           -3.27523551        0.98125455        1.82625324
 C           -3.39163295       -0.45669336        1.83849032
 C           -3.78724196       -0.87328444        0.50316284
 C           -3.52349272        1.43314280        0.46311820
 C           -3.57827147        0.26261017       -0.37845983
 C           -2.54215273        2.44778575        0.16634688
 C           -2.02613159        1.58329600        2.24740452
 C           -1.86215332        2.75528367        1.41400267
 C           -0.90986757        0.78517428        2.50606059
 C           -2.23217728       -1.24190975        2.20106528
 C           -1.01330722       -0.61862352        2.47822834
 C           -3.09512619       -2.11637865        0.20752588
 C           -2.24141179       -2.41695947        1.34916679
 C           -2.60312683       -2.30127292       -1.07812057
 C           -2.68597562        0.12855183       -1.44076658
 C           -2.52028365       -1.15131592       -1.96714716
 C           -1.78567917        2.35725313       -0.99821688
 C           -1.72637355        1.13242472       -1.69768657
 C           -0.76937772        3.29927134       -1.14405560
 C           -0.61216196        3.34632981        1.34472871
 C           -0.17957774        3.86503890        0.05821050
 C            0.35118714        1.39535483        2.52700940
 C            0.52177407        2.65089413        1.93649936
 C            1.48763786        0.61928629        2.73151121
 C            0.14142337       -1.40362005        2.49495616
 C            1.35761671       -0.81999493        2.82129806
 C           -1.04810301       -3.09874012        1.15648329
 C            0.13348859       -2.65614289        1.87806307
 C           -1.40323059       -3.09665685       -1.28179832
 C           -0.62490953       -3.46048457       -0.19048225
 C           -1.46136336       -1.40697508       -2.91206038
 C           -0.74958819       -2.59931930       -2.47653925
 C           -0.71152230        0.91008952       -2.65337488
 C           -0.48818312       -0.36909455       -3.14413987
 C            0.30562628        3.06039943       -2.07611148
 C            0.36532805        1.78080733       -2.73731199
 C            1.26042763        3.69728414       -0.03253641
 C            1.67690105        2.86556045        1.07707878
 C            1.56512027        3.25643991       -1.37101555
 C            2.67027290        0.90061728        1.93264159
 C            2.55703764        1.80321391        0.87652456
 C            2.58942715       -1.40773022        2.31502542
 C            3.40623613       -0.33491367        1.77020260
 C            1.28873247       -3.08532627        1.10741435
 C            0.82574569       -3.31746919       -0.25390575
 C            2.50993845       -2.46260421        1.31958219
 C            0.66615576       -2.27875048       -2.42839935
 C            0.83799259       -0.94968165       -2.99391565
 C            1.42646690       -2.64512517       -1.32330387
 C            1.70607358        1.24473263       -2.55877839
 C            2.35052965        2.05101529       -1.53560101
 C            2.90785141        1.40867379       -0.43206904
 C            1.88372689       -0.14003534       -2.54624279
 C            3.81619172       -0.71534393        0.44075454
 C            3.28706014       -2.04265751        0.16909767
 C            2.65077573       -2.01242174       -1.13700470
 C            3.44631853        0.14469960       -0.66528960
 C            2.85459426       -0.68695973       -1.70357326




