%chk=000449.chk
%mem=8GB
%Nproc=48
#p B3LYP/6-31G* opt pop=NPA

Template file

0 1
 C            4.27084721        0.26162420        0.92622794
 C            3.69424326       -0.93649743        1.50939042
 C            3.56714226       -1.90851340        0.44927143
 C            4.18062603        0.13263111       -0.51930646
 C            3.78515786       -1.22336924       -0.81779841
 C            3.34596238        1.21031424       -1.00445366
 C            3.44163344        1.38621812        1.32010913
 C            3.01774380        2.07324491        0.11970746
 C            2.49643591       -0.55307709        2.23955583
 C            2.41066554        0.89775977        2.20693394
 C            1.32051063       -1.29816961        2.08952190
 C            2.31563214       -2.62091304        0.33588209
 C            1.33853328       -2.47065518        1.31722202
 C            2.60569369       -1.44037365       -1.64037877
 C            1.89312441       -2.55482664       -1.05224435
 C            2.34859611        0.95655658       -1.94284611
 C            1.86820317       -0.35719511       -2.11074759
 C            1.50419654        2.02510747       -2.21999407
 C            1.76952653        2.69098147        0.11503503
 C            1.19259688        2.93715428       -1.13097166
 C            1.15215862        1.46731342        2.11461703
 C            0.93282979        2.53066636        1.22744881
 C            0.09592772       -0.67632294        2.38167681
 C            0.06740933        0.71574587        2.54739379
 C           -1.09640283       -1.40887757        2.29903148
 C            0.13947416       -3.12157531        1.06440380
 C           -1.07500245       -2.66429554        1.70594666
 C            0.53540594       -2.70866220       -1.30618894
 C           -0.19122205       -3.38271798       -0.32590544
 C            0.53826418       -0.58145774       -2.48976604
 C           -0.11876078       -1.76197551       -2.10953068
 C            0.29405308        1.79821716       -2.97611482
 C           -0.19136170        0.44242011       -3.08938937
 C           -0.21465506        3.29155227       -1.22836205
 C           -0.76587864        2.59802787       -2.37987859
 C           -0.32612741        3.12968388        1.20931164
 C           -0.97325761        3.36866379       -0.07015181
 C           -1.12597343        1.37892937        2.79457408
 C           -1.35013750        2.64393517        2.12281764
 C           -2.32645374       -0.76386959        2.41675317
 C           -2.36797055        0.64307960        2.75462443
 C           -3.34001539       -0.98049085        1.39591780
 C           -2.18532101       -3.05989399        0.84976788
 C           -1.63100226       -3.48167613       -0.42742156
 C           -3.24470698       -2.10169799        0.58461120
 C           -1.49902144       -1.86520073       -2.31687219
 C           -2.29510234       -2.73949864       -1.47378805
 C           -3.33286352       -1.92715202       -0.85609430
 C           -1.62918653        0.49443015       -2.90067428
 C           -1.91773071        1.73027647       -2.19544041
 C           -2.28214931       -0.65828425       -2.51226626
 C           -3.22989096       -0.58658280       -1.41389399
 C           -2.26293410        2.69686150       -0.02685364
 C           -2.59090943        2.52346374        1.37263413
 C           -3.23691123        1.30019579        1.78716474
 C           -3.57423019        0.31405897        0.78082928
 C           -2.54152230        1.68347445       -0.94858618
 C           -3.20589241        0.51123408       -0.55246190




