%chk=000461.chk
%mem=8GB
%Nproc=48
#p B3LYP/6-31G* opt pop=NPA

Template file

0 1
 C            4.47588819       -0.57436655       -0.13269736
 C            3.84131101       -1.67747595        0.56092889
 C            3.24706649       -2.51697498       -0.45278493
 C            3.89537718       -0.50801962       -1.46616034
 C            3.18596685       -1.74333354       -1.68733807
 C            3.16168118        0.73971630       -1.55630921
 C            4.10335240        0.64487535        0.55431892
 C            3.62679900        1.56708643       -0.45510964
 C            2.97404414       -1.12859646        1.59307360
 C            3.18997518        0.30854076        1.63594797
 C            1.67782808       -1.61807043        1.72546156
 C            1.91512578       -3.02304280       -0.20869222
 C            1.29775284       -2.76600468        1.01002631
 C            1.79283333       -1.68454823       -2.08454362
 C            1.13799581       -2.78394501       -1.40851542
 C            1.79523307        0.74070410       -1.87337716
 C            1.12367157       -0.46184405       -2.15328753
 C            1.05644380        1.90061708       -1.60730893
 C            2.78841902        2.57424069       -0.02523768
 C            1.66690172        2.91930707       -0.86716573
 C            2.11012409        1.16563808        1.85283388
 C            2.21227752        2.44291003        1.30387859
 C            0.69715227       -0.76412687        2.24012196
 C            0.83713957        0.61995501        2.09134392
 C           -0.54085304       -1.29107594        2.59090408
 C           -0.01314252       -3.21099119        1.11796845
 C           -0.86728526       -2.62173434        2.12638040
 C           -0.24083597       -2.73915001       -1.27021344
 C           -0.78644603       -3.29306461       -0.11236192
 C           -0.27268206       -0.48756319       -2.14565603
 C           -0.93326328       -1.70331939       -1.89316589
 C           -0.33480518        1.89825318       -1.78212715
 C           -0.98062527        0.71858345       -2.16056996
 C           -1.10602979        2.95509696       -1.28749486
 C            0.86017103        3.78261996       -0.03304534
 C            1.06627820        3.32430687        1.33462807
 C           -0.56012394        3.81937362       -0.26458091
 C           -0.31239488        1.42888574        2.03318041
 C           -0.19695226        2.79406309        1.79125825
 C           -1.20821521        3.43219905        0.97937149
 C           -1.72784247       -0.46601548        2.44213434
 C           -1.58072560        0.83738434        1.98229539
 C           -2.22227841       -2.59952055        1.60409457
 C           -2.17830877       -3.03379668        0.21491479
 C           -2.79731229       -1.30260966        1.91957540
 C           -2.32182250       -1.74694118       -1.85948573
 C           -2.97086777       -2.37196010       -0.71461748
 C           -2.37456855        0.70753646       -2.25539238
 C           -3.07370746       -0.56146900       -2.20883153
 C           -2.45360417        2.67848311       -0.84175181
 C           -2.37456651        2.65661288        0.61266454
 C           -2.62169701        1.45081525        1.26535392
 C           -3.14457980        1.65407104       -1.46126520
 C           -3.71480429       -0.75187507        1.03683044
 C           -3.96442358       -1.43572331       -0.22377285
 C           -4.16354531       -0.43441766       -1.25481328
 C           -3.66278303        0.67281819        0.76003424
 C           -4.03571715        0.86688244       -0.63185076




