%chk=000873.chk
%mem=8GB
%Nproc=16
#p B3LYP/6-31G* opt pop=NPA

Template file

0 1
 C            4.23966979        0.12289006        0.71539519
 C            3.91075188       -1.25403924        0.99609769
 C            3.74287020       -1.91493488       -0.28892479
 C            4.19117421        0.28890244       -0.73120057
 C            3.48671707       -0.86402329       -1.25138859
 C            3.65303048        1.60299506       -0.99286892
 C            3.39951503        1.15939658        1.27517531
 C            3.39535916        2.22747935        0.29514555
 C            2.19582662        0.82700824        1.90380537
 C            2.70998948       -1.53349237        1.75726024
 C            1.77950054       -0.51255303        1.97746861
 C            2.73504926       -2.93260228       -0.10466608
 C            2.24238324       -2.80520202        1.25983604
 C            1.56913906       -2.91529862       -0.96524192
 C            2.19278113       -0.71650941       -1.76530945
 C            1.34535803       -1.83460237       -1.81488678
 C            2.42616263        1.70905272       -1.75107672
 C            1.69070804        0.56353333       -2.06723896
 C            2.19103062        3.02529205        0.15691681
 C            1.72730604        2.86036512       -1.21416875
 C            1.26839730        1.84419487        2.09759131
 C            1.26074410        2.98473522        1.18708660
 C           -0.10783413        1.51096121        2.39931488
 C            0.40905109       -0.83065668        2.09362006
 C           -0.53430546        0.19113865        2.29505494
 C            0.81896123       -3.03012023        1.21710495
 C            0.46973288       -3.38672820       -0.14755211
 C           -0.02431868       -2.15216855        1.88048329
 C           -0.83586403       -3.13422649       -0.55819838
 C            0.07438510       -1.70969522       -2.36086058
 C           -1.03162023       -2.45103574       -1.76348109
 C            0.35510891        0.71978031       -2.44922343
 C           -0.41715760       -0.39762527       -2.73061435
 C            0.37499916        2.99052635       -1.49093056
 C           -0.28176297        1.94512185       -2.25802531
 C           -0.12561882        3.30105232        0.89630764
 C           -0.93860596        2.57249850        1.85583910
 C           -0.53969655        3.38179118       -0.42930545
 C           -2.26039647        2.28699360        1.55018019
 C           -1.90413997       -0.06598844        2.16540660
 C           -2.78861934        0.99054413        1.92855431
 C           -1.37817990       -2.40116379        1.70630167
 C           -1.78951079       -3.01165389        0.45001681
 C           -2.34390205       -1.37607139        2.02316355
 C           -3.11663455       -2.52240047        0.13324176
 C           -3.53011039       -1.66373076        1.22989592
 C           -2.24767798       -1.67620606       -1.98611448
 C           -1.85179521       -0.36306177       -2.47735684
 C           -3.31107539       -1.78727235       -1.09999461
 C           -1.69445799        1.97188695       -1.91277017
 C           -1.85816230        2.89101975       -0.79246528
 C           -2.76228912        2.57425654        0.21178347
 C           -2.43626415        0.79168446       -1.95393470
 C           -3.96646180        0.77858012        1.10506523
 C           -4.27961931       -0.56394575        0.66100773
 C           -4.09324524       -0.60555590       -0.78385109
 C           -3.79878977        1.60045438       -0.08010397
 C           -3.60758612        0.69842912       -1.20236690




