%chk=000045.chk
%mem=8GB
%Nproc=16
#p B3LYP/6-31G* opt pop=NPA

Template file

0 1
 C            4.89926128        0.33199239       -0.43654487
 C            4.50875293        1.48872658        0.34332689
 C            3.82841503        1.01144689        1.53707455
 C            4.49685007       -0.84920840        0.30536083
 C            3.66782920       -0.41933769        1.42268788
 C            3.92332327       -1.76155540       -0.65780510
 C            4.12003661        0.34411521       -1.66495943
 C            3.64288147       -1.00276310       -1.87165456
 C            3.52850803        2.22712766       -0.43236463
 C            3.14459971        1.41513081       -1.56399255
 C            2.63633883        1.80665478        1.68747230
 C            2.48125376        2.60920915        0.48141329
 C            1.48562239        1.21274326        2.19622319
 C            2.39174332       -0.97244816        1.57689769
 C            1.32787936       -0.17810930        2.06194393
 C            2.69604584       -2.43803535       -0.29886083
 C            2.11582402       -2.19070707        0.94205121
 C            2.23893803       -1.19981718       -2.17609945
 C            1.82790256       -2.38539877       -1.45940247
 C            1.78431867        1.14246869       -1.73564393
 C            1.36577353       -0.11899581       -2.18469568
 C            1.18834699        2.73369555       -0.00589857
 C            0.83889111        2.01081092       -1.16003715
 C            0.35145148        2.00970275        2.13764387
 C            0.22400843        2.87258869        0.97528687
 C           -0.94975682        1.42801823        2.37643323
 C            0.05303106       -0.75517505        2.21075968
 C           -1.09814307        0.05209300        2.27621664
 C            0.88337430       -2.78638226        1.15413263
 C           -0.07408301       -2.12442498        2.01264227
 C            0.47178872       -2.58468828       -1.23278361
 C            0.14329572       -3.19304379       -0.02771511
 C            0.00691350       -0.40106628       -2.17239825
 C           -0.44055236       -1.67172154       -1.77841538
 C           -0.52103346        1.81903633       -1.45933206
 C           -0.88117198        0.66192810       -2.15850938
 C           -1.16240719        2.87847729        0.59010786
 C           -1.89660361        2.28949476        1.69495167
 C           -1.48984049        2.49888029       -0.70379303
 C           -3.16435718        1.80545207        1.43528871
 C           -2.37272192       -0.46947041        1.98910767
 C           -3.42801394        0.39713193        1.68526646
 C           -1.36741055       -2.68153932        1.67357873
 C           -1.24506682       -3.28540496        0.35241127
 C           -2.51617782       -1.80560614        1.63054734
 C           -1.81349538       -1.87202532       -1.57429473
 C           -2.23500230       -2.65676988       -0.49740564
 C           -3.23775236       -2.13038233        0.40963236
 C           -2.21592190        0.38957887       -2.41582495
 C           -2.70964389       -0.94026193       -2.09791642
 C           -2.84130062        2.31053799       -0.98377325
 C           -3.74510379        2.12423335        0.14217171
 C           -3.21246089        1.35148895       -2.00151006
 C           -4.42938862       -0.03479361        0.71853576
 C           -4.15694500       -1.21674356       -0.08019154
 C           -4.00805305       -0.78423760       -1.45932066
 C           -4.68285748        1.06960492       -0.19111506
 C           -4.37793374        0.61774406       -1.53690812




