%chk=001195.chk
%mem=8GB
%Nproc=16
#p B3LYP/6-31G* opt pop=NPA

Template file

0 1
 C            2.70519304       -2.32522472        1.22234384
 C            3.11572511       -1.71458117       -0.02943792
 C            3.64537781       -0.39462932        0.28557188
 C            2.70444440       -1.28756656        2.24154445
 C            3.26809363       -0.08374793        1.65622808
 C            1.37033065       -1.23346024        2.81413089
 C            1.42900383       -3.01194777        1.28509200
 C            0.66240696       -2.42176019        2.37273705
 C            0.79058610       -3.34685831        0.09848071
 C            2.34107596       -1.89868324       -1.17643535
 C            1.27400684       -2.79557216       -1.16118221
 C            2.43007193       -0.98032966       -2.21789383
 C            3.61405170        0.60017790       -0.68409665
 C            3.17481545        0.25186355       -2.02214622
 C            3.06318819        1.90923999       -0.36221799
 C            2.67777962        1.13961421        1.94703495
 C            2.62452018        2.17923600        0.93046274
 C            0.69932046       -0.01277494        2.86985104
 C            1.41778819        1.16830672        2.67582340
 C           -0.69932046        0.01277494        2.86985104
 C           -0.72264349       -2.38722243        2.30011665
 C           -1.41778819       -1.16830672        2.67582340
 C           -0.66208731       -3.37881741        0.04566571
 C           -1.40284603       -2.94283796        1.13913846
 C            0.12049242       -2.55149900       -2.01572202
 C           -1.06668142       -3.00392466       -1.29970952
 C            1.24051995       -0.66033536       -2.99184241
 C            0.07717686       -1.40225239       -2.80828994
 C            2.36993326        1.34872614       -2.53459677
 C            2.28181087        2.36318175       -1.50393169
 C            1.14472214        0.78919605       -3.07671933
 C            1.06668142        3.00392466       -1.29970952
 C            1.40284603        2.94283796        1.13913846
 C            0.72264349        2.38722243        2.30011665
 C            0.66208731        3.37881741        0.04566571
 C           -1.37033065        1.23346024        2.81413089
 C           -0.66240696        2.42176019        2.37273705
 C           -2.70444440        1.28756656        2.24154445
 C           -2.67777962       -1.13961421        1.94703495
 C           -2.62452018       -2.17923600        0.93046274
 C           -3.26809363        0.08374793        1.65622808
 C           -2.28181087       -2.36318175       -1.50393169
 C           -3.06318819       -1.90923999       -0.36221799
 C           -1.14472214       -0.78919605       -3.07671933
 C           -2.36993326       -1.34872614       -2.53459677
 C           -0.07717686        1.40225239       -2.80828994
 C           -0.12049242        2.55149900       -2.01572202
 C           -1.24051995        0.66033536       -2.99184241
 C           -0.79058610        3.34685831        0.09848071
 C           -1.42900383        3.01194777        1.28509200
 C           -2.70519304        2.32522472        1.22234384
 C           -1.27400684        2.79557216       -1.16118221
 C           -3.64537781        0.39462932        0.28557188
 C           -3.61405170       -0.60017790       -0.68409665
 C           -3.17481545       -0.25186355       -2.02214622
 C           -2.43007193        0.98032966       -2.21789383
 C           -3.11572511        1.71458117       -0.02943792
 C           -2.34107596        1.89868324       -1.17643535




