%chk=000809.chk
%mem=8GB
%Nproc=16
#p B3LYP/6-31G* opt pop=NPA

Template file

0 1
 C            4.24333302       -0.25923887        0.24094942
 C            3.72839473       -1.21647296        1.20199663
 C            3.11232069       -2.29723106        0.44955180
 C            3.90802686       -0.75137428       -1.08720795
 C            2.98515098       -1.85587672       -0.91968455
 C            3.49634385        0.37832905       -1.88572572
 C            3.81122687        1.12506524        0.31689749
 C            3.51522012        1.56041052       -1.03489198
 C            2.98135441        1.53614369        1.35394140
 C            2.77040898       -0.77553303        2.20179669
 C            2.47364157        0.57271524        2.32724718
 C            1.90173258       -2.68136801        1.14106950
 C            1.68726335       -1.74244279        2.23211721
 C            0.79010027       -3.05147448        0.39687737
 C            1.70267077       -1.79138191       -1.46368944
 C            0.71417557       -2.63485909       -0.94495652
 C            2.19912355        0.33915986       -2.52959820
 C            1.33378832       -0.73548886       -2.31572381
 C            2.28821445        2.29914650       -1.29310051
 C            1.66712028        1.68416814       -2.45179066
 C            1.90985599        2.48239491        1.08292457
 C            1.48180369        2.70146173       -0.22869159
 C            1.11559513        0.96425328        2.66145813
 C            0.92488045        2.30418899        2.13523821
 C            0.37675360       -1.33414983        2.50108122
 C            0.07740971        0.03339946        2.56535349
 C           -0.38267382       -3.19685842        1.12685438
 C           -0.63530332       -2.23660802        2.18822858
 C           -1.62817115       -3.46238535        0.44370733
 C           -0.48515718       -2.74405812       -1.64508026
 C           -1.66961090       -3.26677653       -0.98637576
 C           -0.00678420       -0.58509896       -2.68758519
 C           -0.89702038       -1.63331328       -2.48102220
 C            0.30900641        1.86143213       -2.64238942
 C           -0.51943971        0.69436757       -2.90486785
 C            0.13819217        3.00594215       -0.46852067
 C           -0.42320575        2.70126891       -1.71090470
 C           -0.36515016        2.74641428        1.91679017
 C           -0.69683884        3.28911123        0.61175377
 C           -1.23173659        0.49252433        2.34769151
 C           -1.46012429        1.87015290        2.28179797
 C           -1.99877109       -1.77139375        2.03999935
 C           -2.64608359       -2.61819724        1.04595585
 C           -2.26048592       -0.40745338        2.03161382
 C           -2.77875190       -2.37478564       -1.28255468
 C           -2.28872588       -1.33396018       -2.17029182
 C           -3.39929514       -1.99069715       -0.02661140
 C           -1.86888304        1.00813696       -2.45844901
 C           -1.82154506        2.31088237       -1.80495685
 C           -2.67080926       -0.01233979       -1.94974656
 C           -2.13924401        3.16886192        0.46221803
 C           -2.62448275        2.38005366        1.58519564
 C           -2.68091765        2.58919467       -0.75333722
 C           -3.39457050        0.02894026        1.34270350
 C           -3.79863588       -0.67290917        0.13787989
 C           -3.60932637        0.26843370       -0.95513815
 C           -3.59460448        1.43879293        1.07917074
 C           -3.66675955        1.59838033       -0.36716819




