%chk=000533.chk
%mem=8GB
%Nproc=48
#p B3LYP/6-31G* opt pop=NPA

Template file

0 1
 C           -3.88137152       -1.85294908       -0.63041266
 C           -4.19417599       -0.58408235       -0.00254377
 C           -3.62005860       -0.58419148        1.33514930
 C           -3.08083462       -2.61733474        0.30589386
 C           -2.79202296       -1.77145145        1.45191660
 C           -1.95829122       -3.15558775       -0.43251183
 C           -3.04318851       -1.57589888       -1.78556803
 C           -1.84200278       -2.37156283       -1.65382334
 C           -3.80052119        0.46641596       -0.92384196
 C           -2.90581372       -0.13994534       -1.89921846
 C           -3.45912091        1.70087140       -0.39083468
 C           -3.14999793        0.61537947        1.84532559
 C           -3.34774256        1.82000957        1.05603402
 C           -1.80183839        0.67006999        2.39129013
 C           -1.46587715       -1.66612104        1.87715460
 C           -0.94166598       -0.41524203        2.22919269
 C           -0.79489662       -3.40338772        0.27544321
 C           -0.59618340       -2.69840041        1.53713112
 C            0.46441680       -3.30958928       -0.43396376
 C           -0.60782604       -1.79971279       -1.95444073
 C            0.53659577       -2.49064089       -1.55902080
 C           -1.64002806        0.40981202       -2.08570597
 C           -0.51766378       -0.42480019       -2.23299932
 C           -2.33733300        2.42536630       -0.96376457
 C           -1.46741861        1.77195917       -1.83960095
 C           -2.24972791        2.72232636        1.34543195
 C           -1.29239103        2.01246653        2.17473306
 C           -1.78770196        3.27201462        0.08635978
 C            0.05985131        2.17671169        1.90826763
 C            0.44495181       -0.19367089        2.20404821
 C            0.93476085        1.12434724        2.17229984
 C            0.83252314       -2.51733261        1.70782077
 C            1.48191518       -3.18812689        0.59108579
 C            1.32214289       -1.28725471        2.12890482
 C            2.75322982       -2.78015463        0.21653202
 C            1.77709226       -2.01791778       -1.96108493
 C            2.94795793       -2.32111613       -1.14916626
 C            0.73685114        0.14309796       -2.49894456
 C            1.88469932       -0.64184617       -2.40562234
 C           -0.24729007        2.36641651       -2.12972530
 C            0.89135233        1.52597442       -2.44810939
 C           -0.45629422        3.64613828       -0.00449642
 C            0.45923574        3.19347486        1.03399965
 C            0.21919602        3.44053463       -1.27105604
 C            2.06408275        2.08298477       -1.78512119
 C            1.79147890        3.15785096        0.44784144
 C            1.62612623        3.21657692       -0.99165397
 C            2.29512502        1.36461254        2.01468990
 C            2.71902519        2.26529278        0.95972543
 C            2.69847603       -1.08559294        2.05127552
 C            3.46463927       -1.86517794        1.09176837
 C            3.22534718        0.25843305        2.02473170
 C            3.78828945       -1.13631400       -1.11169928
 C            3.07897539       -0.07076913       -1.79948258
 C            3.00797322        1.21004604       -1.25183604
 C            3.50199067        1.45907111        0.03610041
 C            4.20883080       -0.93499174        0.25814449
 C            4.06214634        0.38290865        0.83795723




