%chk=000173.chk
%mem=8GB
%Nproc=48
#p B3LYP/6-31G* opt pop=NPA

Template file

0 1
 C            4.38631932        0.97032890       -0.90153885
 C            4.36300432        1.30055303        0.51275726
 C            4.06232729        0.08516546        1.24903681
 C            4.10505832       -0.44757882       -1.03153294
 C            4.01409258       -1.01436448        0.30287413
 C            2.97096454       -0.60065469       -1.93098182
 C            3.29927541        1.68759225       -1.54258487
 C            2.48782572        0.72520533       -2.27119774
 C            3.26616431        2.22591166        0.73491881
 C            2.64008480        2.50674566       -0.54079531
 C            2.89503902        0.34006423        2.07919606
 C            2.43168010        1.68633087        1.78948341
 C            1.94423074       -0.66751738        2.23723252
 C            3.08411940       -2.01900174        0.51927078
 C            2.18781931       -1.91749099        1.66051316
 C            2.03624149       -1.59381430       -1.66554745
 C            2.26184067       -2.46074166       -0.59367897
 C            0.73638157       -1.44480665       -2.15179492
 C            1.11363631        0.93775565       -2.31570655
 C            0.25706241       -0.15923494       -2.45424968
 C            1.25342999        2.57546904       -0.58457184
 C            0.61809042        2.09745530       -1.72393224
 C            1.06190844        1.89495670        1.71673794
 C            0.53254729        2.57279560        0.61275190
 C            0.63203460       -0.30833127        2.56542844
 C            0.23555415        1.02657440        2.41854082
 C           -0.33035210       -1.30916876        2.69571670
 C            1.07693310       -2.82027425        1.39458193
 C            1.14308021       -3.18815930       -0.01514573
 C           -0.15289874       -2.56022709        1.98206241
 C           -0.15396395       -2.49556538       -1.95532158
 C           -0.02695510       -3.29739135       -0.75267116
 C           -1.56421748       -2.29799559       -2.20042204
 C           -1.11883341        0.08216938       -2.59204989
 C           -2.03547225       -0.96306180       -2.49426947
 C           -0.72527633        2.38852597       -1.87162348
 C           -1.58456507        1.39065199       -2.47867329
 C           -0.85230401        2.76496575        0.54576257
 C           -1.43441349        2.91030958       -0.71805767
 C           -1.10046121        1.38355543        2.55499300
 C           -1.63115917        2.37899737        1.64129684
 C           -1.74075625       -0.97196601        2.64224211
 C           -2.11468994        0.35750210        2.73203998
 C           -1.37953641       -2.82741584        1.24466684
 C           -1.31158141       -3.25996280       -0.07348286
 C           -2.28830823       -2.77400183       -1.02864185
 C           -2.35910150       -1.81938820        1.63059554
 C           -3.25936886       -0.77389755       -1.73026792
 C           -3.21269223       -1.72608979       -0.63242732
 C           -3.21866404       -1.25741193        0.68156076
 C           -2.93358218        1.63265037       -1.98792358
 C           -2.84503372        2.63003448       -0.93155735
 C           -3.71282180        0.51482595       -1.48651042
 C           -3.05377444        2.11605325        1.49306383
 C           -3.31025200        0.79128371        2.03323020
 C           -3.82722698       -0.03349315        0.95511678
 C           -3.65624386        2.17998653        0.17820371
 C           -4.16223969        0.85459163       -0.14671643




