%chk=000841.chk
%mem=8GB
%Nproc=16
#p B3LYP/6-31G* opt pop=NPA

Template file

0 1
 C            4.31479289        0.22106899       -0.20235361
 C            4.06420735        1.40716835        0.59066644
 C            3.38743707        0.97745959        1.80934665
 C            4.07559802       -0.91962712        0.66080470
 C            3.21481365       -0.45947326        1.73466777
 C            3.60012672       -1.99075912       -0.18592942
 C            3.52615614        0.00443631       -1.40559515
 C            3.30752357       -1.42251251       -1.49806695
 C            2.47753661        0.87429509       -1.70075199
 C            3.26725009        2.46402712        0.00142106
 C            2.52838363        2.18322071       -1.21646884
 C            2.21432344        1.80816287        1.97541623
 C            2.28763550        2.86924250        0.99239496
 C            0.97900324        1.21179714        2.18270326
 C            1.93403749       -1.00183194        1.85703224
 C            0.86440169       -0.18319948        2.25467907
 C            2.41301662       -2.71126690        0.22166853
 C            1.68038348       -2.27204855        1.32599925
 C            1.99677303       -1.90630615       -1.89066074
 C            1.69703509       -3.01222016       -1.00216151
 C            1.27618310        0.37821669       -2.22879492
 C            0.98603526       -0.99211387       -2.18059525
 C            0.26294644        1.27431626       -2.55911205
 C            1.30646201        2.95936087       -1.13367501
 C            1.06896915        3.21718676        0.27820252
 C            0.23004980        2.58042210       -1.91747211
 C           -0.15771353        1.96562312        1.91742918
 C           -0.15617147        2.83292458        0.81818147
 C           -1.36219173        1.51033066        2.42517152
 C           -0.39757036       -0.74864818        2.48633446
 C           -1.50453128        0.08485953        2.65990498
 C            0.43750708       -2.85706203        1.53561420
 C           -0.62565052       -2.07801816        2.14458119
 C            0.38213518       -3.42736385       -0.89113650
 C           -0.14657081       -3.62469525        0.44719200
 C           -0.34502237       -1.42736251       -2.13262820
 C           -0.63433839       -2.69996663       -1.63199048
 C           -1.10803912        0.79992364       -2.65468725
 C           -1.39215259       -0.53338543       -2.37418073
 C           -1.10962653        2.75490836       -1.38429204
 C           -1.28180223        2.88809433       -0.00680123
 C           -1.96860579        1.85032269       -2.12545197
 C           -2.59750385        1.99968512        1.84419431
 C           -2.53472220        2.63513887        0.54351014
 C           -2.78829420       -0.32200006        2.10745140
 C           -3.52219974        0.88275090        1.75537988
 C           -1.88129499       -2.44127346        1.49767987
 C           -1.56896233       -3.34244833        0.40412035
 C           -1.89461352       -2.92536929       -0.94564824
 C           -2.84595795       -1.45735563        1.29948628
 C           -2.69498431       -0.89380348       -2.02784012
 C           -2.90621256       -1.99626284       -1.10814806
 C           -3.52953288       -1.42541278        0.07648079
 C           -3.20856979        1.51903285       -1.59695458
 C           -3.56869057        2.03701931       -0.28722927
 C           -4.18678751        0.96026765        0.47170497
 C           -3.65222922        0.13924402       -1.66399072
 C           -4.21018103       -0.21872003       -0.36680272




