%chk=000979.chk
%mem=8GB
%Nproc=16
#p B3LYP/6-31G* opt pop=NPA

Template file

0 1
 C            4.26004200       -0.58377148        0.23725756
 C            3.61405040       -1.32083279        1.30443690
 C            3.03205846       -2.50047032        0.70180998
 C            3.75191076       -1.10812237       -1.02550536
 C            2.90882691       -2.23825370       -0.72110392
 C            3.18160955       -0.00449220       -1.76158944
 C            4.09559273        0.85276360        0.20511803
 C            3.67862752        1.21012345       -1.13934972
 C            3.13817855        1.46554657        1.10576588
 C            2.56218286       -0.67413319        2.07381916
 C            2.25887742        0.66349763        1.84274858
 C            1.81737576       -2.80964875        1.43169163
 C            1.47389225       -1.62597413        2.21139958
 C            0.80297016       -3.43269752        0.72409471
 C            1.63990113       -2.32741102       -1.28349750
 C            0.80768152       -3.29057787       -0.72545590
 C            1.84624051       -0.05566423       -2.15919143
 C            1.06239674       -1.19216191       -1.88996949
 C            1.22450952        1.14525013       -2.48815154
 C            2.77914351        2.34559643       -1.02417235
 C            2.61546815        2.62055150        0.39829124
 C            1.66226093        2.37961482       -1.84869717
 C            1.42846440        3.17634476        0.84906913
 C            0.96819369        1.12770885        2.10226167
 C            0.71469733        2.48302254        1.90357603
 C            0.15674771       -1.16472317        2.19743338
 C           -0.09852240        0.21565656        2.20429516
 C           -0.56307406       -3.20778493        1.14290997
 C           -0.86738396       -2.06106275        1.87468367
 C           -0.55772137       -3.39438585       -1.17990959
 C           -1.39112447       -3.54695717        0.00172508
 C           -0.32114583       -1.16560365       -2.16630281
 C           -1.10168224       -2.30140994       -1.94878362
 C           -0.21446391        1.19937467       -2.61649641
 C           -0.96124055        0.03995341       -2.47989752
 C            0.47619033        3.09736794       -1.40989565
 C            0.42569676        3.59774972       -0.11605958
 C           -0.68285268        2.41565176       -1.96859132
 C           -0.64634635        2.96252516        1.86899417
 C           -0.84501207        3.61830442        0.58177069
 C           -1.42328507        0.67431377        2.29361963
 C           -1.71918003        2.01145367        2.03971088
 C           -2.18819122       -1.62758223        1.90748454
 C           -2.47009983       -0.23930233        2.21289677
 C           -2.60248018       -2.78305570       -0.21375279
 C           -2.48097101       -2.14592280       -1.52192499
 C           -3.10511826       -2.05005452        0.85390776
 C           -2.33146463        0.18155822       -2.25935957
 C           -3.11520111       -0.93360952       -1.75555837
 C           -1.89832376        2.38839508       -1.28322941
 C           -2.01051779        3.00794748       -0.03569766
 C           -2.72199916        2.33257808        1.03858590
 C           -2.81792958        1.40003198       -1.62815842
 C           -3.67342906        0.13605647        1.48456937
 C           -4.00759354       -0.94970959        0.57923902
 C           -4.04619083       -0.41191131       -0.76662963
 C           -3.67018175        1.37266202        0.72083624
 C           -3.85106083        1.02568624       -0.67707111




