%chk=000654.chk
%mem=8GB
%Nproc=48
#p B3LYP/6-31G* opt pop=NPA

Template file

0 1
 C            3.74191560       -2.05449805       -0.47326269
 C            3.13256588       -2.35976241        0.80833441
 C            1.85672381       -3.00117852        0.55262101
 C            2.75005058       -2.30543001       -1.50509279
 C            1.62971631       -2.98264760       -0.88697992
 C            2.49022114       -1.05738430       -2.19094687
 C            4.03970173       -0.63536966       -0.49243296
 C            3.44526803       -0.07782868       -1.69308874
 C            3.15139949       -1.15713147        1.61659362
 C            3.65198259       -0.06907252        0.79034068
 C            2.08335152       -0.92077514        2.46373335
 C            0.77815555       -2.74018624        1.39791660
 C            0.92200753       -1.80322939        2.42460335
 C           -0.49753880       -3.03771740        0.92615290
 C            0.34406117       -2.70755524       -1.33935138
 C           -0.69966511       -3.10470609       -0.51151445
 C            1.16290106       -0.68213293       -2.39238888
 C            0.14595787       -1.62912700       -2.21441659
 C            0.83309574        0.67438043       -2.48537287
 C            3.06476581        1.25246760       -1.65730006
 C            1.81934312        1.63654948       -2.29253952
 C            3.00801666        1.17019790        0.79511778
 C            3.07912337        1.93330444       -0.37414824
 C            1.59806060        0.43642831        2.62507397
 C            2.01874407        1.43901497        1.75651451
 C           -0.22666924       -1.02565104        2.86788709
 C            0.19440830        0.36263777        3.00346721
 C           -1.66182572       -2.38330714        1.50161377
 C           -1.49283563       -1.30425968        2.36803698
 C           -2.05584672       -2.68104979       -0.80057775
 C           -2.69016772       -2.34552761        0.46915137
 C           -1.15067661       -1.28837390       -2.59830033
 C           -2.28451978       -1.90200372       -1.92582697
 C           -0.50747581        1.05616945       -2.43725864
 C           -1.46610800        0.11581383       -2.79195395
 C           -0.88418052        2.15033347       -1.64943698
 C            1.44220972        2.91611446       -1.72062529
 C            2.25825000        3.11632953       -0.52975282
 C            0.05638419        3.12851325       -1.34714779
 C            1.24986254        2.59933287        1.68453946
 C            1.37864767        3.49308798        0.55063134
 C            0.05190044        3.68228545       -0.01102694
 C           -0.67853367        1.38619197        2.63266836
 C           -0.16321869        2.53637055        2.02882858
 C           -0.90647795        3.15108294        0.93620500
 C           -2.45735786       -0.30338668        2.42439103
 C           -2.03014614        1.08706892        2.45208033
 C           -3.68535641       -1.37665725        0.52337198
 C           -3.64037185       -0.38669804        1.58190072
 C           -3.37562591       -0.94460369       -1.92660584
 C           -2.84474036        0.32777040       -2.38884514
 C           -4.10212377       -0.69981624       -0.69405813
 C           -2.05356936        2.08003649       -0.88451846
 C           -2.03035649        2.48872654        0.45908539
 C           -2.75968911        1.77466173        1.40115970
 C           -3.85044395        0.92056399        0.97907749
 C           -3.11792955        1.32037522       -1.36773237
 C           -4.06534136        0.73125747       -0.43859462




