%chk=000430.chk
%mem=8GB
%Nproc=48
#p B3LYP/6-31G* opt pop=NPA

Template file

0 1
 C            4.14293310       -0.40920107        1.35742377
 C            3.54672685       -1.72147681        1.19080384
 C            3.55797142       -2.03134532       -0.21961294
 C            4.25310363        0.19190753        0.03825746
 C            3.94255186       -0.82369717       -0.93956546
 C            3.46086299        1.40178268        0.04210120
 C            3.22024964        0.40013455        2.13712370
 C            2.94653011        1.60423728        1.38780841
 C            2.27291170       -1.72005149        1.88135303
 C            2.09286189       -0.42470344        2.51050470
 C            1.16070396       -2.30464588        1.28967746
 C            2.33398986       -2.51787286       -0.82485257
 C            1.20787558       -2.76067918       -0.03816725
 C            2.90240419       -0.55381899       -1.91773890
 C            2.15971686       -1.79102319       -2.06587505
 C            2.61622997        1.69341686       -1.02756187
 C            2.20269535        0.65752940       -1.89074724
 C            1.79413452        2.80026173       -0.84992378
 C            1.69282575        2.19295606        1.50948676
 C            1.32672638        3.07784416        0.49882760
 C            0.82092517        0.14377642        2.48452343
 C            0.68517823        1.51046769        2.20758163
 C           -0.07912702       -1.99745280        1.83510715
 C           -0.28576729       -0.70063010        2.33107037
 C           -1.15381953       -2.77164637        1.43047530
 C           -0.00000589       -3.01288959       -0.69623451
 C           -1.12907339       -3.28325572        0.07413231
 C            0.88992163       -1.73953630       -2.61233916
 C           -0.17038424       -2.52264511       -1.99551382
 C            0.96490521        0.72795262       -2.55450383
 C            0.32203269       -0.44427626       -2.94890923
 C            0.69217252        3.02005118       -1.75565082
 C            0.21053446        1.89595008       -2.52057374
 C           -0.03892820        3.55883000        0.41553875
 C           -0.42099493        3.55426105       -0.98842953
 C           -0.58080409        2.08122647        2.29369307
 C           -0.95807648        3.13841354        1.36506080
 C           -1.57826637       -0.16516219        2.43153088
 C           -1.73634837        1.21804866        2.47904270
 C           -2.49598291       -2.32815460        1.72728270
 C           -2.68983059       -0.94450409        2.10186899
 C           -2.44300334       -3.05495167       -0.50021733
 C           -3.32012391       -2.59649259        0.56133597
 C           -1.42915781       -1.89674084       -2.37733879
 C           -1.12310733       -0.54025697       -2.79431230
 C           -2.55684689       -2.12927658       -1.61016142
 C           -1.22986571        1.79880127       -2.31935396
 C           -1.62538453        2.84786729       -1.39484601
 C           -1.81785463        0.53642453       -2.24512974
 C           -2.32845245        2.89570327        0.94890958
 C           -2.84857855        1.81058053        1.75823199
 C           -2.59979324        2.58163182       -0.44556951
 C           -3.71413856       -0.39005829        1.22238604
 C           -3.89883688       -1.33468538        0.14018727
 C           -3.34971854       -0.99531044       -1.16136443
 C           -2.88856411        0.30645811       -1.37003532
 C           -3.63385486        0.95305403        0.89372585
 C           -3.29498486        1.30687246       -0.48052418




