%chk=000160.chk
%mem=8GB
%Nproc=48
#p B3LYP/6-31G* opt pop=NPA

Template file

0 1
 C            4.57153042       -0.00163214       -0.99365979
 C            4.51735970        1.13247451       -0.08962421
 C            4.06476936        0.65175589        1.20443131
 C            4.18143912       -1.18440076       -0.24587390
 C            3.91725441       -0.79043816        1.12386746
 C            3.12674579       -1.84553611       -0.99056740
 C            3.57482108        0.20706959       -2.03215221
 C            2.75776099       -0.98041837       -2.10423360
 C            3.50482815        2.04386979       -0.58825784
 C            2.90912009        1.46280356       -1.77857130
 C            2.91445982        1.45078256        1.60069961
 C            2.61876832        2.36993664        0.51549077
 C            1.84747320        0.83005340        2.24805861
 C            2.84651341       -1.37697428        1.78152416
 C            1.93759142       -0.53351672        2.54073451
 C            2.10669518       -2.49925778       -0.30112504
 C            2.02485590       -2.36414172        1.08868571
 C            0.95195776       -2.79991315       -1.01644380
 C            1.40638652       -0.85486517       -2.40782466
 C            0.62921227       -1.97626123       -2.17121151
 C            1.52410624        1.51990400       -1.88829572
 C            0.79820489        0.41068378       -2.35356234
 C            1.28373838        2.60970651        0.22350069
 C            0.86448166        2.45287138       -1.09864434
 C            0.58657870        1.43541107        2.19918122
 C            0.34752102        2.42559431        1.23848114
 C           -0.48453608        0.80637032        2.83444387
 C            0.72481487       -1.30689046        2.74032743
 C            0.72118791       -2.37009532        1.74719994
 C           -0.45504120       -0.63575490        3.00446199
 C           -0.29275187       -3.04861134       -0.31187697
 C           -0.43047437       -2.61135547        1.00089551
 C           -0.80946200       -1.87974181       -2.25558035
 C           -1.35700433       -2.79270780       -1.26289221
 C           -0.60375569        0.51760906       -2.42722119
 C           -1.40304900       -0.63525536       -2.43725544
 C           -0.45065080        2.74614752       -1.41371159
 C           -1.19150235        1.76290457       -2.18323347
 C           -0.94541025        2.89350483        1.01592935
 C           -1.31636775        3.21620442       -0.34891206
 C           -1.85244899        1.18104865        2.51327535
 C           -2.07980788        2.23108452        1.63764877
 C           -1.69525130       -1.15744362        2.46157461
 C           -1.66034962       -2.09835488        1.43014607
 C           -2.62953353       -0.04381690        2.39480782
 C           -2.63290419       -2.55473369       -0.78462030
 C           -2.79416731       -2.27193548        0.63368911
 C           -2.78274787       -0.53945941       -2.24227330
 C           -3.45269672       -1.60335677       -1.50988471
 C           -2.58519935        1.85260042       -1.77804881
 C           -2.64771631        2.69751546       -0.59480362
 C           -3.14744579        2.13775506        0.65085701
 C           -3.37806839        0.71855323       -1.82704639
 C           -3.69534977       -0.10806926        1.50684352
 C           -3.90527495       -1.34275457        0.77200362
 C           -4.36882379       -0.99880408       -0.56108581
 C           -3.94744416        1.00163295        0.59663645
 C           -4.26494097        0.44064868       -0.70690170




