%chk=000844.chk
%mem=8GB
%Nproc=16
#p B3LYP/6-31G* opt pop=NPA

Template file

0 1
 C            4.20686925       -0.66957031       -0.34507265
 C            4.15872462       -0.37262254        1.07232336
 C            3.27927739       -1.35274373        1.69615720
 C            3.59620557       -1.97311157       -0.53112655
 C            2.81473750       -2.25789676        0.66070026
 C            2.91687068       -1.94805863       -1.80955460
 C            3.56363515        0.24171965       -1.27990730
 C            2.92996408       -0.57564537       -2.29522361
 C            2.88467183        1.36085621       -0.80026997
 C            3.71174256        0.94297084        1.48294772
 C            3.15113392        1.83666752        0.48609258
 C            2.29569084       -0.63001224        2.47765444
 C            2.68977814        0.76548098        2.50111549
 C            0.95096405       -0.92275559        2.30435471
 C            1.44577306       -2.50139132        0.53414656
 C            0.56765499       -2.00749414        1.51012210
 C            1.54457298       -2.40484189       -1.86197084
 C            0.93939972       -2.89601894       -0.70927118
 C            1.57920084       -0.24279458       -2.71325570
 C            0.79284163       -1.45880636       -2.66868317
 C            1.74304538        1.81539736       -1.46815321
 C            0.99820623        0.92670960       -2.25625130
 C            1.13821603        2.98402008       -1.01050459
 C            2.13284297        2.60911091        1.17440747
 C            1.66593501        1.77666967        2.27075842
 C            1.18858266        3.27265160        0.41241819
 C            0.01600439        0.06617041        2.59168324
 C            0.32331633        1.39585665        2.30252031
 C           -1.30987517       -0.30797663        2.71124166
 C           -0.78617557       -2.35034351        1.45568547
 C           -1.69254630       -1.62547300        2.23691707
 C           -0.41367518       -3.18184434       -0.80971374
 C           -1.23665412       -3.11366616        0.37950588
 C           -0.58198375       -1.38399731       -2.44727954
 C           -1.15876516       -2.50455317       -1.85837103
 C           -0.39001536        1.03369662       -2.30256854
 C           -1.18443168       -0.12628085       -2.25587858
 C           -0.20471745        3.30987937       -1.45930631
 C           -0.96166210        2.29126337       -2.15746128
 C           -0.18806730        3.26105533        0.86623512
 C           -0.62798972        2.19603285        1.65662773
 C           -0.97128456        3.67606931       -0.27766665
 C           -2.33836845        0.62688515        2.29536737
 C           -1.96498166        1.77313505        1.59669537
 C           -3.10011381       -1.55960441        1.87851154
 C           -3.47683757       -0.15491522        1.83246411
 C           -2.60680431       -2.99068470       -0.09363900
 C           -2.54137651       -2.46202971       -1.44831760
 C           -3.54676274       -2.17934093        0.65034251
 C           -2.53767609       -0.04291050       -1.86609710
 C           -4.03180489        0.11976146        0.51768149
 C           -3.21807459       -1.18701327       -1.45251047
 C           -4.01206142       -1.12345943       -0.23528493
 C           -2.32473995        2.39722217       -1.69444933
 C           -2.29858737        3.13163839       -0.43647201
 C           -2.80828480        2.23441395        0.58109909
 C           -3.06858540        1.17906551       -1.46192013
 C           -3.64295478        1.28345710       -0.12959556




