%chk=000021.chk
%mem=8GB
%Nproc=16
#p B3LYP/6-31G* opt pop=NPA

Template file

0 1
 C            4.74606573       -1.17455967       -0.11310134
 C            5.01741990        0.22208491       -0.39232307
 C            4.70260857        0.97371850        0.80859965
 C            4.11103049       -1.25796081        1.19522867
 C            4.06859779        0.06825516        1.75696372
 C            2.85759032       -1.96277874        1.02601228
 C            3.77831642       -1.63629486       -1.09191936
 C            2.75212346       -2.34588089       -0.36887349
 C            4.10043484        0.65073361       -1.43820994
 C            3.35724302       -0.51009920       -1.89770821
 C            3.71835366        1.97601204        0.44898397
 C            3.34784403        1.78768464       -0.93972398
 C            2.77233108        0.62511666        2.10242701
 C            2.65802074        1.90504244        1.42867732
 C            1.69306361       -1.50494352        1.65290945
 C            1.63207451       -0.19100519        2.14824498
 C            0.50040461       -2.10763677        1.25200901
 C            1.47350652       -2.36065303       -0.89227480
 C            0.47321837       -2.71333200       -0.00988567
 C            1.99340958       -0.36134449       -2.14273049
 C            1.13448422       -1.44201023       -1.89424551
 C            1.99489413        1.86822903       -1.25549242
 C            1.46088835        0.92691572       -2.13385687
 C            1.38717207        2.27195199        1.03199780
 C            1.13356275        2.46277716       -0.32994901
 C            0.38448980        0.45599686        2.18988974
 C            0.34208904        1.80032831        1.80443247
 C           -0.69619659       -1.65870199        1.80596847
 C           -0.79258007       -0.30788747        2.15701593
 C           -1.84531579       -2.39993624        1.54271410
 C           -0.74599040       -3.02706838       -0.57373341
 C           -1.89258294       -3.13566674        0.29821838
 C           -0.22142331       -1.32068618       -2.24382545
 C           -1.13361889       -2.25543520       -1.74070759
 C            0.14586585        1.09319674       -2.53732329
 C           -0.69574192       -0.08432420       -2.68219994
 C           -0.19006885        2.70456278       -0.71178909
 C           -0.65267900        2.12598784       -1.89687782
 C           -0.87686836        2.41561975        1.60661621
 C           -1.10434220        3.00315775        0.29918060
 C           -2.03931138        0.34193069        2.15329567
 C           -2.08467730        1.72305057        1.98271248
 C           -3.14865852       -1.80128970        1.73146699
 C           -3.22132361       -0.39257254        2.04442419
 C           -3.04210844       -2.66218339       -0.44426929
 C           -2.53403327       -1.89003411       -1.56861436
 C           -3.91928569       -2.02093411        0.51084165
 C           -2.06716510        0.31726492       -2.39248622
 C           -2.04814142        1.72806005       -2.02918864
 C           -2.92374680       -0.56179576       -1.73324148
 C           -2.53062084        2.93565427        0.03493529
 C           -3.15167336        2.32247354        1.19771810
 C           -2.99116874        2.21933044       -1.13718457
 C           -4.33098907        0.14027228        1.26721727
 C           -4.51900758       -0.75678511        0.14308689
 C           -4.02544960       -0.05973069       -1.03395270
 C           -4.22775936        1.48009434        0.72495440
 C           -4.08457502        1.35802818       -0.72105467




