%chk=000114.chk
%mem=8GB
%Nproc=48
#p B3LYP/6-31G* opt pop=NPA

Template file

0 1
 C            4.45586513        0.69292952        1.23870945
 C            4.78735338        0.06720941       -0.02909133
 C            4.20013606       -1.25920768       -0.03369238
 C            3.61098023       -0.22549250        1.98303015
 C            3.47068802       -1.44362685        1.21109181
 C            2.40403697        0.48248892        2.35820041
 C            3.66514559        1.87703060        0.95502199
 C            2.44256525        1.79646589        1.73943178
 C            4.14114504        0.82801917       -1.08510613
 C            3.55254852        2.01283273       -0.48641221
 C            3.47008703       -1.41282426       -1.27880724
 C            3.27854753       -0.07916728       -1.83017284
 C            2.39584908       -2.28389907       -1.28350526
 C            2.21805245       -2.04909934        1.14996338
 C            1.89877382       -2.76399464       -0.00437709
 C            1.19933498       -0.20577832        2.34145981
 C            1.17752998       -1.54500958        1.93984529
 C            0.02378896        0.53629682        2.26830531
 C            1.26322170        2.30248527        1.19653661
 C            0.04529453        1.78512718        1.63801098
 C            2.34940413        2.47170262       -0.99798102
 C            1.30540367        2.87372701       -0.07020677
 C            1.99501541        0.34885760       -2.18373944
 C            1.68440207        1.69546205       -2.03410066
 C            1.22220587       -1.93014696       -2.05303657
 C            0.95897574       -0.58494933       -2.31458435
 C            0.53019111       -3.20284875       -0.22076363
 C            0.15475439       -2.78286722       -1.56492432
 C           -0.04406427       -2.21419292        1.94148685
 C           -0.38305786       -3.07178976        0.81556779
 C           -1.19268719       -0.10823785        2.48113808
 C           -1.24959092       -1.49247970        2.32085648
 C           -2.36914377        0.63259970        2.40618256
 C           -1.14133109        2.30194042        1.11304228
 C           -2.33976940        1.90529526        1.70639295
 C            0.08263419        2.92390859       -0.84512882
 C            0.29672650        2.10775184       -2.03262264
 C           -1.13951449        2.80009690       -0.19878628
 C           -0.37402893       -0.16166808       -2.45447171
 C           -0.69586562        1.20201646       -2.38945350
 C           -1.15342240       -2.41113195       -1.82458852
 C           -1.39405056       -1.11873191       -2.44029546
 C           -1.78955283       -2.86822990        0.50720936
 C           -2.36102684       -2.08972333        1.59332986
 C           -2.17174470       -2.60239567       -0.80349159
 C           -3.59957191       -0.04742822        2.03982943
 C           -3.50067557       -1.32860021        1.36875399
 C           -3.58870339        2.04154702        0.97573423
 C           -4.37709867        0.84172508        1.19692932
 C           -2.22224382        2.52567946       -1.02716324
 C           -2.00959056        1.59331123       -2.12054331
 C           -3.52146287        2.26276863       -0.44953222
 C           -2.75361226       -0.73426993       -2.10556780
 C           -3.22750615       -1.63675013       -1.05926950
 C           -3.97854048       -1.14345830        0.00454712
 C           -4.55536542        0.18640454       -0.08852036
 C           -3.07764965        0.61248111       -2.06615471
 C           -4.06978569        1.08983860       -1.11451635




