%chk=000429.chk
%mem=8GB
%Nproc=48
#p B3LYP/6-31G* opt pop=NPA

Template file

0 1
 C           -4.22485186       -0.05880217       -1.24463933
 C           -3.61845826       -1.36468609       -1.43285031
 C           -3.56420022       -2.00855294       -0.14227050
 C           -4.25528534        0.20746607        0.18390455
 C           -3.91756331       -1.01769958        0.86758694
 C           -3.43890305        1.37646117        0.42981145
 C           -3.35126801        0.92668119       -1.85933509
 C           -3.00218818        1.90432964       -0.85382223
 C           -2.37883909       -1.17787755       -2.16057306
 C           -2.26892766        0.22643049       -2.51202408
 C           -1.22077535       -1.83855973       -1.75530134
 C           -2.31390593       -2.61139743        0.27405692
 C           -1.20738560       -2.60533283       -0.57679212
 C           -2.84148833       -0.99659304        1.84289095
 C           -2.11543113       -2.23807727        1.65925857
 C           -2.53005178        1.39230250        1.48629125
 C           -2.11905189        0.17862365        2.07516871
 C           -1.68160422        2.49292719        1.52831739
 C           -1.74487422        2.49827493       -0.91280022
 C           -1.26937565        3.07785346        0.26221785
 C           -1.00365916        0.79930951       -2.48339351
 C           -0.82242930        2.04746208       -1.86756674
 C           -0.00928072       -1.38393634       -2.27502960
 C            0.09630285       -0.04132539       -2.65490615
 C            1.13498805       -2.13488061       -2.03062019
 C            0.02434837       -2.98826710       -0.03780444
 C            1.14241385       -2.99797387       -0.86677561
 C           -0.83680029       -2.33610713        2.17559148
 C            0.20332349       -2.92351972        1.34714155
 C           -0.86279571        0.07395169        2.69647462
 C           -0.25208894       -1.17231852        2.82113401
 C           -0.53613993        2.47794145        2.40651413
 C           -0.08483676        1.20429055        2.91409016
 C            0.12823284        3.46118763        0.37500782
 C            0.57528205        3.10528110        1.70823108
 C            0.44138869        2.63505442       -1.90595619
 C            0.97858799        3.23743612       -0.69677186
 C            1.34327862        0.52776432       -2.88621113
 C            1.53054762        1.92648797       -2.55785081
 C            2.44996378       -1.52668096       -2.15347267
 C            2.54458521       -0.18151867       -2.48668242
 C            2.47135948       -2.94376431       -0.27895312
 C            3.29091505       -2.06625827       -1.09848903
 C            1.47193947       -2.47015893        1.89471542
 C            1.19538626       -1.27318336        2.68092606
 C            2.60978361       -2.52831955        1.10484631
 C            1.35321521        1.12636967        2.70185505
 C            1.73570798        2.24544716        1.85375449
 C            1.95158737       -0.11386394        2.49356030
 C            2.28903013        2.64681051       -0.45854374
 C            2.70407146        2.02639699       -1.70394748
 C            3.33707449        0.72314490       -1.66004376
 C            2.56178658        2.01191969        0.75716311
 C            3.98267216       -1.14814111       -0.21443601
 C            3.54528852       -1.42101898        1.14548069
 C            3.12445325       -0.16573279        1.74272863
 C            3.85313980        0.27871971       -0.44993600
 C            3.40180567        0.89822240        0.78907925




