%chk=000398.chk
%mem=8GB
%Nproc=48
#p B3LYP/6-31G* opt pop=NPA

Template file

0 1
 C            4.52681304       -0.51182725        0.06913685
 C            3.86567994       -1.72421521        0.51299187
 C            3.33086520       -2.36928513       -0.66589713
 C            4.07299593       -0.24091689       -1.28679248
 C            3.36451893       -1.40739453       -1.75890423
 C            3.36915246        1.02142452       -1.26833263
 C            4.06585918        0.57404675        0.91599322
 C            3.51676249        1.60324213        0.05626966
 C            2.94491044       -1.37012758        1.58387289
 C            3.20915467        0.01601085        1.94092006
 C            1.62619032       -1.83645251        1.53472823
 C            1.98117228       -2.87682884       -0.59877137
 C            1.29588009       -2.84126449        0.61119181
 C            1.99975711       -1.24932336       -2.24244592
 C            1.27258004       -2.40659624       -1.77587181
 C            2.13390699        1.14350122       -1.90142387
 C            1.37655676       -0.00690879       -2.17756171
 C            1.47100988        2.34305688       -1.69637607
 C            2.47276441        2.39345881        0.52887220
 C            1.69452796        3.03153156       -0.43292219
 C            2.16447192        0.79802636        2.40328328
 C            1.90218574        2.08747410        1.77272745
 C            0.60658431       -1.09096861        2.15191108
 C            0.87856858        0.17588571        2.65815288
 C           -0.72553028       -1.48279740        2.01203103
 C           -0.01618171       -3.28610976        0.55465634
 C           -0.97450065       -2.74646372        1.48910965
 C           -0.11126910       -2.35370629       -1.68170112
 C           -0.66486335       -3.21478861       -0.74279197
 C           -0.02554936        0.04277659       -2.12673883
 C           -0.77172974       -1.14002509       -1.93854007
 C            0.06298454        2.44260861       -2.00886713
 C           -0.67093304        1.28146600       -2.22778426
 C            0.44943827        3.66266900       -0.04680177
 C           -0.49090319        3.45879888       -1.13422809
 C            0.50520097        2.41042809        2.04556230
 C           -0.13841922        1.20533452        2.54621401
 C           -0.19273752        3.23897492        1.18011370
 C           -1.73733971       -0.50642657        2.01323282
 C           -1.39908311        0.85037450        2.07662530
 C           -3.06487189       -0.86502696        1.78320044
 C           -2.27551823       -3.05822246        0.93080642
 C           -2.08615981       -3.17748520       -0.50884795
 C           -3.36059196       -2.12853462        1.14246482
 C           -2.16546762       -1.07000287       -1.76012189
 C           -2.84541730       -2.11402876       -1.12148067
 C           -3.89722821       -1.80717134       -0.16867251
 C           -2.05794122        1.35547624       -2.11622809
 C           -2.82842285        0.13835556       -1.96107631
 C           -1.78964097        3.20863762       -0.55226439
 C           -1.57739080        2.92999979        0.86368887
 C           -2.18999598        1.80764839        1.42425523
 C           -2.64861652        2.37369373       -1.24813695
 C           -3.94636081        0.10714772        1.17131917
 C           -4.39350097       -0.45137045       -0.10097918
 C           -3.98636186        0.46884329       -1.14174295
 C           -3.43041946        1.43574285        0.90785146
 C           -3.69754601        1.72763434       -0.48887946




