%chk=000432.chk
%mem=8GB
%Nproc=48
#p B3LYP/6-31G* opt pop=NPA

Template file

0 1
 C            4.25072855       -0.42492666        1.01703858
 C            3.58125176       -1.70783285        1.11832151
 C            3.43182498       -2.22797475       -0.22058664
 C            4.22340589       -0.02768264       -0.38166922
 C            3.76193363       -1.15751089       -1.15344696
 C            3.48014455        1.21072407       -0.46828000
 C            3.46681096        0.54363531        1.76619484
 C            3.18578717        1.65264401        0.88617710
 C            2.38716539       -1.52237883        1.91792515
 C            2.33784758       -0.13917156        2.35647079
 C            1.19337328       -2.11583072        1.52989912
 C            2.13705513       -2.74803627       -0.61404051
 C            1.09193055       -2.80146965        0.30796539
 C            2.61419718       -0.98215999       -2.02668022
 C            1.85772670       -2.21619489       -1.93178483
 C            2.48855427        1.37158498       -1.43857569
 C            1.92511245        0.23626081       -2.04593310
 C            1.72691544        2.53093738       -1.33659919
 C            2.00949012        2.36569603        1.06964933
 C            1.60575116        3.12956376       -0.01912504
 C            1.10308810        0.50792224        2.35622616
 C            1.02569056        1.84024028        1.92694990
 C            0.02911186       -1.64048123        2.11840886
 C           -0.06247393       -0.26921753        2.40982525
 C           -1.11584592       -2.40353166        1.95717782
 C           -0.18392499       -3.10361317       -0.17855364
 C           -1.23991440       -3.16397079        0.72868936
 C            0.54357662       -2.21543315       -2.36015803
 C           -0.45958619       -2.86443935       -1.52973634
 C            0.58072105        0.24205691       -2.45223837
 C           -0.03578483       -0.96069145       -2.80316052
 C            0.41460891        2.58667802       -1.94528195
 C           -0.18539410        1.40788235       -2.36402089
 C            0.35394938        3.84974195        0.03580443
 C           -0.36999133        3.55380857       -1.19035591
 C           -0.19050626        2.50671776        2.06216836
 C           -0.52767505        3.58869465        1.15032251
 C           -1.31234546        0.36284587        2.51314803
 C           -1.39894740        1.73202312        2.27983484
 C           -2.39884888       -1.81746690        2.26024242
 C           -2.48059446       -0.37789582        2.34712579
 C           -2.60062862       -3.00111814        0.24679866
 C           -3.34523745       -2.26556503        1.25313092
 C           -1.74671811       -2.30821293       -1.92559308
 C           -1.47824622       -1.09384532       -2.68292095
 C           -2.80904119       -2.35093211       -1.03209496
 C           -1.57987755        1.33260465       -2.38044903
 C           -2.24151797        0.04180512       -2.46216143
 C           -1.73856842        3.22561754       -0.83136697
 C           -1.85113274        3.32498858        0.61116037
 C           -2.40990340        2.20675943        1.34618255
 C           -2.35793475        2.16345561       -1.47323216
 C           -3.45037574        0.07510034        1.36000390
 C           -3.90323922       -1.08602297        0.61700622
 C           -3.61098035       -1.15626553       -0.80008946
 C           -3.30339226        0.02317989       -1.46571053
 C           -3.18727522        1.26199984        0.68222587
 C           -3.23185085        1.27470370       -0.71822842




