%chk=001072.chk
%mem=8GB
%Nproc=16
#p B3LYP/6-31G* opt pop=NPA

Template file

0 1
 C            3.64377742       -1.69801863        0.52922459
 C            4.03930342       -0.31223918        0.68900576
 C            3.41294707        0.18831475        1.90070211
 C            2.77225106       -2.04235263        1.64329455
 C            2.50720951       -0.83705966        2.39345865
 C            1.64651839       -2.77719054        1.11700564
 C            2.98093156       -2.10716175       -0.69849464
 C            1.80034708       -2.86645896       -0.32581484
 C            2.90829295       -1.22845786       -1.77211684
 C            3.75292887        0.62553595       -0.38055277
 C            3.39329725        0.14106559       -1.63291513
 C            2.87724920        1.50808082        1.61855070
 C            3.01500553        1.74642084        0.18994910
 C            1.70066714        1.88198158        2.24592084
 C            1.18824782       -0.48576468        2.67099188
 C            0.90871701        0.85949530        2.91337005
 C            0.37231627       -2.53469653        1.61922824
 C            0.13979182       -1.37363820        2.37676299
 C           -0.68034472       -3.11369960        0.91182596
 C            0.64726983       -2.80253956       -1.10419701
 C           -0.51205182       -3.30208624       -0.52074511
 C            1.69057360       -1.18910511       -2.56382652
 C            0.53715365       -1.80010957       -2.07852844
 C            2.58115939        0.98070651       -2.49109570
 C            1.59274784        0.13511425       -3.14393835
 C            1.96056029        2.32076447       -0.52585457
 C            1.87017074        2.10030282       -1.90112645
 C            0.77032504        2.74020258        1.53947345
 C            0.87409258        2.88316210        0.15517288
 C           -0.46588486        1.32655339        2.94963751
 C           -0.53580432        2.54308892        2.15269334
 C           -1.17081846       -1.00302848        2.68782293
 C           -1.49491030        0.39931715        2.89159256
 C           -2.04837384       -2.69276869        1.14843399
 C           -2.28709713       -1.61278868        1.98551931
 C           -1.78678751       -3.05216686       -1.15723422
 C           -2.76619671       -2.80968398       -0.10979765
 C           -0.71243882       -1.23101565       -2.36529168
 C           -1.86730525       -1.95967856       -2.10096455
 C            0.31879758        0.82725499       -3.08609316
 C            0.57299047        2.15268865       -2.54873199
 C           -0.81215854        0.13558187       -2.66103864
 C           -0.23669878        3.32070673       -0.56596664
 C           -0.46025564        2.81323026       -1.90876551
 C           -1.68064480        2.82963186        1.42091040
 C           -1.53350728        3.39039878        0.09066632
 C           -2.69990126        0.69988244        2.13285819
 C           -3.19944375       -0.54887388        1.57886573
 C           -2.77722091        1.87228785        1.38533645
 C           -3.61236507       -1.71743542       -0.54819459
 C           -3.09897503       -1.24759135       -1.82744001
 C           -3.77723853       -0.55918824        0.31218927
 C           -1.92989714        0.86701265       -2.24106733
 C           -1.78428380        2.21612062       -1.92238333
 C           -2.50484182        2.74631453       -0.77823951
 C           -3.30013920        1.83498226        0.02611551
 C           -3.06338753        0.19975560       -1.78430888
 C           -3.67666759        0.61884243       -0.53185483




