%chk=000556.chk
%mem=8GB
%Nproc=48
#p B3LYP/6-31G* opt pop=NPA

Template file

0 1
 C            4.28621400        1.06673830        0.30087431
 C            3.95581534        0.64961056       -1.05042458
 C            3.61937743       -0.76311352       -1.01052341
 C            3.99400891       -0.04657449        1.18518653
 C            3.81379836       -1.22333659        0.36175643
 C            2.90180528        0.34436930        2.05986473
 C            3.39346487        2.15268909        0.65800928
 C            2.67813928        1.76646771        1.86150742
 C            2.98162648        1.58232506       -1.58154772
 C            2.61756396        2.50843052       -0.51907956
 C            1.98709697        1.09522135       -2.41291895
 C            2.52506982       -1.23128985       -1.74623241
 C            1.78555161       -0.34450446       -2.53191378
 C            1.96625404       -2.46351027       -1.41182125
 C            2.97903216       -2.21781469        0.84226883
 C            2.30565525       -3.05084766       -0.12907167
 C            1.81358227       -0.52293495        2.19683093
 C            1.98974413       -1.85980292        1.85560809
 C            0.51829814       -0.00553789        2.32879374
 C            1.40030152        2.26377041        2.03543865
 C            0.35750069        1.36570214        2.49600487
 C            1.28030334        2.86462353       -0.34500758
 C            0.81392442        3.04257864        0.95928227
 C            0.67820824        1.71864077       -2.38269490
 C            0.36388064        2.63521078       -1.37989618
 C            0.36111568       -0.57742247       -2.73728891
 C           -0.30352052        0.70937494       -2.75102397
 C            0.54400304       -2.69535447       -1.63477121
 C           -0.25396665       -1.65452164       -2.11564043
 C            1.07889817       -3.51762696        0.48056543
 C            0.83045774       -2.70425384        1.65950516
 C            0.06026329       -3.54010602       -0.55076192
 C           -0.60502297       -0.80346518        2.05268817
 C           -0.44724492       -2.18202983        1.82436202
 C           -1.88264285       -0.21140981        1.95483096
 C           -0.90305626        1.98329690        2.13696085
 C           -0.61001917        3.07379663        1.21111598
 C           -2.01619292        1.18491338        1.90649202
 C           -0.98175293        2.95046660       -1.19181829
 C           -1.46101153        3.28375815        0.14094283
 C           -1.59168138        0.82477845       -2.24688605
 C           -1.98190888        2.08667223       -1.79879198
 C           -1.59251135       -1.55586969       -1.71626125
 C           -2.26639129       -0.32149253       -1.79756633
 C           -1.25018801       -3.38503903       -0.13977133
 C           -1.47490251       -2.88951797        1.20868242
 C           -2.13689063       -2.60502429       -0.97131504
 C           -3.00484919       -1.01204623        1.72318224
 C           -2.81566923       -2.35684511        1.23511665
 C           -3.29916476       -2.37558375       -0.13997563
 C           -3.56978885       -0.20052551       -1.29906418
 C           -4.10552240       -0.48412577        0.94180630
 C           -4.05974940       -1.16826255       -0.34076274
 C           -3.09607763        1.76486408        1.23499543
 C           -2.82230382        2.79409431        0.25204398
 C           -3.20285722        2.24715581       -1.03943050
 C           -4.12741416        0.93087314        0.65648126
 C           -4.01865367        1.07936714       -0.78893604




