%chk=001000.chk
%mem=8GB
%Nproc=16
#p B3LYP/6-31G* opt pop=NPA

Template file

0 1
 C            4.05214567       -1.24274561       -0.44770920
 C            4.10038481       -0.06622726        0.39525342
 C            3.89034058        1.07206619       -0.47356610
 C            3.43557741       -0.84587676       -1.70925506
 C            3.21238805        0.58304591       -1.65846228
 C            2.30291028       -1.71529336       -1.93322289
 C            3.32908566       -2.39661797        0.04084938
 C            2.44141047       -2.83061250       -1.02347576
 C            2.50223390       -2.24778629        1.22434407
 C            3.14685842        0.05527790        1.48802243
 C            2.23574452       -0.96960831        1.72135413
 C            3.21604854        2.08656639        0.30431605
 C            2.68355078        1.42909553        1.49670839
 C            2.37204104        2.94361412       -0.38068961
 C            1.94975592        1.09974241       -1.94946304
 C            1.69254155        2.41604392       -1.56215651
 C            1.03859529       -1.16283593       -2.09047346
 C            0.86872340        0.22926539       -2.15678149
 C           -0.07423842       -1.97980106       -1.88088560
 C            1.23795693       -3.33840247       -0.39087427
 C            1.40564389       -3.17580900        1.04896723
 C           -0.00055128       -3.02644640       -0.94947813
 C            0.26919542       -3.00034669        1.82030065
 C            0.94724641       -0.65954542        2.16999181
 C            0.06133149       -1.70118629        2.44735177
 C            1.37683221        1.71711686        1.89320532
 C            0.47082695        0.66001144        2.09792532
 C            1.37967110        3.64502347        0.40063847
 C            0.90114265        2.99521872        1.60556875
 C            0.32402463        2.90681575       -1.54426707
 C            0.22927084        3.85898437       -0.45270103
 C           -0.42510176        0.74732641       -2.28190419
 C           -0.72211606        2.01388431       -1.76505225
 C           -1.31130761       -1.53104529       -2.32775637
 C           -1.45975555       -0.11749181       -2.62442508
 C           -2.52233153       -1.97670064       -1.66008476
 C           -1.12905885       -3.35782096       -0.20250726
 C           -0.99793147       -3.40464443        1.24195659
 C           -2.40847852       -2.74360645       -0.50732156
 C           -1.36572473       -1.43901292        2.45853106
 C           -2.02660208       -2.55412022        1.80256902
 C           -2.98318435       -2.26755472        0.75006933
 C           -0.91092125        0.91030524        2.21631662
 C           -1.81679894       -0.15237763        2.19914184
 C           -0.51181935        3.27437969        1.69373181
 C           -0.93372466        3.81050027        0.40330870
 C           -1.41371895        2.19381994        2.02335213
 C           -1.98300726        2.27303161       -1.20095252
 C           -2.06436929        3.01693249       -0.02449825
 C           -2.57039258        2.36242864        1.16573328
 C           -2.82298999        0.25940104       -2.31662235
 C           -3.47840986       -0.88504610       -1.70104855
 C           -3.04408906        1.41439167       -1.47117532
 C           -3.63444941       -1.04223405        0.78514488
 C           -3.07719900        0.01836371        1.61391746
 C           -3.42584668        1.28710231        0.99402741
 C           -4.08020566       -0.44154199       -0.45927662
 C           -3.87915467        0.99258285       -0.35651071




