%chk=000446.chk
%mem=8GB
%Nproc=48
#p B3LYP/6-31G* opt pop=NPA

Template file

0 1
 C            4.14983997        1.27489810       -0.67671270
 C            3.76120006        0.29766143       -1.67908531
 C            3.85915299       -1.00514212       -1.06626370
 C            4.15012957        0.60382940        0.61269714
 C            4.06403624       -0.81422070        0.36429858
 C            3.12826049        1.22156751        1.43389350
 C            3.12140761        2.29772143       -0.63948573
 C            2.61021067        2.37544899        0.71189998
 C            2.48085961        0.70562345       -2.23230600
 C            2.17232400        2.01926853       -1.69342701
 C            1.44258295       -0.22492023       -2.36036814
 C            2.74551668       -1.91538745       -1.22218775
 C            1.66774234       -1.57259257       -2.03429446
 C            3.04033038       -1.57576656        1.05376418
 C            2.46188719       -2.48634891        0.08164700
 C            2.23354010        0.43494882        2.16277782
 C            2.19578243       -0.95988347        1.97584643
 C            1.13562236        1.09209641        2.71662975
 C            1.27099681        2.70993419        0.88807155
 C            0.66530071        2.30965081        2.07598179
 C            0.84131754        2.31824089       -1.45915366
 C            0.47112548        2.90752246       -0.24406143
 C            0.12856899        0.25882678       -2.46442703
 C           -0.11451114        1.60851845       -2.17300681
 C           -0.93677316       -0.63685105       -2.63027794
 C            0.59028998       -2.44659568       -2.00803767
 C           -0.71204938       -1.99520060       -2.44923451
 C            1.18610646       -2.99802535        0.30584450
 C            0.39395479       -3.25561972       -0.81273654
 C            1.08757047       -1.69232203        2.39653559
 C            0.57876007       -2.75818007        1.54236928
 C           -0.02557915        0.34684469        3.16623627
 C           -0.04703288       -1.02944159        3.01334949
 C           -0.78146210        2.36079222        2.20651701
 C           -1.21186202        1.13326593        2.85986806
 C           -0.86481079        3.26552767       -0.06692074
 C           -1.53490769        2.89675635        1.17014160
 C           -1.40194254        2.12515374       -2.21602883
 C           -1.79961016        3.03393753       -1.15776503
 C           -2.25258199       -0.17998558       -2.56997353
 C           -2.51304224        1.23960657       -2.47632604
 C           -3.20034422       -0.85698070       -1.69669112
 C           -1.70675388       -2.78157545       -1.73723254
 C           -1.03054742       -3.48203724       -0.65814733
 C           -2.86063387       -2.10023444       -1.17890470
 C           -0.87354907       -2.78380436        1.67888206
 C           -1.26034708       -1.69363166        2.56077831
 C           -1.66914601       -3.10955284        0.58717943
 C           -2.83171388       -2.29433923        0.26502184
 C           -2.37930278        0.49877832        2.44835144
 C           -2.40077984       -0.94664123        2.28425763
 C           -3.20726846       -1.25622493        1.11295220
 C           -2.81563561        2.29934072        0.82383567
 C           -3.04207228        2.53626154       -0.59027324
 C           -3.50278809        1.44479140       -1.42811924
 C           -3.77715367        0.15216718       -0.82523560
 C           -3.18958420        1.08410081        1.39151108
 C           -3.69063133       -0.00157655        0.55554516




