%chk=000133.chk
%mem=8GB
%Nproc=48
#p B3LYP/6-31G* opt pop=NPA

Template file

0 1
 C            3.89641832        2.11617614        0.88179885
 C            4.28144880        1.70735910       -0.45784890
 C            4.36305449        0.26202420       -0.46617925
 C            3.61736348        0.91902299        1.65753097
 C            3.94021080       -0.22955673        0.83740825
 C            2.27039282        1.02954056        2.18432202
 C            2.65372508        2.85177455        0.77251367
 C            1.72229886        2.30100854        1.74506774
 C            3.21029692        2.07846513       -1.36904978
 C            2.24075242        2.84809329       -0.62024665
 C            3.63711816       -0.20733663       -1.63403535
 C            2.75392736        0.87637262       -2.04308861
 C            3.11496582       -1.48635047       -1.57466305
 C            3.09330537       -1.33228710        0.86003179
 C            3.09574966       -2.13745917       -0.27821035
 C            1.44403781       -0.08809077        2.14968959
 C            1.94858626       -1.30613060        1.67576252
 C            0.05973914        0.10130807        2.23874937
 C            0.36964468        2.34788609        1.42751358
 C           -0.47411126        1.36926905        1.95481311
 C            0.89213666        2.63748375       -0.86286547
 C            0.02922072        2.88981835        0.19227564
 C            1.37795074        0.64752700       -2.14124516
 C            0.49315193        1.67473609       -1.79953275
 C            1.80075489       -1.72321061       -2.13619524
 C            0.90006726       -0.66292856       -2.21506287
 C            2.15787166       -3.23254614       -0.38293128
 C            1.35626667       -2.98307235       -1.57539768
 C            1.13377404       -2.43375758        1.74183454
 C            1.24933658       -3.45854504        0.71833140
 C           -0.77990932       -1.01180898        2.36814392
 C           -0.28212016       -2.27054871        2.02710995
 C           -2.16206109       -0.83801025        2.30188557
 C           -1.84737479        1.51971574        1.74572280
 C           -2.70621234        0.49247443        2.12460853
 C           -1.31034162        2.99354412       -0.11946482
 C           -2.27026837        2.49875567        0.84255191
 C           -0.88267090        1.47885584       -1.97070116
 C           -1.71844686        2.43750611       -1.39143152
 C           -0.46921169       -0.89895371       -2.05736423
 C           -1.35998520        0.17206198       -2.16857314
 C           -0.03256272       -3.12058598       -1.20024367
 C           -0.06788394       -3.64904505        0.14398071
 C           -1.02657007       -3.06152029        1.05461386
 C           -0.92704701       -2.10310700       -1.49892363
 C           -2.90785585       -1.71756458        1.41747096
 C           -2.17388906       -2.48596013        0.52462108
 C           -2.14933718       -2.10533079       -0.82936692
 C           -4.00924970        0.34016283        1.48741610
 C           -4.07665533       -1.00761105        0.94738876
 C           -3.51057666        2.34247795        0.10076850
 C           -3.14753169        2.21579759       -1.30596964
 C           -4.39985736        1.25262388        0.43171702
 C           -2.72948764       -0.10358568       -2.07805903
 C           -3.14726090       -1.28015163       -1.33507101
 C           -4.25886078       -0.90177839       -0.48176391
 C           -3.67011852        0.96038243       -1.78160673
 C           -4.60610937        0.47460989       -0.78055089




