%chk=000098.chk
%mem=8GB
%Nproc=48
#p B3LYP/6-31G* opt pop=NPA

Template file

0 1
 C            4.56983675       -0.33623329        0.64319095
 C            4.50319253        1.04606993        0.20907863
 C            3.95007814        1.05902577       -1.13188967
 C            4.03356837       -1.16216338       -0.42517111
 C            3.53518644       -0.29428833       -1.46638417
 C            3.10366789       -2.08032398        0.17617657
 C            3.68428982       -0.48829087        1.78604172
 C            2.87710051       -1.66211753        1.55166449
 C            3.55265362        1.73354841        1.06412258
 C            2.99730806        0.76392229        1.99297283
 C            2.94862800        2.10508160       -1.17401629
 C            2.62993406        2.45882854        0.20342935
 C            1.89692532        1.94184252       -2.05699134
 C            2.24178086       -0.49228964       -1.95790779
 C            1.60069490        0.59824835       -2.54297531
 C            1.98500546       -2.46662345       -0.54169399
 C            1.47696060       -1.59278021       -1.52571240
 C            1.08112678       -3.21548534        0.19220585
 C            1.56015108       -1.68559160        2.00937369
 C            0.78449959       -2.73822399        1.53370522
 C            1.61788436        0.74768843        2.15644967
 C            0.92532705       -0.46697381        2.30349782
 C            1.28927404        2.52696924        0.58621355
 C            0.90949586        1.87692931        1.76061750
 C            0.62294704        2.54215341       -1.72374682
 C            0.31583735        2.78537050       -0.38532853
 C            0.17471097        0.54328591       -2.80897729
 C           -0.35399666        1.87361273       -2.55512663
 C            0.12195137       -1.68938041       -1.90397486
 C           -0.55634611       -0.56488594       -2.39794764
 C           -0.15652946       -3.60679273       -0.42737645
 C           -0.60200067       -2.83064847       -1.55970610
 C           -0.65724502       -2.68307467        1.65696499
 C           -1.18652189       -3.51486028        0.59125699
 C           -0.47118501       -0.41748852        2.44101314
 C           -1.26336416       -1.46327753        1.94262940
 C           -0.39258577        2.00915015        2.20365600
 C           -1.05160719        0.82021256        2.70909853
 C           -1.02900675        2.84560546       -0.00301473
 C           -1.34335561        2.68791047        1.34851458
 C           -1.68624042        2.00168475       -2.21648416
 C           -2.01710960        2.69245301       -0.98250858
 C           -1.94839021       -0.44240484       -2.25909017
 C           -2.53140191        0.82466985       -2.27043882
 C           -2.04349653       -2.75364727       -1.44995742
 C           -2.39482475       -3.09474133       -0.07565216
 C           -2.69948872       -1.50086774       -1.75963195
 C           -2.58656289       -1.23122328        1.52325227
 C           -3.11976202       -1.96454051        0.46275248
 C           -3.64300177       -1.24646321       -0.68172267
 C           -2.47492914        1.00376977        2.51787708
 C           -2.66099218        2.23483809        1.76229829
 C           -3.22330951       -0.03925844        1.85422008
 C           -3.36419283        2.27571311       -0.62379982
 C           -3.67170678        1.08600973       -1.40430613
 C           -4.11113579        0.04626594       -0.48884377
 C           -3.67747018        1.99510564        0.76102136
 C           -4.07225729        0.59897511        0.85708116




