%chk=000855.chk
%mem=8GB
%Nproc=16
#p B3LYP/6-31G* opt pop=NPA

Template file

0 1
 C            4.04854415        1.42759125        0.24560443
 C            4.38324427        0.02213594        0.23999154
 C            3.91698638       -0.51930136       -1.03317193
 C            3.60538368        1.75340997       -1.09784430
 C            3.14427962        0.51348015       -1.68490232
 C            2.66103261        2.83201765       -0.96594882
 C            2.99771702        1.88811281        1.13685557
 C            2.40107487        3.01409591        0.45888604
 C            2.17136600        0.95312336        1.76620279
 C            3.82842389       -0.80858656        1.28807814
 C            2.67268294       -0.32560267        2.02788535
 C            3.27136517       -1.77743989       -0.75592844
 C            3.43595405       -2.05114305        0.66053755
 C            2.02729505       -2.04545611       -1.31057143
 C            1.77324007        0.31325394       -1.88461719
 C            1.23748480       -0.97931079       -1.79104937
 C            1.36352155        2.68555480       -1.58564361
 C            0.91456174        1.41911813       -1.98124567
 C            0.97697541        3.22994134        0.59044517
 C            0.49444973        3.48102462       -0.75160326
 C            0.78816309        1.18016759        1.85946943
 C            0.22281732        2.38383898        1.39918786
 C           -0.04602989        0.13388222        2.27245431
 C            1.74968475       -1.44372488        2.15714412
 C            2.27928350       -2.55604970        1.37784995
 C            0.38276954       -1.18343120        2.13707659
 C            1.38767484       -3.16285679       -0.79367094
 C            1.38103858       -3.32205665        0.65353734
 C            0.06870304       -3.49070398       -1.27089731
 C           -0.13630237       -1.17079123       -2.00922311
 C           -0.65695155       -2.46665035       -1.98477991
 C           -0.46886687        1.22765044       -2.09693999
 C           -1.00560600       -0.06703194       -2.00880747
 C           -0.85899423        3.35939253       -0.96310425
 C           -1.29236229        2.34026281       -1.89847318
 C           -1.16774161        2.49268980        1.30200477
 C           -1.70281111        3.16888877        0.19826011
 C           -1.39381146        0.37213907        2.49398473
 C           -1.96370601        1.62798427        2.05001068
 C           -2.34343557       -0.68602534        2.19212724
 C           -0.51262322       -2.15957049        1.67892373
 C           -0.01303328       -3.29521600        1.03942431
 C           -0.72432874       -3.83190965       -0.10069097
 C           -1.87912763       -1.85645441        1.59405183
 C           -2.04299223       -2.66524859       -1.63159531
 C           -2.06385944       -3.36146136       -0.35099909
 C           -2.66655528       -2.45027775        0.60163767
 C           -2.39863909       -0.25973342       -1.87469943
 C           -2.88254787       -1.50232751       -1.48723177
 C           -3.54012751       -1.61175382       -0.19441126
 C           -2.70402281        2.15883377       -1.64252024
 C           -2.98647142        2.77772392       -0.35191913
 C           -3.23062855        0.82024581       -1.60265494
 C           -3.34582442        1.37690034        1.66916345
 C           -3.55671004       -0.06146171        1.68390146
 C           -4.05581772       -0.45836641        0.37671244
 C           -3.83287764        1.87990417        0.40201967
 C           -4.11291177        0.73657927       -0.44828363




