%chk=000793.chk
%mem=8GB
%Nproc=16
#p B3LYP/6-31G* opt pop=NPA

Template file

0 1
 C            4.10153547       -1.35273290       -0.20778060
 C            3.60463332       -1.73649064        1.10101714
 C            2.53110510       -2.69432625        0.90182882
 C            3.32843329       -2.07759037       -1.20560928
 C            2.24958937       -2.75777069       -0.51784977
 C            2.99705695       -1.15697046       -2.26756636
 C            4.10150066        0.05184085       -0.58128591
 C            3.52754055        0.15000915       -1.90998611
 C            3.77653888        1.01878125        0.36480517
 C            3.11737951       -0.70577162        1.99943954
 C            3.38471053        0.62641103        1.71543923
 C            1.44020268       -2.34015477        1.79178423
 C            1.78261261       -1.08888804        2.44609443
 C            0.13870587       -2.49590770        1.33899226
 C            0.92873169       -2.57460769       -0.92151535
 C           -0.06988814       -2.86285900        0.00561355
 C            1.60241999       -0.98052919       -2.62408400
 C            0.61257534       -1.73008403       -1.99803728
 C            2.48403666        1.12991500       -2.15929873
 C            1.37351343        0.43698867       -2.79792856
 C            2.94698033        2.15152596       -0.02144496
 C            2.21095280        2.11214281       -1.20904625
 C            2.47289363        1.63485956        2.21802956
 C            2.32424926        2.65255131        1.19130896
 C            0.78818734       -0.11783693        2.61209864
 C            1.14065090        1.23166393        2.63422119
 C           -0.85310151       -1.76797024        1.98432200
 C           -0.55226675       -0.46678341        2.40311627
 C           -2.17279265       -2.13101057        1.74621073
 C           -1.37596693       -2.93613746       -0.46039847
 C           -2.45768317       -2.81415924        0.50022569
 C           -0.71264007       -1.31609677       -2.15498353
 C           -1.71382323       -2.11892279       -1.61038569
 C            0.08571804        0.92763044       -2.61578792
 C           -0.97655653        0.02787637       -2.46484783
 C            0.98918670        2.78015688       -1.28807216
 C           -0.05419813        2.22758487       -2.13788664
 C            0.92852564        3.03879508        1.15155405
 C            0.20815137        2.21479153        2.11060598
 C            0.34601309        3.28402489       -0.08016796
 C           -1.50275553        0.54880488        2.24381025
 C           -1.09056482        1.81225465        1.81987270
 C           -3.22596406       -1.16083072        1.96855716
 C           -2.85232126        0.22311737        2.17325903
 C           -3.55420857       -2.11948696       -0.14835367
 C           -3.05351922       -1.59286230       -1.41076653
 C           -4.13283874       -1.21727725        0.83121660
 C           -2.27197655        0.53627510       -2.34461417
 C           -3.33216556       -0.28436001       -1.78238739
 C           -1.32951955        2.65921193       -1.59790368
 C           -1.08306380        3.07583765       -0.22653650
 C           -1.79660562        2.46261397        0.80131566
 C           -2.45721873        1.89640820       -1.85922783
 C           -3.71580213        1.03484554        1.33829594
 C           -4.43446923        0.14453844        0.43835863
 C           -4.14534067        0.56380536       -0.92152326
 C           -3.11115369        2.08450417        0.53896089
 C           -3.49592610        1.85865121       -0.84507787




