%chk=000295.chk
%mem=8GB
%Nproc=48
#p B3LYP/6-31G* opt pop=NPA

Template file

0 1
 C            4.18420492       -1.39500779       -1.02407509
 C            4.50727702       -0.44781001        0.02830530
 C            4.01180695       -0.98600221        1.28095840
 C            3.36477795       -2.44205477       -0.43972048
 C            3.31319028       -2.22781697        0.98757496
 C            2.11233499       -2.47715770       -1.16518320
 C            3.37494628       -0.70176058       -2.01324369
 C            2.12706513       -1.42031139       -2.15796336
 C            4.04286458        0.86003903       -0.39270856
 C            3.31217826        0.69488942       -1.64517502
 C            3.53453703        1.73020366        0.56461410
 C            3.13353141       -0.16268149        2.09759709
 C            3.00382427        1.19092747        1.81472985
 C            2.00983344       -2.16368646        1.62026396
 C            1.94021326       -0.93996172        2.39020207
 C            0.92123389       -2.68185908       -0.48134632
 C            0.86986478       -2.54181389        0.91615893
 C           -0.24714878       -2.43818381       -1.19080603
 C            0.95048970       -0.69735438       -2.34373869
 C           -0.26215618       -1.33795653       -2.06110152
 C            2.11080717        1.37800563       -1.82337659
 C            0.99669198        0.70342936       -2.34652050
 C            2.62541844        2.76957225        0.12157447
 C            1.92471652        2.57500085       -1.13263310
 C            1.73033386        1.83970128        2.07069708
 C            1.61670057        2.95100193        1.15121583
 C            0.69972322       -0.31395603        2.48578404
 C            0.59537273        1.07254502        2.31451744
 C           -0.36611263       -2.23449939        1.49495556
 C           -0.44505619       -1.09817553        2.31452190
 C           -1.42514673       -2.85093803       -0.59398507
 C           -1.50695464       -2.69966459        0.84288943
 C           -2.68439395       -2.44029067       -1.16852186
 C           -1.46594797       -0.68456481       -2.35490253
 C           -2.68227633       -1.29545896       -2.05172940
 C           -0.18852498        1.40956913       -2.53649457
 C           -1.44804041        0.68379932       -2.61153936
 C            0.58422290        3.09620929       -0.94835750
 C            0.34336505        3.15971994        0.48467511
 C           -0.42872215        2.61846798       -1.76146247
 C           -0.65842366        1.62711379        2.04921841
 C           -0.79585633        2.53955173        0.99249352
 C           -1.67930655       -0.51142990        2.58626749
 C           -1.77604053        0.93358413        2.49684326
 C           -2.81206947       -2.14568522        1.15480460
 C           -3.59631606       -2.15907652       -0.07320450
 C           -2.89884825       -1.07485300        2.03398444
 C           -3.82262241       -0.46895026       -1.68590590
 C           -4.37833672       -0.99470867       -0.44726168
 C           -2.47023494        1.53673538       -2.02199269
 C           -1.76622488        2.50863357       -1.20722966
 C           -1.93028827        2.48450995        0.17715925
 C           -3.63005931        0.96079429       -1.52258632
 C           -3.07671374        1.26439118        1.94866601
 C           -3.81473831        0.02560372        1.76812491
 C           -4.50225001        0.10372224        0.49086435
 C           -3.12362436        1.99980422        0.70217982
 C           -4.05909187        1.31614461       -0.17907589




