%chk=000777.chk
%mem=8GB
%Nproc=16
#p B3LYP/6-31G* opt pop=NPA

Template file

0 1
 C            4.32950214        0.69129490        0.19490013
 C            3.91102567        0.27866087        1.52179666
 C            3.60620935       -1.14228049        1.47234511
 C            4.29509501       -0.47877161       -0.66865400
 C            3.73870314       -1.58213541        0.09770531
 C            3.66197264       -0.09318557       -1.91709553
 C            3.60650569        1.75947028       -0.47339323
 C            3.27317944        1.30267058       -1.81040334
 C            2.66313187        2.49788424        0.23055560
 C            2.78868797        0.95373405        2.15157688
 C            2.27838185        2.11002211        1.58567608
 C            2.34290652       -1.35164288        2.15710686
 C            1.86664549       -0.06019260        2.62947878
 C            1.41539336       -2.25502334        1.64408781
 C            2.72970140       -2.36460431       -0.45229375
 C            1.63556207       -2.83110693        0.39237600
 C            2.50639627       -0.83866049       -2.38051390
 C            2.16934465       -2.03223551       -1.75812410
 C            1.89945097        1.42334236       -2.27534685
 C            1.44966671        0.11130319       -2.69685608
 C            1.44872451        2.91974810       -0.44641897
 C            1.01017240        2.23187780       -1.58115028
 C            0.86095421        2.39455502        1.73077203
 C            0.49286381        3.22902252        0.60204300
 C            0.49151430        0.17935453        2.64032639
 C           -0.01788935        1.38925440        2.14757331
 C            0.11521361       -2.18414406        2.13135091
 C           -0.33978015       -0.92986528        2.71363055
 C           -0.98594841       -2.73186757        1.35440702
 C            0.50751385       -3.10178005       -0.48570004
 C            0.77870774       -2.44063668       -1.75097325
 C           -0.79138506       -3.05269127        0.01019945
 C            0.11940442       -0.24645387       -2.47803497
 C           -0.19355395       -1.59402563       -2.27338786
 C           -0.35779518        2.01969099       -1.74618590
 C           -0.81094286        0.74528802       -2.12995313
 C           -0.84276826        3.30216114        0.26198211
 C           -1.21532765        2.88399303       -1.07457982
 C           -1.38430886        1.52037766        1.84478719
 C           -1.79701745        2.65178687        1.13319054
 C           -1.75176861       -0.79393739        2.43013487
 C           -2.18628767       -2.01908230        1.77331300
 C           -2.25532160        0.42895272        2.00315936
 C           -3.28989895       -1.97944808        0.93273664
 C           -1.81138320       -2.79845553       -0.90480600
 C           -1.51549323       -1.95048387       -2.05126486
 C           -3.13854280       -2.45114096       -0.42984474
 C           -2.16989682        0.40868490       -2.02977060
 C           -2.54235020       -0.93183618       -2.10915044
 C           -3.65874042       -1.42327268       -1.31581142
 C           -2.63248596        2.59963450       -1.03523527
 C           -3.02589450        2.62098314        0.36856898
 C           -3.10141354        1.34947788       -1.58551576
 C           -3.54408591        0.45387696        1.46260068
 C           -4.08956123       -0.76653002        0.88998371
 C           -4.40750755       -0.48773013       -0.50438095
 C           -3.94274109        1.52778519        0.57810565
 C           -4.19244061        0.92833272       -0.72162557




