%chk=000097.chk
%mem=8GB
%Nproc=48
#p B3LYP/6-31G* opt pop=NPA

Template file

0 1
 C            4.53607509       -0.71036812        0.49069374
 C            4.54005531        0.73926778        0.53497905
 C            4.01729201        1.21767355       -0.73030692
 C            3.96982397       -1.11450243       -0.78574204
 C            3.54679295        0.07104598       -1.49220214
 C            2.97513974       -2.11700678       -0.51180666
 C            3.63552239       -1.18467426        1.52809472
 C            2.77736713       -2.17885583        0.92948578
 C            3.60274077        1.15463232        1.56322590
 C            3.00255179       -0.03874252        2.13626509
 C            3.06542933        2.26920105       -0.43244196
 C            2.71813714        2.15143019        0.97763436
 C            2.03623625        2.46445605       -1.33464733
 C            2.26142047        0.12094976       -2.03754966
 C            1.71428394        1.38217191       -2.25693932
 C            1.83614244       -2.17029450       -1.30040221
 C            1.40812484       -0.99835918       -1.96074507
 C            0.87704924       -3.06017857       -0.84500520
 C            1.46530370       -2.30234612        1.38093880
 C            0.63998013       -3.08865827        0.58907769
 C            1.62253959       -0.05297023        2.29847693
 C            0.88961227       -1.23424945        2.08893916
 C            1.37043626        2.12959467        1.34083615
 C            0.95460767        1.16625289        2.25930160
 C            0.76958305        2.95733892       -0.83562903
 C            0.42015932        2.70570232        0.48918014
 C            0.31182035        1.51189825       -2.59100474
 C           -0.19267764        2.67871531       -1.87761078
 C            0.06293053       -0.87974069       -2.37623740
 C           -0.48201925        0.37520555       -2.67953036
 C           -0.39524589       -3.12216724       -1.51372091
 C           -0.78899092       -1.98496412       -2.30776754
 C           -0.78933117       -3.06141079        0.79571698
 C           -1.41032365       -3.31946999       -0.49394377
 C           -0.49938542       -1.19685962        2.30177682
 C           -1.34422655       -2.09417299        1.62398020
 C           -0.34549095        1.20675788        2.72425142
 C           -1.03014107       -0.05597436        2.91226110
 C           -0.93471523        2.63994696        0.83575381
 C           -1.27996736        2.10326082        2.07385431
 C           -1.53762552        2.73222504       -1.55903708
 C           -1.91469892        2.78600012       -0.15381951
 C           -1.86779280        0.54685774       -2.71040640
 C           -2.42689662        1.79272943       -2.21439663
 C           -2.20923121       -1.78549533       -2.07143309
 C           -2.56979354       -2.53520675       -0.87459266
 C           -2.74692648       -0.52610636       -2.28106522
 C           -2.70291502       -1.81206964        1.45903663
 C           -3.29317632       -1.90949450        0.13232845
 C           -2.45158601        0.22589029        2.85330860
 C           -2.60975096        1.55772450        2.28536751
 C           -3.30633242       -0.67593940        2.12140623
 C           -3.20323134        2.11570199       -0.02101582
 C           -3.49799064        1.46854909       -1.28903643
 C           -3.69609505        0.02920681       -1.32454019
 C           -3.96088208       -0.64766025       -0.13895094
 C           -3.52154590        1.46235842        1.16244366
 C           -4.01817172        0.09519268        1.11291220




