%chk=000858.chk
%mem=8GB
%Nproc=16
#p B3LYP/6-31G* opt pop=NPA

Template file

0 1
 C            4.27229269       -0.04823642        0.64408183
 C            4.16493895       -1.31395485       -0.04821998
 C            3.64726082       -1.03087603       -1.38438606
 C            4.11250850        0.98830350       -0.35738936
 C            3.38117743        0.38777605       -1.45678416
 C            3.52145218        2.12355482        0.31475914
 C            3.31631984        0.25145283        1.69761705
 C            3.10119796        1.67953809        1.63987498
 C            2.22596346       -0.59778377        1.89426331
 C            3.31730615       -2.33340494        0.53389768
 C            2.34393747       -1.94222410        1.54041588
 C            2.56226358       -1.95028775       -1.63535767
 C            2.57015708       -2.92163837       -0.55678276
 C            1.32982036       -1.46819713       -2.06934740
 C            2.08598246        0.83275312       -1.72719661
 C            1.07390502       -0.08613461       -2.06805176
 C            2.36494477        2.75000340       -0.28919784
 C            1.74869999        2.14853003       -1.38825476
 C            1.76400461        2.19330629        1.85583393
 C            1.53108033        3.17652213        0.81672712
 C            0.95281578       -0.07066927        2.15255138
 C            0.73197441        1.31763952        2.17314364
 C           -0.13530877       -0.94100437        2.27034399
 C            1.14254251       -2.72038856        1.28682930
 C            1.28965175       -3.34112081       -0.02419064
 C           -0.09489806       -2.18783522        1.63840437
 C            0.25716156       -2.35116736       -1.99431143
 C            0.20414605       -3.29200004       -0.88118212
 C           -1.08940086       -1.86836205       -2.22123813
 C           -0.22282892        0.38096126       -2.33929800
 C           -1.30576227       -0.50706144       -2.38931396
 C            0.51702699        2.65405646       -1.78137160
 C           -0.46781935        1.75297596       -2.34882462
 C            0.22352488        3.53533847        0.53374331
 C           -0.18080208        3.53862311       -0.86078847
 C           -0.57471793        1.80598536        2.10421887
 C           -0.85161352        2.90172175        1.28490942
 C           -1.35891063       -0.42953615        2.68681406
 C           -1.62532393        0.98026370        2.47943824
 C           -2.57368713       -1.15826149        2.36907407
 C           -1.23835519       -2.67181348        0.99291366
 C           -1.11620522       -3.16939693       -0.30129837
 C           -1.96718781       -2.62918343       -1.34280635
 C           -2.49319888       -2.24994161        1.42013311
 C           -3.19514888       -2.09316627       -0.98186960
 C           -3.54325910       -2.05276863        0.43036546
 C           -2.60710529       -0.02209916       -2.26076400
 C           -3.60304023       -0.83211632       -1.57435435
 C           -1.78407375        2.25206629       -1.97581718
 C           -1.59329142        3.21856299       -0.91484839
 C           -2.02666965        2.86422311        0.42600707
 C           -2.82034434        1.34695286       -1.83842425
 C           -2.88782664        1.08428053        1.76482681
 C           -3.55255780       -0.20307228        1.87225314
 C           -4.18417282       -0.77633096        0.70238866
 C           -4.19294494       -0.01082535       -0.52661899
 C           -2.93778089        1.82284017        0.58035448
 C           -3.52982127        1.28262734       -0.56789515




