%chk=000596.chk
%mem=8GB
%Nproc=48
#p B3LYP/6-31G* opt pop=NPA

Template file

0 1
 C            4.20686262        0.00000000        1.07382859
 C            3.96121728       -1.17217620        0.25386179
 C            2.98885741       -1.99543280        0.94523290
 C            3.22776063       -0.00000000        2.14958266
 C            2.48582807       -1.23202017        2.07829434
 C            2.48582807        1.23202017        2.07829434
 C            3.96121728        1.17217620        0.25386179
 C            2.98885741        1.99543280        0.94523290
 C            3.65654788       -0.72870542       -1.09093758
 C            3.65654788        0.72870542       -1.09093758
 C            2.68756353       -1.42071761       -1.80644125
 C            2.07201847       -2.73771277        0.20753738
 C            1.98099455       -2.53171781       -1.17664548
 C            0.95659111       -3.20401635        0.89547043
 C            1.11127686       -1.21911696        2.30031408
 C            0.44595860       -2.39517025        1.99365864
 C            1.11127686        1.21911696        2.30031408
 C            0.40550816       -0.00000000        2.26489500
 C            0.44595860        2.39517025        1.99365864
 C            2.07201847        2.73771277        0.20753738
 C            0.95659111        3.20401635        0.89547043
 C            2.68756353        1.42071761       -1.80644125
 C            1.98099455        2.53171781       -1.17664548
 C            1.72644121       -0.69282280       -2.62276040
 C            1.72644121        0.69282280       -2.62276040
 C            0.69548399       -2.65080156       -1.85697878
 C            0.45954608       -1.40060131       -2.55677361
 C           -0.17912254       -3.70989218        0.15351539
 C           -0.36637590       -3.26548605       -1.21235232
 C           -0.99486682       -2.41116606        1.93093783
 C           -1.37313439       -3.36477220        0.90237847
 C           -1.00014962       -0.00000000        2.10043957
 C           -1.70140650       -1.21878765        2.01192177
 C           -0.99486682        2.41116606        1.93093783
 C           -1.70140650        1.21878765        2.01192177
 C           -0.17912254        3.70989218        0.15351539
 C           -1.37313439        3.36477220        0.90237847
 C            0.69548399        2.65080156       -1.85697878
 C            0.45954608        1.40060131       -2.55677361
 C           -0.36637590        3.26548605       -1.21235232
 C           -0.72492716       -0.70139519       -2.32429539
 C           -0.72492716        0.70139519       -2.32429539
 C           -1.68928065       -2.66454029       -1.29649208
 C           -2.38601315       -2.96214318       -0.04998498
 C           -1.85024908       -1.40615602       -1.88767256
 C           -3.01738416       -1.23827555        1.54616759
 C           -3.34259436       -2.06149942        0.38600862
 C           -3.01738416        1.23827555        1.54616759
 C           -3.74780783       -0.00000000        1.41863982
 C           -2.38601315        2.96214318       -0.04998498
 C           -1.68928065        2.66454029       -1.29649208
 C           -1.85024908        1.40615602       -1.88767256
 C           -3.34259436        2.06149942        0.38600862
 C           -3.04684988       -0.72600409       -1.68281066
 C           -3.90925569       -1.16855808       -0.60042103
 C           -4.38590350       -0.00000000        0.11114813
 C           -3.04684988        0.72600409       -1.68281066
 C           -3.90925569        1.16855808       -0.60042103




