%chk=000770.chk
%mem=8GB
%Nproc=16
#p B3LYP/6-31G* opt pop=NPA

Template file

0 1
 C            4.30493959        0.32290308       -0.06835868
 C            3.94545041        0.26916002        1.33704624
 C            3.49087490       -1.07980410        1.62346507
 C            4.05098926       -0.99054692       -0.64186001
 C            3.36028921       -1.78220838        0.35783470
 C            3.42193201       -0.79909007       -1.92708662
 C            3.66984176        1.31054751       -0.92460027
 C            3.22171471        0.62862467       -2.12482176
 C            2.85088118        2.28458972       -0.36572831
 C            2.94369634        1.18902656        1.84526989
 C            2.53978674        2.26004709        1.06110677
 C            2.32490235       -0.98598777        2.48291948
 C            1.93316756        0.41413266        2.54884503
 C            1.33508491       -1.94111247        2.33796588
 C            2.14045101       -2.39512228        0.05825863
 C            1.32212068       -2.75544903        1.13093781
 C            2.15515520       -1.45122724       -2.17921295
 C            1.60657173       -2.32628557       -1.24136719
 C            1.85394607        0.82692353       -2.58564043
 C            1.28077659       -0.48217509       -2.81904592
 C            1.63370633        2.67182674       -1.06211741
 C            1.06289315        1.80422843       -1.99431692
 C            1.18707340        2.76631378        1.21343446
 C            0.78476370        3.30942756       -0.07481610
 C            0.58548477        0.76778129        2.42411952
 C            0.25675435        2.04774884        1.96589950
 C           -0.03759043       -1.56192627        2.59589723
 C           -0.40612513       -0.21889082        2.52872498
 C           -0.05054173       -3.17258297        0.90565069
 C           -0.86716711       -2.55537550        1.94265621
 C            0.29823951       -2.74656062       -1.47840221
 C           -0.52706270       -3.24572158       -0.39291854
 C           -0.09139996       -0.65300618       -2.68809295
 C           -0.54559928       -1.91872178       -2.32567051
 C           -0.32756293        1.67695845       -2.04820284
 C           -0.90326681        0.45979022       -2.44240932
 C           -0.56854163        3.42670057       -0.34176580
 C           -1.11509204        2.66342200       -1.45209003
 C           -1.07977724        2.42291362        1.87969599
 C           -1.48655085        3.26877274        0.76956570
 C           -1.75000686        0.10227620        2.31087503
 C           -2.11475554        1.42441458        2.07374168
 C           -2.18943922       -2.23527450        1.67850945
 C           -2.66892589       -0.91609086        2.05077117
 C           -1.90855365       -2.88223874       -0.67522843
 C           -1.92270243       -2.10105147       -1.90773455
 C           -2.75636531       -2.54526356        0.37600789
 C           -2.28499712        0.27880433       -2.35365967
 C           -2.81193638       -1.04442523       -2.05579712
 C           -2.51280262        2.40122378       -1.15396807
 C           -2.73280036        2.74990292        0.24031990
 C           -3.20626986        1.72481741        1.15214668
 C           -3.10669033        1.25257670       -1.65342193
 C           -3.82881494       -0.63593195        1.22307312
 C           -3.84917259       -1.61488883        0.14612915
 C           -3.90410432       -0.89331991       -1.11089459
 C           -3.96689608        0.68357657        0.63681268
 C           -4.03997610        0.52084809       -0.80845141




