%chk=000028.chk
%mem=8GB
%Nproc=16
#p B3LYP/6-31G* opt pop=NPA

Template file

0 1
 C            5.10086172       -0.72405450        0.00577665
 C            5.10086172        0.72405450        0.00577665
 C            4.35355011        1.16191099       -1.16162935
 C            4.35355011       -1.16191099       -1.16162935
 C            3.69136722        0.00000000       -1.72710653
 C            3.53536305       -2.26722413       -0.72857041
 C            4.34846393       -1.16158068        1.16985717
 C            3.53308920       -2.26622349        0.73272588
 C            4.34846393        1.16158068        1.16985717
 C            3.68384640        0.00000000        1.73464574
 C            3.53536305        2.26722413       -0.72857041
 C            3.53308920        2.26622349        0.73272588
 C            2.14657535        2.29875312       -1.14157732
 C            2.29541561        0.00000000       -1.87198818
 C            1.58957733        1.21508022       -1.81860886
 C            2.14657535       -2.29875312       -1.14157732
 C            1.58957733       -1.21508022       -1.81860886
 C            2.14446556       -2.29554135        1.13843596
 C            1.41962899       -2.80286701       -0.00364997
 C            2.28652209       -0.00000000        1.88287600
 C            1.58227703       -1.21327750        1.82232220
 C            2.14446556        2.29554135        1.13843596
 C            1.41962899        2.80286701       -0.00364997
 C            1.58227703        1.21327750        1.82232220
 C            0.05770577        2.60423834        0.00620462
 C            0.19554014        1.19054397       -1.91714120
 C           -0.53801716        2.10771968       -1.14855682
 C            0.19554014       -1.19054397       -1.91714120
 C           -0.41562887        0.00000000       -2.29345311
 C            0.05770577       -2.60423834        0.00620462
 C           -0.53801716       -2.10771968       -1.14855682
 C            0.18593929       -1.20236422        1.91189226
 C           -0.49433754       -2.19716975        1.20648043
 C            0.18593929        1.20236422        1.91189226
 C           -0.49433754        2.19716975        1.20648043
 C           -0.47873961       -0.00000000        2.17385302
 C           -1.86988122        2.24916371        1.28497595
 C           -1.93375145        2.03772296       -1.15205514
 C           -2.59004957        2.39640470        0.03303773
 C           -1.78949005        0.00000000       -2.48767685
 C           -2.54104085        1.15987886       -2.04984359
 C           -1.93375145       -2.03772296       -1.15205514
 C           -2.54104085       -1.15987886       -2.04984359
 C           -1.86988122       -2.24916371        1.28497595
 C           -2.59004957       -2.39640470        0.03303773
 C           -1.88390764       -0.00000000        2.22166717
 C           -2.55314086        1.20963978        2.01761372
 C           -2.55314086       -1.20963978        2.01761372
 C           -3.95473555        1.97646603        0.29522283
 C           -3.93577928        1.24059133        1.55364988
 C           -3.91859243        0.72775928       -1.85695280
 C           -3.91859243       -0.72775928       -1.85695280
 C           -4.64863653        1.17364374       -0.68728268
 C           -3.95473555       -1.97646603        0.29522283
 C           -3.93577928       -1.24059133        1.55364988
 C           -4.64813523       -0.00000000        1.35064371
 C           -4.64863653       -1.17364374       -0.68728268
 C           -5.17140001       -0.00000000       -0.00811530




