%chk=000867.chk
%mem=8GB
%Nproc=16
#p B3LYP/6-31G* opt pop=NPA

Template file

0 1
 C            4.27041734        0.17402112        0.68429729
 C            3.96061390       -1.20818911        0.94076560
 C            3.81487355       -1.84214084       -0.36003882
 C            4.24271481        0.34886689       -0.76321487
 C            3.49209885       -0.77399795       -1.27846781
 C            3.74010327        1.67626791       -1.01030069
 C            3.38301431        1.18196396        1.21721743
 C            3.53686601        2.28415230        0.29455667
 C            2.09265154        0.82180738        1.63797004
 C            2.74603720       -1.51310319        1.66651236
 C            1.75620397       -0.53116772        1.80288109
 C            2.85298743       -2.89831524       -0.19304540
 C            2.36773947       -2.81690271        1.17902148
 C            1.67030437       -2.88127842       -1.02529770
 C            2.15652764       -0.59519012       -1.67093829
 C            1.28180965       -1.69286358       -1.65433772
 C            2.47946423        1.81126440       -1.70844201
 C            1.64043377        0.70041471       -1.83683887
 C            2.43598248        3.19820982        0.15216535
 C            1.92170750        3.04330430       -1.20322360
 C            1.08389179        1.79210216        1.65390424
 C            1.29338612        3.02361441        1.01880318
 C           -0.23216453        1.42854688        1.95885372
 C            0.40389292       -0.91501956        1.87769907
 C           -0.59624994        0.07060938        1.95924514
 C            0.96403984       -3.13705085        1.12920566
 C            0.69060414       -3.57875890       -0.22893472
 C            0.05231137       -2.27043097        1.72043366
 C           -0.62274474       -3.53806275       -0.64947261
 C           -0.07915579       -1.50560195       -1.92612513
 C           -0.96658936       -2.55781592       -1.66795380
 C            0.25356374        0.88967287       -1.91425880
 C           -0.57690298       -0.21372426       -2.12682312
 C            0.48360487        3.15384727       -1.10312583
 C            0.20613516        3.58288274        0.25321066
 C           -0.31603293        2.14487292       -1.62784235
 C           -1.21345488        2.41224119        1.80965964
 C           -1.06786088        3.36619604        0.72657761
 C           -2.61257320        2.04659753        1.82507246
 C           -1.95284090       -0.30575946        2.00830573
 C           -2.95914077        0.65322977        1.92957392
 C           -1.28186330       -2.61630882        1.55677696
 C           -1.62818654       -3.40465329        0.38454451
 C           -2.31007476       -1.61788759        1.72646483
 C           -2.38888446       -2.29259663       -1.52807582
 C           -2.79297090       -2.80402659       -0.22803282
 C           -3.35196991       -1.87876471        0.73697543
 C           -1.94893107       -0.01194159       -2.28967499
 C           -2.88693367       -1.06523644       -1.93283713
 C           -1.67932531        2.22108185       -1.34235363
 C           -2.07913946        2.97827028       -0.23410603
 C           -3.19417633        2.54331786        0.58301509
 C           -2.52549620        1.25356048       -1.87293415
 C           -4.06734491        0.42644771        1.01564097
 C           -4.09081957       -0.80868868        0.25660509
 C           -3.95809915       -0.45968983       -1.15290763
 C           -4.08395639        1.52768046        0.06817085
 C           -3.81009842        0.98012306       -1.24452139




