%chk=000366.chk
%mem=8GB
%Nproc=48
#p B3LYP/6-31G* opt pop=NPA

Template file

0 1
 C            4.08622358        0.20564330        1.75709264
 C            4.11375074        1.19879121        0.69742534
 C            4.41351438        0.49964751       -0.53221152
 C            3.96837594       -1.09800036        1.12645887
 C            4.22346031       -0.92468090       -0.28512608
 C            2.69986160       -1.66900177        1.53381667
 C            2.88031759        0.42508896        2.53604352
 C            2.11494530       -0.80072237        2.53606452
 C            2.88711820        1.97707517        0.78728421
 C            2.22889441        1.61011703        2.03019680
 C            2.09757276        2.20063606       -0.34840239
 C            3.65297702        0.84032391       -1.71527825
 C            2.52342980        1.75058164       -1.59951548
 C            3.23390353       -1.40156751       -1.23276712
 C            3.14013767       -0.40084716       -2.27065665
 C            1.84250690       -2.22444410        0.58765226
 C            2.04927559       -1.98365105       -0.78195204
 C            0.55291548       -2.53987176        1.01346711
 C            0.72880829       -0.70897211        2.55735847
 C            0.00684326       -1.79205990        2.06964665
 C            0.84528016        1.65275984        2.05297848
 C            0.12299328        0.55545278        2.53808269
 C            0.74360749        2.50949676       -0.16970143
 C            0.22723306        2.47613993        1.13031753
 C           -0.13144636        2.44178505       -1.26565061
 C            1.53077252        1.28272342       -2.54640429
 C            1.82853571       -0.11764627       -2.81554022
 C            0.20139983        1.64248892       -2.36106389
 C            0.95580096       -2.03717170       -1.65736165
 C            0.80598912       -1.04468203       -2.63872675
 C           -0.28061256       -3.17490508        0.09956477
 C           -0.13443157       -2.82732692       -1.29845482
 C           -1.69337506       -3.32459388        0.38162740
 C           -1.35786659       -1.81296729        2.32713676
 C           -2.23331128       -2.66661096        1.54952281
 C           -1.27892983        0.63632556        2.53648528
 C           -2.03371773       -0.54447438        2.54094038
 C           -1.10398719        2.77803675        1.35093909
 C           -1.88164687        1.83448588        2.13718346
 C           -1.46122513        2.82844712       -1.09897898
 C           -1.90956519        3.19885460        0.22726316
 C           -2.51402944        2.02820294       -1.70995013
 C           -0.76898704        0.79778407       -2.89570739
 C           -0.47126195       -0.62088392       -2.99257653
 C           -2.15446232        0.93873515       -2.48651265
 C           -1.45958837       -2.51506580       -1.80999832
 C           -2.42608708       -2.84655580       -0.78032393
 C           -1.63877050       -1.35723374       -2.54617829
 C           -2.65108290       -0.38889469       -2.13965431
 C           -3.36413367       -1.86276428        1.12182291
 C           -3.31497659       -0.60404214        1.84098382
 C           -3.35644276       -1.82577677       -0.32923860
 C           -3.38826173       -0.58563714       -0.96621134
 C           -3.22356673        1.80823382        1.58405515
 C           -3.25027934        2.67719125        0.41982840
 C           -3.57146189        1.85740376       -0.73366942
 C           -3.78070658        0.53086706        1.19627727
 C           -3.87223023        0.51773231       -0.25970333




