%chk=000142.chk
%mem=8GB
%Nproc=48
#p B3LYP/6-31G* opt pop=NPA

Template file

0 1
 C            4.37984800        0.72365124        0.98361483
 C            4.52237097        0.72163335       -0.46103246
 C            4.12978791       -0.58959063       -0.94085270
 C            3.83911438       -0.56446530        1.38362613
 C            3.65958113       -1.36945116        0.19320034
 C            2.68068563       -0.31821715        2.21984256
 C            3.39095532        1.72749916        1.32734592
 C            2.43836476        1.11468742        2.23604141
 C            3.57432944        1.67901129       -1.00666072
 C            2.87340826        2.29891793        0.09801227
 C            3.22290536       -0.39144515       -2.05569024
 C            2.78823802        0.99887628       -2.01666756
 C            2.26659669       -1.36909047       -2.28700742
 C            2.47737028       -2.09127540        0.05304598
 C            2.00168488       -2.33863335       -1.23526398
 C            1.57824674       -1.15763932        2.10100818
 C            1.58835872       -2.17035603        1.13052237
 C            0.35527988       -0.69801672        2.59486823
 C            1.11628741        1.54053185        2.17911720
 C            0.13290915        0.68079710        2.66822001
 C            1.49763564        2.46652080        0.00447408
 C            0.76284490        2.45612032        1.18419314
 C            1.42546538        1.27443146       -2.10581668
 C            0.83703970        2.16200545       -1.19092521
 C            0.97655936       -0.96990762       -2.81966033
 C            0.61688831        0.37494795       -2.80011439
 C            0.64326824       -2.82421330       -1.42106616
 C           -0.00183041       -1.96243603       -2.39853305
 C            0.47390516       -2.99786265        1.00816376
 C           -0.07410113       -3.24520370       -0.31638123
 C           -0.71317973       -1.58549649        2.67827265
 C           -0.64375643       -2.81491057        1.91669089
 C           -2.07598941       -1.08915370        2.58859534
 C           -1.16269744        1.17410361        2.79931928
 C           -2.29981807        0.27785919        2.66838854
 C           -0.54589393        2.91017441        1.13051330
 C           -1.49033184        2.40760294        2.11103340
 C           -0.53564239        2.42488242       -1.28086644
 C           -1.21034166        2.92649182       -0.16235581
 C           -0.71997267        0.69025401       -2.99255690
 C           -1.26082401        1.85720168       -2.32521209
 C           -1.32322584       -1.55451761       -2.21997928
 C           -1.70410057       -0.36905573       -2.85017594
 C           -1.49816124       -2.97566812       -0.26110749
 C           -1.86909053       -2.92578978        1.14258800
 C           -2.77590976       -1.88210439        1.58712633
 C           -2.07326632       -2.06103764       -1.14404369
 C           -3.56596173       -1.24644288        0.63720336
 C           -3.28161637       -1.46430135       -0.77339582
 C           -3.27080730        0.90958693        1.78557633
 C           -2.77392083        2.23493082        1.45524567
 C           -2.61675121        2.60886359        0.05954806
 C           -3.90380319        0.15864720        0.80121539
 C           -2.69295594        1.64358081       -2.18452468
 C           -2.97084130        0.25905230       -2.53949136
 C           -3.78902185       -0.31689131       -1.49929195
 C           -3.32675927        1.91359571       -0.90940129
 C           -4.07935723        0.72671454       -0.52853807




