%chk=001082.chk
%mem=8GB
%Nproc=16
#p B3LYP/6-31G* opt pop=NPA

Template file

0 1
 C            2.73515197       -2.86971471       -0.41923014
 C            3.61814351       -1.83440105        0.08136812
 C            3.77597802       -0.85093281       -0.97635752
 C            2.28943047       -2.46349164       -1.74385685
 C            2.76547284       -1.12016456       -1.98230283
 C            0.87159286       -2.70488356       -1.82299301
 C            1.55768991       -3.22915737        0.35250444
 C            0.43253957       -3.28196211       -0.56290639
 C            1.37268231       -2.68982603        1.61571547
 C            3.25636044       -1.12220984        1.29423596
 C            2.20851968       -1.58414314        2.07716850
 C            3.79066498        0.46019014       -0.36530576
 C            3.36048613        0.30124030        1.01992495
 C            3.26203800        1.51324657       -1.09362453
 C            1.85356739       -0.11183605       -2.30438743
 C            2.24231212        1.21525275       -2.09719861
 C            0.05312242       -1.75664230       -2.41465763
 C            0.49003654       -0.41875237       -2.47343755
 C           -1.30580524       -2.02069127       -2.32647697
 C           -0.85753825       -2.97948408       -0.12020682
 C           -1.79213733       -2.63498323       -1.10051920
 C            0.02146828       -2.43850450        2.07965016
 C           -1.06214996       -2.57222161        1.20742856
 C            1.33860738       -0.61968802        2.72422557
 C            0.08203671       -1.29638616        2.97990143
 C            2.42217535        1.19440163        1.54832644
 C            1.33238529        0.70646885        2.29113741
 C            2.81606822        2.67571842       -0.35499593
 C            2.38929644        2.48322965        1.01919528
 C            1.23202082        2.25611419       -2.02312589
 C            1.70092204        3.25393770       -1.07872924
 C           -0.45081512        0.62535757       -2.51352416
 C           -0.10840238        1.88817449       -2.02574880
 C           -2.25044689       -1.00915687       -2.73179450
 C           -1.78541397        0.35607118       -2.80107800
 C           -3.03545365       -1.97830610       -0.73904284
 C           -3.37501464       -1.05569996       -1.81034994
 C           -2.28850419       -2.02742801        1.58995055
 C           -3.24618402       -1.61021073        0.58176720
 C           -1.05770690       -0.53720392        3.17463102
 C           -2.31709983       -1.03592389        2.65211266
 C            0.18493682        1.49165598        2.49754212
 C           -1.00320122        0.89174240        2.91327626
 C            1.21998217        3.30856785        1.21659595
 C            0.77218472        3.76151130       -0.09359118
 C            0.07872123        2.74033200        1.89867126
 C           -1.04768826        2.64179062       -1.30199698
 C           -0.62331288        3.39987950       -0.21887026
 C           -1.10157396        3.03029915        1.10021930
 C           -2.79976646        1.18430063       -2.18414606
 C           -3.72561383        0.31126879       -1.47986636
 C           -2.36659782        2.21192073       -1.26167453
 C           -3.67977208       -0.25487780        0.90840721
 C           -3.09152799        0.10091069        2.18302836
 C           -2.24749490        1.27953359        2.26233775
 C           -2.20339805        2.17997110        1.19632910
 C           -3.74735787        0.71383377       -0.08483404
 C           -2.95661693        1.93196215        0.04117892




