%chk=000094.chk
%mem=8GB
%Nproc=48
#p B3LYP/6-31G* opt pop=NPA

Template file

0 1
 C            4.42860207        0.83421069        0.93068220
 C            4.44922231        1.17737641       -0.47965140
 C            4.10114996       -0.01374142       -1.23084186
 C            4.04173257       -0.56172191        1.04446426
 C            3.79801286       -1.07657258       -0.28448304
 C            2.96440902       -0.63852502        2.00423873
 C            3.38833800        1.62451679        1.56770672
 C            2.56179017        0.72301177        2.33721448
 C            3.39881032        2.15064877       -0.71437614
 C            2.74101200        2.42404831        0.55407522
 C            3.08037466        0.35659955       -2.19705006
 C            2.57946460        1.66980566       -1.81910491
 C            2.16629170       -0.61522019       -2.56926580
 C            2.65815618       -1.84545738       -0.50326069
 C            2.10503016       -1.83551431       -1.78327814
 C            1.96010837       -1.58177396        1.81628677
 C            1.86566067       -2.24964451        0.58352660
 C            0.81312399       -1.41170081        2.58483774
 C            1.19850200        0.98727489        2.45138980
 C            0.41150102       -0.05519366        2.91567013
 C            1.35373455        2.49377671        0.55272694
 C            0.61321165        1.95090328        1.61520155
 C            1.20316636        1.88189386       -1.74561213
 C            0.72706988        2.63801025       -0.67748826
 C            0.79261964       -0.22672028       -2.83913143
 C            0.32273216        1.00076276       -2.38785248
 C            0.79909059       -2.42059000       -2.00445470
 C           -0.03136337       -1.40242384       -2.64068240
 C            0.77696748       -3.09361187        0.34352358
 C            0.25244685       -3.21359913       -1.00922048
 C           -0.38106263       -2.18129093        2.29744101
 C           -0.35625081       -3.09285858        1.25703082
 C           -1.02576694        0.02652899        2.79754048
 C           -1.52889367       -1.29863463        2.46717673
 C           -0.78547180        2.09231621        1.57533178
 C           -1.60749516        1.13151407        2.19437968
 C           -0.60173206        3.00800911       -0.67718455
 C           -1.30996140        2.92624846        0.58187990
 C           -1.05360178        1.17602809       -2.20706788
 C           -1.46570521        2.38857399       -1.65521879
 C           -1.35070124       -1.23811698       -2.23036594
 C           -1.89581415        0.04832125       -2.14567020
 C           -1.19107172       -3.30903265       -0.92388033
 C           -1.56196119       -3.30404061        0.48191230
 C           -1.99244233       -2.29610017       -1.58649931
 C           -2.64665522       -1.40768650        1.63817459
 C           -2.67683740       -2.38239538        0.63551378
 C           -3.11162187       -2.01882517       -0.70799788
 C           -2.95588646        1.01731130        1.85344738
 C           -3.48406064       -0.29881017        1.51816965
 C           -2.72132979        2.89190440        0.24948716
 C           -2.81872887        2.55863815       -1.16785576
 C           -3.57573851        1.98584291        0.97347804
 C           -3.23189159        0.17711097       -1.74986096
 C           -3.81038536       -0.83723618       -0.88285548
 C           -4.27078041       -0.15380615        0.30724200
 C           -3.74264686        1.45979623       -1.30348928
 C           -4.36647334        1.25986114       -0.00604972




