%chk=000051.chk
%mem=8GB
%Nproc=16
#p B3LYP/6-31G* opt pop=NPA

Template file

0 1
 C            4.90292348       -0.26226865        0.12328451
 C            4.41010824       -1.62421344        0.05006686
 C            3.60026484       -1.73679926       -1.14955609
 C            4.40253584        0.45095943       -1.03967216
 C            3.47032694       -0.42029535       -1.73784943
 C            3.92306573        1.72986900       -0.56937478
 C            4.30736688        0.36229366        1.29332013
 C            3.83947845        1.66595291        0.88539938
 C            3.52090513       -1.83625412        1.17923370
 C            3.34759207       -0.56824880        1.85721657
 C            2.38657341       -2.42417382       -0.77656239
 C            2.32995808       -2.49313524        0.67274386
 C            1.20930837       -2.08662929       -1.41928808
 C            2.18767253        0.04500705       -2.04762111
 C            1.12727808       -0.87521512       -2.12108881
 C            2.63581144        2.19012638       -1.04343770
 C            1.90914908        1.41530022       -1.94503583
 C            2.49339664        2.06451881        1.25275240
 C            1.93086984        2.73294906        0.10283875
 C            2.04247872       -0.15334269        2.11727733
 C            1.66954032        1.19241427        1.95599832
 C            1.10262244       -2.20080196        1.26790557
 C            1.04400440       -1.12950547        2.16445598
 C            0.04656528       -2.57074840       -0.84912964
 C           -0.05239200       -2.52135572        0.54687672
 C           -1.09562886       -2.48359020       -1.61921204
 C           -0.13301567       -0.44672166       -2.56749300
 C           -1.22038397       -1.32092816       -2.47671501
 C            0.62415691        1.86030057       -2.22651339
 C           -0.38505483        0.91672311       -2.66726277
 C            0.54922159        2.82857423        0.01501835
 C           -0.00843815        2.73958391       -1.25722149
 C            0.31457418        1.52180186        2.03953424
 C           -0.22440487        2.42663072        1.10913325
 C           -0.18797957       -0.77098906        2.69110940
 C           -0.52456468        0.63855302        2.71313688
 C           -1.29882273       -2.32007183        1.14914783
 C           -1.37470006       -1.49196316        2.26624022
 C           -2.37633842       -2.73547694       -0.99920427
 C           -2.46091051       -2.62024274        0.44005054
 C           -2.56196982       -0.78688081       -2.27883707
 C           -3.32836688       -1.80369147       -1.57433625
 C           -1.68227468        1.44365967       -2.25701097
 C           -1.44304978        2.59309334       -1.39298621
 C           -2.72144806        0.56247205       -1.96326599
 C           -1.60603883        2.61839240        1.04178901
 C           -2.23056392        2.76467552       -0.26571522
 C           -1.96641939        0.75691576        2.58975388
 C           -2.50456838       -0.58923020        2.42637531
 C           -2.49363621        1.81585685        1.86588810
 C           -3.69281017       -1.90628548        0.73953232
 C           -4.23376276       -1.40528585       -0.51717992
 C           -3.66010395       -0.80263860        1.68259526
 C           -3.74955109        0.97730926       -1.10887671
 C           -3.51900506        2.10382025       -0.22233480
 C           -3.73884296        1.64280132        1.13882422
 C           -4.51458969        0.00393093       -0.34651435
 C           -4.33811301        0.32249793        1.06179659




