%chk=000253.chk
%mem=8GB
%Nproc=48
#p B3LYP/6-31G* opt pop=NPA

Template file

0 1
 C            4.34766786        1.48269321       -0.00000000
 C            4.23596564        0.63448340        1.17396850
 C            4.25845086       -0.74572439        0.72718885
 C            4.23596564        0.63448340       -1.17396850
 C            4.25845086       -0.74572439       -0.72718885
 C            3.10186490        1.09779879       -1.95757515
 C            3.21130615        2.38486333       -0.00000000
 C            2.48267275        2.20253475       -1.24443736
 C            3.10186490        1.09779879        1.95757515
 C            2.48267275        2.20253475        1.24443736
 C            2.28295680        0.16663593        2.58105805
 C            3.20437229       -1.63931588        1.17334222
 C            2.37010862       -1.24241344        2.20973790
 C            3.20437229       -1.63931588       -1.17334222
 C            2.61454572       -2.26597430        0.00000000
 C            2.28295680        0.16663593       -2.58105805
 C            2.37010862       -1.24241344       -2.20973790
 C            0.87611278        0.48326101       -2.77149680
 C            1.09336789        2.29216224       -1.19445319
 C            0.30779860        1.54865771       -2.08515486
 C            1.09336789        2.29216224        1.19445319
 C            0.51929443        2.72019510       -0.00000000
 C            0.87611278        0.48326101        2.77149680
 C            0.30779860        1.54865771        2.08515486
 C            1.02863304       -1.78706412        2.26635582
 C            0.15313319       -0.76825376        2.82135780
 C            1.25241220       -2.57911862        0.00000000
 C            0.55303622       -2.56812729        1.21822799
 C            1.02863304       -1.78706412       -2.26635582
 C            0.15313319       -0.76825376       -2.82135780
 C            0.55303622       -2.56812729       -1.21822799
 C           -1.18702105       -0.78556112       -2.45418630
 C           -1.08274189        1.59002582       -1.94207191
 C           -1.83558804        0.41900941       -2.15985202
 C           -0.82847944        3.02539501       -0.00000000
 C           -1.60031454        2.61467770       -1.15078955
 C           -1.08274189        1.59002582        1.94207191
 C           -1.60031454        2.61467770        1.15078955
 C           -1.18702105       -0.78556112        2.45418630
 C           -1.83558804        0.41900941        2.15985202
 C           -0.80119814       -2.87901841        1.23658464
 C           -1.70014210       -1.97834543        1.94460726
 C           -0.80119814       -2.87901841       -1.23658464
 C           -1.70014210       -1.97834543       -1.94460726
 C           -1.44486484       -3.25648839        0.00000000
 C           -2.97903770       -1.98588289        1.25405436
 C           -2.97903770       -1.98588289       -1.25405436
 C           -2.78735433       -2.69920678        0.00000000
 C           -3.19569790        0.37830218       -1.83757909
 C           -3.74824177       -0.83109689       -1.24769431
 C           -2.98615187        2.59375165       -0.72944945
 C           -2.98615187        2.59375165        0.72944945
 C           -3.82252941        1.50509458       -1.17110366
 C           -3.19569790        0.37830218        1.83757909
 C           -3.74824177       -0.83109689        1.24769431
 C           -4.38417515       -0.44356290        0.00000000
 C           -3.82252941        1.50509458        1.17110366
 C           -4.51997094        1.00002125       -0.00000000




