%chk=000421.chk
%mem=8GB
%Nproc=48
#p B3LYP/6-31G* opt pop=NPA

Template file

0 1
 C           -4.28256830        0.11376586        0.95531791
 C           -3.87139299       -1.27150618        0.82980907
 C           -3.77118820       -1.56833161       -0.58077774
 C           -4.15801635        0.72868320       -0.35674938
 C           -3.84297996       -0.31098800       -1.30940970
 C           -3.23874929        1.83783922       -0.23232848
 C           -3.34192178        0.77551979        1.84343501
 C           -2.84787206        1.95182191        1.16371722
 C           -2.69131388       -1.46708336        1.65415046
 C           -2.36906051       -0.19874959        2.28663217
 C           -1.63909818       -2.24215617        1.17438953
 C           -2.58766971       -2.26222970       -1.03615177
 C           -1.71922178       -2.81883609       -0.10569979
 C           -2.62632346       -0.18758361       -2.09741262
 C           -2.00043443       -1.49516284       -2.12122085
 C           -2.25061055        2.03331634       -1.19323357
 C           -1.81635882        0.93704007       -1.96255758
 C           -1.34470908        3.04774175       -0.90879736
 C           -1.54883185        2.37600456        1.42411206
 C           -0.98499858        3.23914362        0.48682916
 C           -1.03395737        0.19034745        2.35111945
 C           -0.69992747        1.53749325        2.16117801
 C           -0.38404448       -2.05893810        1.75757054
 C           -0.03984253       -0.78785789        2.24378177
 C            0.59928888       -3.00653537        1.50216486
 C           -0.56995198       -3.38760516       -0.63945562
 C            0.51723971       -3.72889096        0.25364393
 C           -0.62253004       -1.59305443       -2.30598586
 C            0.00500060       -2.74035927       -1.80990241
 C           -0.47317545        0.83490773       -2.34576012
 C            0.12943365       -0.42456396       -2.48137840
 C           -0.13913433        3.15929963       -1.69842887
 C            0.30914778        1.98553706       -2.41046713
 C            0.42974677        3.55307122        0.54981038
 C            0.93535221        3.58200567       -0.81473163
 C            0.61723212        1.93028530        2.37619895
 C            1.20118952        2.97613795        1.54762948
 C            1.30014866       -0.43243988        2.45050272
 C            1.63259072        0.91277480        2.58976610
 C            1.98915175       -2.67100006        1.71556586
 C            2.31982246       -1.32481209        2.12517646
 C            1.76353253       -3.51532405       -0.46164484
 C            1.45267414       -2.78966979       -1.68150845
 C            2.70922055       -2.94689784        0.47904660
 C            1.51909989       -0.51724173       -2.58094516
 C            2.20125217       -1.67431067       -2.03143186
 C            1.74639506        1.89017948       -2.22394101
 C            2.11778767        2.80681773       -1.15484254
 C            2.34709412        0.64422165       -2.30548505
 C            2.57171971        2.59741618        1.24747753
 C            2.87006938        1.38911326        1.99306762
 C            2.96266091        2.37828127       -0.13615075
 C            3.41402467       -0.87263563        1.27981216
 C            3.43073383       -1.74029887        0.11529136
 C            3.25960555       -1.18855672       -1.15113704
 C            3.34676515        0.25382293       -1.32162620
 C            3.60757788        0.49281450        1.12067522
 C            3.59032542        1.06821626       -0.21870978




