%chk=000722.chk
%mem=8GB
%Nproc=16
#p B3LYP/6-31G* opt pop=NPA

Template file

0 1
 C            4.24323219       -0.45311280       -0.08513393
 C            3.65319506       -1.43852720        0.79575396
 C            2.85688854       -0.74357682        1.79744258
 C            3.90986350        0.85293511        0.44308591
 C            3.03235217        0.67770141        1.59194330
 C            3.41473732        1.64584098       -0.66381965
 C            3.58357373       -0.57780441       -1.37481597
 C            2.95993648        0.69868208       -1.67103553
 C            2.98195811       -2.41156692       -0.04211271
 C            2.74669311       -1.76315664       -1.32489192
 C            1.93328877       -3.10940728        0.52939237
 C            1.59636011       -1.24972745        2.08820058
 C            1.37140579       -2.58749656        1.76470716
 C            0.50392869       -0.37449434        2.21433404
 C            1.94358120        1.53362975        1.70599512
 C            0.67854028        1.01481359        2.03452043
 C            2.57693755        2.69795839       -0.34708453
 C            2.02634248        2.73050494        0.99745667
 C            1.44821655        2.95982561       -1.21443329
 C            1.62144785        0.71594161       -2.06254440
 C            0.86933894        1.88667191       -1.89494178
 C            1.44177277       -1.69110512       -1.81113775
 C            0.97871671       -0.48678190       -2.36190110
 C            0.79714953       -3.45290370       -0.30239795
 C            0.53008170       -2.68404877       -1.43235443
 C            0.04214420       -3.13790814        1.88544265
 C           -0.28846909       -3.76085052        0.61057088
 C           -0.77433905       -0.90023168        2.47220003
 C           -1.03875631       -2.24662233        2.22483772
 C           -1.86516654       -0.04902501        2.58406793
 C           -0.42863220        1.88136860        2.10116913
 C           -1.69919231        1.36496416        2.33688452
 C            0.88202878        3.60767146        0.94776581
 C            0.60839625        3.86743441       -0.46068729
 C           -0.35095077        3.16008052        1.54817272
 C           -0.82190130        3.79969214       -0.64563186
 C           -1.41465252        3.59773413        0.66455074
 C           -0.50860385        1.88334060       -2.16940813
 C           -1.36012686        2.77645475       -1.51695739
 C           -0.28181645       -0.43544335       -2.93861175
 C           -1.08597811        0.75649301       -2.74635268
 C           -0.76905733       -2.65876068       -1.93330930
 C           -1.15709238       -1.58466133       -2.82315929
 C           -1.63872853       -3.35828346        0.25673165
 C           -2.16813243       -2.60374188        1.38136233
 C           -1.88973638       -2.92234543       -1.03910270
 C           -3.12885213       -0.45388208        1.98597171
 C           -3.15731277       -1.65410214        1.16910110
 C           -2.81490833        1.80957258        1.50548364
 C           -2.56034364        2.72660987        0.50083005
 C           -2.56479929        2.26325896       -0.88396673
 C           -3.60555453        0.64660424        1.17133355
 C           -2.40305521        0.33246747       -2.28989785
 C           -2.47032438       -1.11216718       -2.41353288
 C           -2.89665762       -1.89834354       -1.27188446
 C           -3.48803689       -1.25122146       -0.19299852
 C           -2.97471599        0.96292046       -1.18529489
 C           -3.62621517        0.20012736       -0.20990759




