%chk=000971.chk
%mem=8GB
%Nproc=16
#p B3LYP/6-31G* opt pop=NPA

Template file

0 1
 C            4.29512345        0.14283158       -0.53073384
 C            3.65462216       -0.44582305       -1.68926895
 C            3.27410599       -1.79741230       -1.32884033
 C            4.06510510       -0.74228590        0.60284715
 C            3.32965166       -1.89872470        0.11915643
 C            3.50768867        0.04844366        1.68552923
 C            3.90262161        1.47669900       -0.13512569
 C            3.52229112        1.43785248        1.26995401
 C            2.81677116        2.13165753       -0.84250423
 C            2.47950109        0.19815450       -2.25863487
 C            2.03282349        1.41490288       -1.75427602
 C            2.01669798       -2.08762501       -1.98655923
 C            1.50587910       -0.83904936       -2.53817136
 C            1.12680216       -2.92421030       -1.33531435
 C            2.19487298       -2.33452819        0.80362043
 C            1.24213229       -3.08009025        0.11096140
 C            2.40326067       -0.43526249        2.37090509
 C            1.84188195       -1.72879015        2.00901077
 C            1.29029587        0.45742055        2.66805739
 C            2.31104879        2.23423943        1.40660515
 C            2.15188473        2.94882465        0.15265310
 C            1.18180000        1.68154691        2.01662336
 C            0.90106076        3.44218188       -0.15308999
 C            0.68929822        1.76639907       -1.90910525
 C            0.29028984        2.99525745       -1.38873895
 C            0.14704856       -0.55173916       -2.41258359
 C           -0.26859840        0.76530326       -2.16110298
 C           -0.28295984       -2.78699060       -1.63124535
 C           -0.74329455       -1.60988754       -2.21678787
 C           -0.10643452       -3.22509774        0.64687270
 C           -1.00104992       -3.33986179       -0.49816617
 C            0.45336626       -1.72577392        2.44213277
 C            0.11124946       -0.36540764        2.83420682
 C           -0.49507106       -2.48643740        1.76578223
 C           -1.13519226        0.13641874        2.48479354
 C           -0.08305107        2.19016454        1.69519861
 C           -0.13933541        3.29481109        0.83996913
 C           -1.23874964        1.42107476        1.93587091
 C           -1.11695513        3.30289012       -1.26904310
 C           -1.36324708        3.61002955        0.13575885
 C           -1.64360324        1.05743633       -2.10619711
 C           -2.08104483        2.30475683       -1.66333321
 C           -2.10708956       -1.35744606       -2.20184543
 C           -2.56934268        0.01326263       -2.11435425
 C           -2.34406378       -3.02802939       -0.35143672
 C           -2.96225738       -2.17360615       -1.35230864
 C           -1.83648881       -2.14794803        1.92952955
 C           -2.17035676       -0.78232283        2.30675797
 C           -2.81218968       -2.59113653        0.94972816
 C           -3.69312585        0.04899139       -1.18416732
 C           -3.89864982       -1.29332682       -0.67686275
 C           -3.38149139       -0.40066251        1.59853444
 C           -3.77054842       -1.51616328        0.75000946
 C           -2.48935664        1.86846658        1.49864979
 C           -2.57636485        2.93569995        0.52539164
 C           -3.14644611        2.35870429       -0.67894715
 C           -3.49513728        0.89548943        1.11441954
 C           -3.78767919        1.11572805       -0.30078492




