%chk=000119.chk
%mem=8GB
%Nproc=48
#p B3LYP/6-31G* opt pop=NPA

Template file

0 1
 C            4.55235061       -0.77920440       -0.88927158
 C            4.74888726        0.48618526       -0.20697437
 C            3.95836848        1.48631106       -0.89956479
 C            3.58880788       -0.56530480       -1.95636046
 C            3.19789906        0.82800233       -1.94975350
 C            2.55013641       -1.55773309       -1.81258377
 C            3.95329231       -1.70510687        0.05626376
 C            2.77653286       -2.28029991       -0.57474618
 C            4.20358451        0.36071670        1.13467552
 C            3.79182375       -1.01801212        1.32471299
 C            3.22088892        2.22614186        0.10389166
 C            3.21758441        1.41589624        1.31495052
 C            2.03018661        2.80864268       -0.28724998
 C            1.84643362        1.15084075       -2.08387146
 C            1.40812704        2.34529664       -1.52103068
 C            1.24418471       -1.20603682       -2.10513580
 C            0.90787989        0.13841324       -2.32319652
 C            0.24901284       -2.06655252       -1.66477815
 C            1.66394692       -2.58016408        0.21100046
 C            0.41668891       -2.68282245       -0.41835450
 C            2.63955297       -1.26527981        2.05436418
 C            1.70499373       -2.26910720        1.57335282
 C            2.00115410        1.11289357        1.93580520
 C            1.83300806       -0.14276268        2.51512766
 C            0.96062606        2.88129220        0.67957469
 C            0.87641242        1.89935690        1.66576375
 C           -0.01895118        2.59694930       -1.39544758
 C           -0.22296573        3.20132251       -0.08833969
 C           -0.44961377        0.46746805       -2.44063161
 C           -0.93039983        1.64392107       -1.84489841
 C           -1.01917856       -1.88732488       -2.19855847
 C           -1.33712958       -0.57115376       -2.71673056
 C           -2.18374910       -2.37312286       -1.48534528
 C           -0.69933540       -2.97192010        0.36676570
 C           -2.03955812       -2.78305246       -0.16793285
 C            0.46315403       -2.03380225        2.28754417
 C            0.49055341       -0.65103391        2.74359498
 C           -0.71136938       -2.52890141        1.74964131
 C           -0.39195722        1.49742474        2.10491795
 C           -0.60626070        0.16693943        2.48957788
 C           -1.44904627        3.03580632        0.52273420
 C           -1.48393847        2.30178425        1.77604237
 C           -2.25168553        1.71499428       -1.37760541
 C           -2.54247847        2.51778600       -0.27154321
 C           -2.76136096       -0.36486414       -2.55248882
 C           -3.30271457       -1.52774834       -1.86165167
 C           -3.20703418        0.81337956       -1.84388818
 C           -4.20627389       -1.04905421       -0.83211356
 C           -4.29464393        0.39458334       -0.97136758
 C           -2.84696369       -2.17366231        0.88364659
 C           -1.93326226       -1.77240012        1.93905108
 C           -1.86044487       -0.43013318        2.30623402
 C           -3.91164926       -1.33796652        0.56179995
 C           -2.82980406        1.77669586        1.91696230
 C           -3.54366398        2.08923153        0.68751220
 C           -4.38563065        0.95720924        0.36161549
 C           -2.99451778        0.36184984        2.16323016
 C           -4.08049039       -0.10280757        1.31106109




