%chk=000643.chk
%mem=8GB
%Nproc=48
#p B3LYP/6-31G* opt pop=NPA

Template file

0 1
 C            4.16779238        0.85643747       -0.66150904
 C            4.06198526       -0.39022285        0.07441104
 C            3.39065738       -1.34677800       -0.78174899
 C            3.31612256        0.75032430       -1.83505288
 C            2.83486447       -0.60894831       -1.90742521
 C            2.34257157        1.81773944       -1.77292552
 C            3.61836365        1.90649313        0.17255201
 C            2.69616113        2.66841830       -0.64635525
 C            3.47982045       -0.10636468        1.37076776
 C            3.09857528        1.29722557        1.38538140
 C            2.61726892       -1.04259293        1.91418689
 C            2.59786323       -2.33257867       -0.20268524
 C            2.33314887       -2.26536766        1.17232211
 C            1.67449217       -2.95411125       -1.03774456
 C            1.50973644       -0.84890543       -2.25553417
 C            1.06018148       -2.15467424       -2.08770581
 C            0.99604312        1.53030892       -1.99569901
 C            0.57884583        0.20222325       -2.20876645
 C            0.05400224        2.50064346       -1.64240805
 C            1.66693778        3.32550610        0.00602042
 C            0.39265678        3.44587173       -0.67343180
 C            1.82514706        1.67825842        1.81256339
 C            1.35031264        2.91005157        1.36542701
 C            1.36528011       -0.59133587        2.49654126
 C            0.91447993        0.69957827        2.24243523
 C            1.08109515       -2.78577981        1.70465286
 C            0.42810532       -1.69750191        2.42460233
 C            0.65001285       -3.80679867       -0.46827550
 C            0.31633975       -3.65027737        0.93378308
 C           -0.36240479       -2.43401080       -2.07912822
 C           -0.56287669       -3.60467671       -1.24227054
 C           -0.79030615       -0.08269379       -2.28607881
 C           -1.25731695       -1.37148835       -2.00431168
 C           -1.28911664        2.28159736       -1.93361001
 C           -1.69314035        0.96720084       -2.39185975
 C           -2.31143436        2.76031980       -1.01032818
 C           -0.57254577        3.77333135        0.35791464
 C           -0.02876330        3.27424168        1.61251491
 C           -1.92037265        3.25910357        0.22640606
 C           -0.46518793        0.94893503        2.22816365
 C           -0.93211600        2.25401851        2.09161841
 C           -2.20294381        2.48667504        1.43215699
 C           -0.92250351       -1.43710673        2.20967208
 C           -1.37661093       -0.11480488        2.17151551
 C           -1.12992138       -3.58424722        1.03347773
 C           -1.67323035       -3.60962558       -0.31810943
 C           -1.73856411       -2.45577793        1.71948260
 C           -2.50625067       -1.55694296       -1.38822257
 C           -2.64115375       -2.53611972       -0.40502683
 C           -2.92051617       -2.10912465        0.95385138
 C           -3.06364843        0.75745260       -1.97472489
 C           -3.42747579        1.83734016       -1.06970031
 C           -3.40538626       -0.49653917       -1.33481262
 C           -3.12032321        1.44712928        1.38126815
 C           -2.71944308        0.13689876        1.87121528
 C           -3.48149606       -0.85524341        1.13043200
 C           -3.89593213        1.24361946        0.16778703
 C           -4.00788258       -0.18630384       -0.04767193




