%chk=000564.chk
%mem=8GB
%Nproc=48
#p B3LYP/6-31G* opt pop=NPA

Template file

0 1
 C            3.65194287        2.13528680       -0.42441740
 C            3.65622769        1.05231745       -1.39116113
 C            3.73914754       -0.20025378       -0.66037402
 C            3.62711279        1.54324284        0.90095850
 C            3.87468971        0.12382072        0.75654391
 C            2.40514719        1.96415868        1.56460102
 C            2.41513493        2.87257738       -0.59924376
 C            1.69884929        2.85771960        0.66310988
 C            2.53966834        1.25554209       -2.29385636
 C            1.73503848        2.34868241       -1.77005022
 C            1.89348339        0.14075476       -2.79857100
 C            2.93295115       -1.27212394       -1.05307694
 C            2.15992980       -1.16760257       -2.21020730
 C            2.65228585       -2.28402393       -0.13898096
 C            3.31372304       -0.73005671        1.69283773
 C            2.94609402       -2.06468676        1.26575660
 C            1.67151989        1.02439709        2.28905286
 C            2.23563554       -0.23252229        2.54074311
 C            0.29240295        1.21151588        2.44253868
 C            0.31500219        2.78318756        0.62302538
 C           -0.34876985        2.21559389        1.70823116
 C            0.34876985        2.21559389       -1.70823116
 C           -0.31500219        2.78318756       -0.62302538
 C            0.46746900        0.21526056       -3.05320957
 C           -0.29240295        1.21151588       -2.44253868
 C            0.94563433       -1.96206774       -2.34482345
 C           -0.02673866       -1.14648053       -3.06526389
 C            1.38647184       -2.99765937       -0.21707409
 C            0.53361319       -2.78758196       -1.29621989
 C            1.78814788       -2.47890170        2.03904230
 C            1.38008515       -1.36339486        2.86899619
 C            0.82203145       -3.05670156        1.12370207
 C           -0.46746900        0.21526056        3.05320957
 C            0.02673866       -1.14648053        3.06526389
 C           -1.89348339        0.14075476        2.79857100
 C           -1.73503848        2.34868241        1.77005022
 C           -2.53966834        1.25554209        2.29385636
 C           -1.69884929        2.85771960       -0.66310988
 C           -2.41513493        2.87257738        0.59924376
 C           -1.67151989        1.02439709       -2.28905286
 C           -2.40514719        1.96415868       -1.56460102
 C           -1.38008515       -1.36339486       -2.86899619
 C           -2.23563554       -0.23252229       -2.54074311
 C           -0.82203145       -3.05670156       -1.12370207
 C           -1.78814788       -2.47890170       -2.03904230
 C           -0.53361319       -2.78758196        1.29621989
 C           -0.94563433       -1.96206774        2.34482345
 C           -2.15992980       -1.16760257        2.21020730
 C           -1.38647184       -2.99765937        0.21707409
 C           -3.31372304       -0.73005671       -1.69283773
 C           -2.94609402       -2.06468676       -1.26575660
 C           -2.93295115       -1.27212394        1.05307694
 C           -2.65228585       -2.28402393        0.13898096
 C           -3.65622769        1.05231745        1.39116113
 C           -3.65194287        2.13528680        0.42441740
 C           -3.62711279        1.54324284       -0.90095850
 C           -3.73914754       -0.20025378        0.66037402
 C           -3.87468971        0.12382072       -0.75654391




