%chk=001180.chk
%mem=8GB
%Nproc=16
#p B3LYP/6-31G* opt pop=NPA

Template file

0 1
 C            3.15877208       -2.23561878        0.60859547
 C            3.83097279       -0.98285155        0.36126647
 C            3.69895175       -0.67337573       -1.05567338
 C            2.66185183       -2.73680570       -0.66385712
 C            2.89869777       -1.71879571       -1.66829348
 C            1.30743808       -3.21591791       -0.44937036
 C            2.05576486       -2.25881150        1.54833043
 C            1.01619036       -3.09385175        0.97104290
 C            1.68766165       -1.10511074        2.23777717
 C            3.40681429        0.19003247        1.09828738
 C            2.37756235        0.10310081        2.03981131
 C            3.26161039        0.71079640       -1.16135917
 C            3.41161273        1.29716501        0.15660781
 C            2.13300711        1.01853221       -1.91818621
 C            1.86310100       -1.36064604       -2.51911884
 C            1.59339929        0.04779471       -2.76395767
 C            0.30560852       -2.91130349       -1.36803607
 C            0.57745513       -2.04263947       -2.42862856
 C           -1.01619036       -3.09385175       -0.97104290
 C           -0.30560852       -2.91130349        1.36803607
 C           -1.30743808       -3.21591791        0.44937036
 C            0.44664261       -1.10397052        2.87040884
 C           -0.57745513       -2.04263947        2.42862856
 C           -0.21058088        0.15060627        3.19523170
 C            1.84083845        1.29548277        2.52599796
 C            0.46746170        1.33770493        2.99616044
 C            2.68516610        2.43474021        0.46777860
 C            2.08331050        2.52385142        1.78652256
 C            1.39964708        2.17376023       -1.62662780
 C            1.70960535        2.92948893       -0.49129477
 C            0.20547839        2.42278269       -2.30257873
 C            0.21058088        0.15060627       -3.19523170
 C           -0.44664261       -1.10397052       -2.87040884
 C           -0.46746170        1.33770493       -2.99616044
 C           -2.05576486       -2.25881150       -1.54833043
 C           -1.68766165       -1.10511074       -2.23777717
 C           -2.66185183       -2.73680570        0.66385712
 C           -3.15877208       -2.23561878       -0.60859547
 C           -1.86310100       -1.36064604        2.51911884
 C           -1.59339929        0.04779471        2.76395767
 C           -2.89869777       -1.71879571        1.66829348
 C           -2.13300711        1.01853221        1.91818621
 C           -0.20547839        2.42278269        2.30257873
 C            0.81725700        3.22524540        1.65620042
 C            0.64246762        3.57861444        0.26102063
 C           -1.39964708        2.17376023        1.62662780
 C           -0.81725700        3.22524540       -1.65620042
 C           -0.64246762        3.57861444       -0.26102063
 C           -1.70960535        2.92948893        0.49129477
 C           -1.84083845        1.29548277       -2.52599796
 C           -2.37756235        0.10310081       -2.03981131
 C           -2.08331050        2.52385142       -1.78652256
 C           -2.68516610        2.43474021       -0.46777860
 C           -3.83097279       -0.98285155       -0.36126647
 C           -3.69895175       -0.67337573        1.05567338
 C           -3.26161039        0.71079640        1.16135917
 C           -3.40681429        0.19003247       -1.09828738
 C           -3.41161273        1.29716501       -0.15660781




