%chk=000824.chk
%mem=8GB
%Nproc=16
#p B3LYP/6-31G* opt pop=NPA

Template file

0 1
 C            4.22357156       -0.51565253        0.03676007
 C            3.67141451       -1.67365223        0.71398766
 C            2.95560458       -2.45848213       -0.28005356
 C            3.83811353       -0.60580778       -1.36350501
 C            2.83724360       -1.64879398       -1.47087689
 C            3.50103078        0.72402817       -1.81365704
 C            3.87173131        0.81419592        0.50263500
 C            3.58495324        1.62092052       -0.66888324
 C            3.07941217        0.96499964        1.63536918
 C            2.78003874       -1.47873222        1.84489600
 C            2.55847096       -0.20302566        2.33993649
 C            1.73454173       -2.93616029        0.33124448
 C            1.65109025       -2.37287055        1.67023804
 C            0.56748423       -2.97218822       -0.42406927
 C            1.55561440       -1.34537043       -1.92947727
 C            0.49922792       -2.20218698       -1.59526948
 C            2.20745132        0.94219602       -2.42825471
 C            1.28023609       -0.09749912       -2.51285110
 C            2.39272499        2.45598372       -0.68556994
 C            1.75174068        2.23769939       -1.96913649
 C            2.03920014        1.98170933        1.65247005
 C            1.60014031        2.55573506        0.45730951
 C            1.23814727        0.13867485        2.84176822
 C            1.06705523        1.56833353        2.64884229
 C            0.38844200       -2.02584966        2.15221554
 C            0.15769426       -0.71849331        2.61728508
 C           -0.60151199       -3.23560200        0.28249043
 C           -0.67629021       -2.77381246        1.65878987
 C           -1.89548793       -3.02117763       -0.33612412
 C           -0.71895462       -2.04499515       -2.25094368
 C           -1.95209971       -2.47203712       -1.60781473
 C           -0.03844507        0.22688281       -2.83965802
 C           -0.98169470       -0.79111267       -2.93200823
 C            0.40674695        2.53445064       -2.09475012
 C           -0.46691008        1.55222984       -2.71612212
 C            0.26242518        2.94361370        0.33010393
 C           -0.30437735        3.05923705       -0.94155962
 C           -0.21541884        2.07856166        2.57748227
 C           -0.56458774        2.92751082        1.45234429
 C           -1.14588269       -0.19739248        2.68677126
 C           -1.33431343        1.18061117        2.79287663
 C           -2.03110834       -2.34638301        1.91499412
 C           -2.80173732       -2.53900038        0.69550322
 C           -2.24507542       -0.99308622        2.36933461
 C           -3.57781988       -1.33106588        0.46315939
 C           -3.33368465       -0.43218746        1.58048465
 C           -2.98226258       -1.49302338       -1.91418430
 C           -2.39139852       -0.47630510       -2.76644267
 C           -3.67697870       -0.82122826       -0.82700284
 C           -1.82004628        1.84295383       -2.26388857
 C           -1.71761989        2.76647098       -1.14312279
 C           -2.76323667        0.82450716       -2.24143680
 C           -3.57323064        0.61322031       -1.05001310
 C           -2.00664329        2.84453311        1.28323710
 C           -2.49147330        1.78643019        2.15540042
 C           -3.38865495        0.94233934        1.38667692
 C           -2.55071291        2.61708334       -0.04216152
 C           -3.45389021        1.47806220        0.03423052




