%chk=000260.chk
%mem=8GB
%Nproc=48
#p B3LYP/6-31G* opt pop=NPA

Template file

0 1
 C            4.24381582        0.68741559       -1.42483779
 C            4.36956159       -0.55069934       -0.67853864
 C            4.32999251       -0.21999108        0.73347762
 C            3.89091908        1.73629421       -0.48153678
 C            3.98179589        1.18986017        0.85145408
 C            2.62551680        2.29441525       -0.90302282
 C            3.13504854        0.53603104       -2.35404656
 C            2.22191562        1.62924688       -2.13229600
 C            3.39287291       -1.48737351       -1.20391432
 C            2.61382128       -0.80353076       -2.22744885
 C            2.73319958       -2.34048054       -0.32753351
 C            3.43576557       -0.96552114        1.60370435
 C            2.76670801       -2.08208626        1.10893098
 C            2.82099786        1.28359061        1.71955272
 C            2.70537718        0.00631367        2.39937156
 C            1.63408797        2.57615342        0.03587341
 C            1.65728989        1.93007458        1.28406281
 C            0.40887976        2.95672449       -0.49370595
 C            0.86079730        1.42130311       -2.32275856
 C            0.03006163        2.38637989       -1.77743677
 C            1.23322245       -0.99131181       -2.25561984
 C            0.37049866        0.10968082       -2.43429163
 C            1.38868441       -2.77197562       -0.66172831
 C            0.72782276       -2.18324934       -1.73572767
 C            1.46524461       -2.43883286        1.65753217
 C            0.65256100       -2.96482622        0.57630468
 C            1.47762434       -0.33941518        2.93990257
 C            0.87485851       -1.62601062        2.61094714
 C            0.45664134        1.67326105        1.96631120
 C            0.41172809        0.64127916        2.90536511
 C           -0.77097376        2.95342370        0.34317903
 C           -0.74301133        2.25528866        1.54372798
 C           -1.39633295        2.16847318       -1.75939375
 C           -1.90631708        2.80045142       -0.55338457
 C           -1.01734042       -0.11158678       -2.45801330
 C           -1.90505066        0.93594025       -2.14802920
 C           -0.62684992       -2.44324147       -1.86468963
 C           -1.46584425       -1.43241312       -2.46749009
 C           -0.72522066       -2.75388767        0.55129357
 C           -1.33850848       -2.91221426       -0.68706843
 C           -0.56712098       -1.43839931        2.58544590
 C           -0.82052755       -0.09813820        3.08436400
 C           -1.32325615       -1.92046233        1.51304455
 C           -1.94809759        1.82224911        2.10282521
 C           -2.00698692        0.51817380        2.74194488
 C           -3.12367865        2.37818658       -0.04093789
 C           -3.18793929        1.98182397        1.35431755
 C           -3.25309346        0.68423726       -1.88175366
 C           -3.90483921        1.42231485       -0.80989724
 C           -2.82182125       -1.75374027       -2.06661829
 C           -2.72721562       -2.55038254       -0.85042268
 C           -3.74310416       -0.67478736       -1.80588080
 C           -2.59781075       -1.37315866        1.28912032
 C           -3.00074647       -0.25183967        2.02036909
 C           -3.90515742        0.71765426        1.42527758
 C           -4.46316907        0.44842192        0.11648772
 C           -3.36630223       -1.79940057        0.20424314
 C           -4.26099465       -0.86570643       -0.46040737




