%chk=000519.chk
%mem=8GB
%Nproc=48
#p B3LYP/6-31G* opt pop=NPA

Template file

0 1
 C            4.40464813       -0.08025873       -0.59878303
 C            4.08986973        1.15366044        0.09441940
 C            3.54961672        0.81458682        1.40250714
 C            4.02635964       -1.17741731        0.27033969
 C            3.35325821       -0.62438183        1.43273376
 C            3.29455548       -2.12690316       -0.53826716
 C            3.55437821       -0.15133018       -1.77632367
 C            2.83632038       -1.40524561       -1.72164265
 C            3.28097319        1.96164422       -0.80000674
 C            2.79011868        1.07441716       -1.84421343
 C            2.39537422        2.86867527       -0.23462983
 C            2.57377359        1.63726339        1.94131110
 C            2.19975104        2.83612254        1.20727050
 C            1.34923576        1.04001187        2.45005420
 C            2.11466965       -1.15941814        1.79631228
 C            1.08256095       -0.31217459        2.22167601
 C            2.37756353       -2.93537272        0.10993654
 C            1.80987530       -2.44900133        1.36568974
 C            1.27350216       -3.43897783       -0.67771434
 C            1.47735497       -1.43115871       -2.04081906
 C            0.77606222       -2.59925721       -1.75114122
 C            1.42011486        1.01504350       -2.08244251
 C            0.76745239       -0.22845644       -2.17691758
 C            1.08589500        3.04208806       -0.84260584
 C            0.67012816        2.16782754       -1.84714872
 C            0.79859501        3.10123394        1.47581070
 C            0.28169041        2.01056819        2.27240925
 C            0.14485185        3.38280484        0.21441872
 C           -0.98756944        1.54240646        1.98091635
 C           -0.25357212       -0.74543437        2.19363082
 C           -1.27960918        0.21175334        2.25733794
 C            0.44429582       -2.92712638        1.44663121
 C            0.17477564       -3.67570981        0.23139773
 C           -0.55651645       -2.08985982        1.92545618
 C           -0.67328318       -2.56592888       -1.63782635
 C           -1.04778159       -3.37660330       -0.48539836
 C           -0.62434469       -0.26050563       -2.32227556
 C           -1.34881840       -1.37185377       -1.87413274
 C           -0.67572712        2.17307761       -2.18819601
 C           -1.28873843        0.92761670       -2.60315298
 C           -1.17756725        2.98783304        0.04927121
 C           -1.78672712        2.24399629        1.07047328
 C           -1.60191538        2.79624422       -1.26176355
 C           -3.12551919        1.87346353        0.93900966
 C           -2.61371081       -0.17790570        2.27504987
 C           -3.59285400        0.67982361        1.62752395
 C           -1.86606149       -2.44266032        1.60340120
 C           -2.13143984       -2.96505134        0.26959352
 C           -2.94786897       -1.53965762        1.93275287
 C           -2.64428383       -1.21402909       -1.36140102
 C           -4.32299694       -0.13247847        0.66293282
 C           -3.07738267       -2.05072347       -0.33174966
 C           -3.82748103       -1.48832871        0.77615663
 C           -2.70939976        1.03593939       -2.32427429
 C           -2.91049531        2.23236614       -1.51683395
 C           -3.73172758        1.86842976       -0.38155265
 C           -3.37151835       -0.06098137       -1.65033121
 C           -4.22271082        0.52529395       -0.62488019




