%chk=001192.chk
%mem=8GB
%Nproc=16
#p B3LYP/6-31G* opt pop=NPA

Template file

0 1
 C            3.72545737       -0.64848550        0.79449223
 C            3.53377891       -0.84203738       -0.63433078
 C            3.19816931        0.44835370       -1.21070920
 C            3.58758595        0.76963609        1.07722922
 C            3.40221084        1.46006701       -0.18075360
 C            2.57982169        0.92754140        2.10849570
 C            2.88147499       -1.37822949        1.72791501
 C            2.13056977       -0.40206025        2.49800010
 C            2.24652221       -2.53125804        1.29460612
 C            2.86291091       -1.97362690       -1.07024242
 C            2.42943947       -2.95153100       -0.08539720
 C            1.80016591       -1.83445711       -2.05196039
 C            2.11964034        0.56727348       -2.09079140
 C            1.40583607       -0.57097775       -2.48770406
 C            1.60399961        1.83813940       -2.34725570
 C            2.60761439        2.59545988       -0.19442965
 C            1.89276507        2.91329449       -1.41536340
 C            1.63950066        1.95277327        2.00057615
 C            1.70614322        2.84815841        0.92681121
 C            0.44192566        1.82357565        2.70225980
 C            0.77780367       -0.59875310        2.76367501
 C            0.05605637        0.50912492        3.19181839
 C            0.84897445       -2.73982506        1.63510136
 C            0.10946550       -1.70324527        2.20968330
 C            1.17906967       -3.52638423       -0.54477674
 C            0.78159914       -2.83358954       -1.75762077
 C            0.25798594       -3.54097075        0.57437344
 C           -0.56185886       -2.51063869       -1.93775844
 C            0.14275408       -0.43967160       -3.06159090
 C           -0.88487507       -1.42125782       -2.74802216
 C            0.22253739        1.99000791       -2.76830239
 C           -0.49276300        0.86391539       -3.14557237
 C            0.63248213        3.53497219       -1.04981808
 C            0.47736498        3.41695067        0.38889545
 C           -0.39876920        2.99085495       -1.91134367
 C           -0.75966631        2.46665369        2.19570473
 C           -0.74528031        3.01411459        0.91744341
 C           -1.38727336        0.45341931        3.22981362
 C           -1.89817680        1.68048591        2.63732512
 C           -1.29034983       -1.71757049        2.09629024
 C           -2.04934231       -0.65851740        2.58860277
 C           -1.09116602       -3.39101365        0.30565266
 C           -1.50504823       -3.01880838       -1.04106040
 C           -1.90225519       -2.61538689        1.22306841
 C           -2.81093772       -2.39094095       -0.92800950
 C           -3.08097981       -2.18933601        0.48738687
 C           -2.14374225       -0.70789843       -2.57029571
 C           -1.88017596        0.71285782       -2.73427346
 C           -3.05306648       -1.13690399       -1.61255259
 C           -1.65495967        2.74990713       -1.37125378
 C           -1.84586033        2.84345983        0.07046159
 C           -2.44578002        1.62904995       -1.85384859
 C           -2.92366612        1.31944348        1.67771408
 C           -3.13040192       -0.11660150        1.77777606
 C           -3.56325668       -0.83143628        0.66734958
 C           -3.58147927       -0.19097301       -0.64015723
 C           -2.92387600        1.93076577        0.43079017
 C           -3.27661899        1.16213014       -0.75411725




