%chk=000840.chk
%mem=8GB
%Nproc=16
#p B3LYP/6-31G* opt pop=NPA

Template file

0 1
 C            4.22478545        0.41536812       -0.50324173
 C            4.23655960       -0.87779076        0.15024949
 C            3.51525345       -1.80752834       -0.70780742
 C            3.68260456        0.22172504       -1.83814370
 C            2.99786709       -1.05402127       -1.83622980
 C            2.92834885        1.40833372       -2.16933986
 C            3.47279445        1.50336159        0.10023811
 C            2.94481447        2.27593257       -0.99993124
 C            2.65429559        1.25270091        1.20357224
 C            3.67047559       -0.97992648        1.47951296
 C            2.90982883        0.13873019        2.00945837
 C            2.57382615       -2.54204214        0.12113227
 C            2.79038411       -2.13670903        1.49652713
 C            1.26272511       -2.68197286       -0.31771223
 C            1.62924505       -1.11439083       -2.09553952
 C            0.91620921       -2.19321438       -1.57922826
 C            1.54176166        1.26452992       -2.56966844
 C            0.92274576        0.02123418       -2.52435562
 C            1.62086152        2.83700021       -0.86660258
 C            0.83697068        2.39446273       -2.00947486
 C            1.46297047        1.97652950        1.37999721
 C            1.00272384        2.85073159        0.37905908
 C            0.63540759        1.65845261        2.45994584
 C            1.83358100       -0.43818570        2.79302522
 C            1.62942056       -1.79222273        2.30322010
 C            0.72505432        0.34197741        3.06556077
 C            0.25851401       -2.84504803        0.63532463
 C            0.36258741       -2.16146076        1.85291463
 C           -0.98401853       -3.29063136        0.20190337
 C           -0.37541576       -2.40533845       -2.04164906
 C           -1.28871582       -3.17025393       -1.21167146
 C           -0.47367400       -0.01631637       -2.54072303
 C           -1.10077836       -1.26225967       -2.56361182
 C           -0.54103937        2.31770066       -1.84716530
 C           -1.20735835        1.13670515       -2.21342959
 C           -0.32602477        3.27332307        0.38626937
 C           -1.08202934        3.11905103       -0.84417827
 C           -0.77087341        2.01555903        2.43040434
 C           -1.21044455        2.92028745        1.48257826
 C           -0.59568185       -0.25906172        2.98222597
 C           -0.75558674       -1.50183341        2.37617852
 C           -1.54203447        0.80289773        2.67933213
 C           -2.16442261       -2.89565684        0.94266931
 C           -2.02845832       -1.86328681        1.94984695
 C           -2.61162386       -2.58606431       -1.34220035
 C           -2.49274369       -1.39224583       -2.16334006
 C           -3.17536431       -2.46808647       -0.01147223
 C           -2.59120271        1.04566743       -2.03597520
 C           -3.20295986       -0.25173616       -1.81648859
 C           -2.48048993        3.00032107       -0.49511290
 C           -2.55073370        2.77382346        0.94088356
 C           -3.26487323        1.97534089       -1.14735069
 C           -2.67093343        0.51593435        1.90938289
 C           -2.99903967       -0.81815491        1.65516743
 C           -3.67820400       -1.17658842        0.41622175
 C           -3.90623236       -0.19304887       -0.53736910
 C           -3.26459890        1.52699273        1.15253552
 C           -3.90706047        1.19040249       -0.10632454




