%chk=000117.chk
%mem=8GB
%Nproc=48
#p B3LYP/6-31G* opt pop=NPA

Template file

0 1
 C            4.47750357        0.98288084        0.89808316
 C            4.75780302       -0.19392738        0.09683228
 C            4.06666670       -1.31506729        0.70532435
 C            3.56828771        0.59063395        1.96176953
 C            3.28786313       -0.82203296        1.83074815
 C            2.45080869        1.50129443        1.93672849
 C            3.77550035        1.93747446        0.05676507
 C            2.56590570        2.33967792        0.75666609
 C            4.17157205        0.01024770       -1.21719269
 C            3.64800239        1.36392210       -1.26974491
 C            3.36110425       -2.01431192       -0.34992820
 C            3.26672148       -1.10031786       -1.47990544
 C            2.22878215       -2.72040950        0.00698917
 C            1.97052192       -1.26584728        1.96285447
 C            1.62141794       -2.43723069        1.30051565
 C            1.19163218        1.02200080        2.24300567
 C            0.95601825       -0.35963560        2.31038697
 C            0.12967126        1.83978053        1.91024712
 C            1.40552426        2.59497333        0.02062340
 C            0.16872637        2.48319439        0.66770089
 C            2.46561494        1.58140312       -1.95829280
 C            1.44606338        2.43193234       -1.36125685
 C            2.01752262       -0.83610257       -2.05181850
 C            1.76471921        0.44315623       -2.53435492
 C            1.13298953       -2.77254870       -0.93372238
 C            0.94525020       -1.70438067       -1.80924132
 C            0.22388045       -2.80801297        1.19676544
 C            0.00609755       -3.26067392       -0.17196225
 C           -0.37764508       -0.80231617        2.39688645
 C           -0.74780554       -2.02303734        1.81174937
 C           -1.08681846        1.53652125        2.48804456
 C           -1.36430147        0.13402721        2.73213526
 C           -2.28099672        2.15935164        1.96448325
 C           -1.01511757        2.63282299       -0.07027583
 C           -2.22904976        2.69538652        0.62039466
 C            0.21590744        2.13984792       -2.06761490
 C            0.39683851        0.86356857       -2.74738568
 C           -1.00395093        2.37557232       -1.44932607
 C           -0.36401865       -1.34677949       -2.17555441
 C           -0.63291539       -0.06761480       -2.68287110
 C           -1.25581814       -3.12391232       -0.71637920
 C           -1.42337735       -2.19149705       -1.82102163
 C           -2.07960047       -2.26466561        1.46865049
 C           -2.35943811       -2.91212110        0.19856899
 C           -2.75542380       -0.10057922        2.38060144
 C           -3.34853023        1.17624711        2.01697888
 C           -3.08838479       -1.24113862        1.66757667
 C           -3.46436461        2.30515615       -0.03688478
 C           -4.10002650        1.28214616        0.78139066
 C           -2.10691681        1.76880809       -2.04272226
 C           -1.92806303        0.44692454       -2.61960536
 C           -3.39811315        1.81025456       -1.39268792
 C           -2.78042087       -1.67360398       -1.74802555
 C           -3.36190606       -2.12658578       -0.49423813
 C           -3.87938330       -1.14406511        0.44270149
 C           -4.27471544        0.09873541       -0.04172495
 C           -3.03463883       -0.38155239       -2.17785956
 C           -3.94317613        0.46202573       -1.41057049




