%chk=000264.chk
%mem=8GB
%Nproc=48
#p B3LYP/6-31G* opt pop=NPA

Template file

0 1
 C            4.37632008       -0.30922159        1.15639987
 C            4.37138994        0.77409588        0.19024461
 C            4.16725065        0.19661345       -1.12438085
 C            4.01652106       -1.53063816        0.45451899
 C            3.94182049       -1.23111629       -0.95430613
 C            2.83736210       -2.07482808        1.09419830
 C            3.33461735       -0.03509146        2.13312926
 C            2.45363907       -1.17512536        2.17283381
 C            3.43524406        1.77980711        0.65628315
 C            2.75366035        1.25018926        1.82817099
 C            2.68136370        2.47765664       -0.27782371
 C            3.09929299        0.72332365       -1.96020960
 C            2.49094283        1.92072455       -1.61646126
 C            2.72217976       -1.57273455       -1.65694896
 C            2.26530252       -0.39133237       -2.37229529
 C            1.81817956       -2.64255621        0.32704492
 C            1.76512295       -2.39346279       -1.05869639
 C            0.64043053       -2.92942544        1.01512110
 C            1.09521544       -0.97501812        2.39049498
 C            0.27977637       -2.06441759        2.12702372
 C            1.37209867        1.40804543        1.92212575
 C            0.55239841        0.31593617        2.26767108
 C            1.39752580        3.01097113        0.13825453
 C            0.80399076        2.51922240        1.30082065
 C            1.09672513        2.12036072       -1.97200648
 C            0.59128573        3.12990937       -1.06360204
 C            0.89144670       -0.21991427       -2.55438244
 C            0.29459052        1.01917904       -2.27875360
 C            0.54864362       -2.49759843       -1.73180078
 C            0.11034775       -1.36858803       -2.53988277
 C           -0.57657264       -3.25454831        0.29666295
 C           -0.61918495       -3.04795548       -1.07028244
 C           -1.15417348       -1.89789846        2.11524779
 C           -1.69141741       -2.81530159        1.12072072
 C           -0.84256489        0.48782304        2.28751433
 C           -1.69589318       -0.62323376        2.23407226
 C           -0.53752277        2.79613274        1.51865380
 C           -1.36870406        1.76841314        2.11827430
 C           -0.77735935        3.26012120       -0.91698290
 C           -1.29519775        3.39390964        0.43216437
 C           -1.09321990        1.11503750       -2.08462341
 C           -1.63662966        2.30831244       -1.60074842
 C           -1.32714831       -1.26218565       -2.41573868
 C           -1.78985191       -2.41952640       -1.66195964
 C           -1.90747007       -0.01835727       -2.19125460
 C           -2.90725084       -2.50943343        0.52419804
 C           -2.95943585       -2.31069794       -0.92036973
 C           -3.04990216       -0.45724229        1.93876467
 C           -3.71772260       -1.47324797        1.13849433
 C           -2.71736986        1.94007622        1.59906278
 C           -2.62805518        2.82600248        0.44988057
 C           -2.89429131        2.28357213       -0.87361002
 C           -3.54877024        0.83603707        1.50589067
 C           -3.23215531        0.02822769       -1.75168778
 C           -3.82167558       -1.17109042       -1.17625434
 C           -4.44914496       -0.80299785        0.07997613
 C           -3.69867656        1.16002301       -0.96758689
 C           -4.26732411        0.62506245        0.25873573




