%chk=000450.chk
%mem=8GB
%Nproc=48
#p B3LYP/6-31G* opt pop=NPA

Template file

0 1
 C            4.17189970       -1.23843283       -0.55075596
 C            3.26377401       -2.16084296       -1.20521373
 C            2.73793360       -3.03145533       -0.17928366
 C            3.89584745       -1.29434425        0.87696929
 C            3.02975246       -2.42516165        1.11324394
 C            3.43720306        0.01686065        1.28296730
 C            3.84351421        0.09897968       -1.00757387
 C            3.63564677        0.92318579        0.16246695
 C            2.32141331       -1.38495537       -1.99809023
 C            2.75266279        0.00347296       -1.95239189
 C            0.95469622       -1.67579437       -1.91990043
 C            1.32120410       -3.30976476       -0.19974049
 C            0.54420419       -2.84069030       -1.25559717
 C            1.75788064       -2.20284673        1.78277598
 C            0.81461907       -3.09508289        1.14349532
 C            2.27049148        0.15228380        2.03930922
 C            1.34617627       -0.90610500        2.08515123
 C            1.81961463        1.45342407        2.23536554
 C            2.76203450        1.99763027        0.06230994
 C            2.22671362        2.45181619        1.26225650
 C            1.78278713        0.99192439       -1.91131163
 C            1.98744203        2.11722859       -1.10157953
 C            0.03007566       -0.64368615       -2.14771635
 C            0.48977379        0.66578275       -2.31019927
 C           -1.34617627       -0.90610500       -2.08515123
 C           -0.81461907       -3.09508289       -1.14349532
 C           -1.75788064       -2.20284673       -1.78277598
 C           -0.54420419       -2.84069030        1.25559717
 C           -1.32120410       -3.30976476        0.19974049
 C           -0.03007566       -0.64368615        2.14771635
 C           -0.95469622       -1.67579437        1.91990043
 C            0.41959021        1.69024469        2.51845001
 C           -0.48977379        0.66578275        2.31019927
 C            1.22437574        3.49526603        1.24623491
 C            0.09282387        3.02036667        2.02858669
 C            1.10598813        3.19131587       -1.22497955
 C            0.72500410        3.93938018       -0.03742215
 C           -0.41959021        1.69024469       -2.51845001
 C           -0.09282387        3.02036667       -2.02858669
 C           -2.27049148        0.15228380       -2.03930922
 C           -1.81961463        1.45342407       -2.23536554
 C           -3.43720306        0.01686065       -1.28296730
 C           -3.02975246       -2.42516165       -1.11324394
 C           -2.73793360       -3.03145533        0.17928366
 C           -3.89584745       -1.29434425       -0.87696929
 C           -2.32141331       -1.38495537        1.99809023
 C           -3.26377401       -2.16084296        1.20521373
 C           -4.17189970       -1.23843283        0.55075596
 C           -1.78278713        0.99192439        1.91131163
 C           -3.63564677        0.92318579       -0.16246695
 C           -2.75266279        0.00347296        1.95239189
 C           -3.84351421        0.09897968        1.00757387
 C           -1.10598813        3.19131587        1.22497955
 C           -0.72500410        3.93938018        0.03742215
 C           -1.22437574        3.49526603       -1.24623491
 C           -2.22671362        2.45181619       -1.26225650
 C           -1.98744203        2.11722859        1.10157953
 C           -2.76203450        1.99763027       -0.06230994




