%chk=000280.chk
%mem=8GB
%Nproc=48
#p B3LYP/6-31G* opt pop=NPA

Template file

0 1
 C            4.55831427       -0.81697293       -0.16168918
 C            4.34445055        0.42538206       -0.88105041
 C            4.08936836        1.45727743        0.10467325
 C            4.11792549       -0.61390224        1.20985165
 C            3.91474182        0.80364084        1.39469120
 C            3.00242261       -1.51341120        1.45335668
 C            3.69086349       -1.82023809       -0.74782460
 C            2.95999073       -2.44361772        0.33582218
 C            3.35045343        0.18389336       -1.91500551
 C            2.91970092       -1.20035085       -1.81348974
 C            2.40349495        1.15859493       -2.18494460
 C            2.95880497        2.34809507       -0.09575572
 C            2.26917844        2.31127072       -1.29794051
 C            2.65028143        1.24924163        1.93728941
 C            2.19845911        2.37778153        1.14113149
 C            1.79749730       -1.01929417        1.97385375
 C            1.70243094        0.32444343        2.37240671
 C            0.63728131       -1.79924023        1.83443524
 C            1.74144223       -3.01332478        0.02513760
 C            0.67841189       -2.91396523        0.99916730
 C            1.56320034       -1.52472000       -1.91612949
 C            1.12693057       -2.66437903       -1.24837467
 C            1.06513837        0.74627575       -2.56767209
 C            0.62781482       -0.54295175       -2.27933142
 C            0.87247655        2.69587721       -1.30421798
 C            0.19135656        1.86231716       -2.28184808
 C            0.83078576        2.64927817        1.11086344
 C            0.21906220        2.98723909       -0.10589689
 C            0.46390564        0.84171207        2.72637127
 C            0.05915985        2.10990802        2.14016390
 C           -0.60653504       -1.31136385        2.25674109
 C           -0.69962100       -0.01958031        2.75484769
 C           -1.78380269       -1.96273348        1.87447300
 C           -0.51692510       -3.29642314        0.28390756
 C           -0.29234896       -2.90216371       -1.10039936
 C           -1.74102942       -2.99750496        0.85022638
 C           -0.74805253       -0.76652466       -2.10048882
 C           -1.19806877       -2.03366234       -1.69486092
 C           -1.16155353        1.63170045       -2.09944224
 C           -1.64309990        0.31926084       -2.17768508
 C           -1.16859275        3.11772885       -0.16573721
 C           -1.84714120        2.56160355       -1.32286072
 C           -1.38686675        2.11988392        2.05028688
 C           -1.86226677        0.79364364        2.42430546
 C           -1.98104723        2.78418429        0.99287566
 C           -2.99487413       -1.17847309        1.65997325
 C           -2.93088023        0.21351205        1.74209843
 C           -2.84816145       -2.75471813       -0.05535579
 C           -2.53832936       -2.22685049       -1.37267822
 C           -3.74246840       -1.81458325        0.58715426
 C           -3.01877278        0.10350244       -2.08133642
 C           -3.50353227       -1.19105430       -1.66000719
 C           -4.30989718       -0.99228118       -0.46006191
 C           -3.22089894        2.31140151       -0.94527752
 C           -3.26862581        2.31629302        0.50972979
 C           -3.74369887        1.00899879        0.92731418
 C           -3.84402402        1.08738558       -1.40247656
 C           -4.40422982        0.43295771       -0.23330983




