%chk=001143.chk
%mem=8GB
%Nproc=16
#p B3LYP/6-31G* opt pop=NPA

Template file

0 1
 C            3.40766391       -1.42979077        1.23171824
 C            2.57198639       -2.60439104        1.30642380
 C            2.33843344       -3.06553655       -0.05122239
 C            3.64175400       -1.14288813       -0.17788613
 C            2.79656404       -2.02068629       -0.95058187
 C            3.49639130        0.28038503       -0.35457890
 C            2.93984462       -0.20104968        1.84541002
 C            3.38484656        0.86555371        0.97204182
 C            1.65666668       -0.13442057        2.39516534
 C            1.28270480       -2.49302777        1.95131481
 C            0.91390691       -1.31589348        2.59860427
 C            0.95413690       -3.49777392       -0.14520457
 C            0.30004535       -3.15675128        1.10888985
 C            0.28114286       -3.26292754       -1.33055401
 C            1.88993901       -1.48774568       -1.86499122
 C            0.86116709       -2.32840824       -2.28439920
 C            2.68286755        0.77134205       -1.37162410
 C            1.76187516       -0.08877275       -2.00818762
 C            2.48326127        2.14997982       -1.38783548
 C            2.79009217        2.10982347        1.08762365
 C            2.57022007        2.87254519       -0.12964990
 C            1.06386918        1.12941484        2.56628184
 C            1.59290036        2.23830942        1.90431873
 C           -0.24908465        1.23143573        3.01397899
 C           -0.41056878       -1.23800391        3.01175581
 C           -0.95862098        0.03758183        3.40492551
 C           -1.01118436       -2.67513512        1.11529421
 C           -1.41843094       -1.94253791        2.23158573
 C           -1.14048343       -2.98864277       -1.28334204
 C           -1.72722439       -2.57604710       -0.08690179
 C           -0.21869266       -1.79775020       -3.07971921
 C           -1.46631882       -2.28197314       -2.50925984
 C            0.71885409        0.44742320       -2.79446082
 C           -0.32167074       -0.36755020       -3.22257559
 C            1.37636480        2.70905190       -2.12500120
 C            0.43634116        1.80473066       -2.73950118
 C            1.34021743        3.62859928        0.03061492
 C            0.67534453        3.13632924        1.21878431
 C            0.63103623        3.57821124       -1.22426209
 C           -1.17064338        2.08261028        2.27496401
 C           -0.68102893        2.80801607        1.18967353
 C           -2.31379055        0.12645752        2.88662334
 C           -2.60582194       -1.10848350        2.17539048
 C           -2.44769596        1.39817492        2.19332431
 C           -2.91162737       -1.83628967       -0.14275951
 C           -3.34232168       -1.05430177        1.00303118
 C           -2.39324223       -1.16888046       -2.44364467
 C           -1.68889013        0.02243286       -2.90660177
 C           -3.23396703       -1.07717448       -1.34583742
 C           -0.90116486        2.21881646       -2.34674686
 C           -0.74434579        3.12441020       -1.22195637
 C           -1.39222276        2.82232096       -0.02470363
 C           -1.91699620        1.26530349       -2.30505838
 C           -3.16897414        1.45038405        1.01253558
 C           -3.79821480        0.23751278        0.51399518
 C           -3.68471283        0.23500579       -0.93397917
 C           -2.61771464        2.16643067       -0.12443724
 C           -2.90478286        1.39424130       -1.32680527




