%chk=000189.chk
%mem=8GB
%Nproc=48
#p B3LYP/6-31G* opt pop=NPA

Template file

0 1
 C            4.49649468        0.74445275        0.12231144
 C            4.49127186       -0.58196292       -0.46236241
 C            3.81606062       -1.47072350        0.46740709
 C            3.80623137        0.66727791        1.39818746
 C            3.29052232       -0.67755551        1.55461622
 C            2.85713720        1.76016338        1.44226166
 C            3.70713455        1.60749916       -0.73812249
 C            2.80811092        2.35996823        0.11324190
 C            3.68279654       -0.53179011       -1.66968786
 C            3.11535568        0.79185777       -1.77917981
 C            2.87617042       -2.25058581       -0.29887225
 C            2.77020671       -1.64837679       -1.62101816
 C            1.68907410       -2.64935420        0.29947785
 C            1.94898277       -0.82642321        1.89557722
 C            1.21499341       -1.92337413        1.40991375
 C            1.64930638        1.56803062        2.10650177
 C            1.27326579        0.26284798        2.45336791
 C            0.65374806        2.50886976        1.86208762
 C            1.55678644        2.70829826       -0.38775951
 C            0.61027916        3.11836665        0.54551901
 C            1.74698937        0.91756595       -1.99599891
 C            1.11355466        2.08353053       -1.56094568
 C            1.49036219       -1.50235862       -2.15003965
 C            0.96920960       -0.20882939       -2.32036514
 C            0.76220073       -3.19350119       -0.57484812
 C            0.61011880       -2.53629442       -1.86201262
 C           -0.54803385       -3.53550826       -0.08452345
 C           -0.10581342       -2.10573266        1.85755360
 C           -0.98030912       -2.94205125        1.15826787
 C            0.03250703        0.04243820        3.03895366
 C           -0.63409460       -1.22456979        2.79967502
 C           -0.70909970        2.24691071        2.28398913
 C           -0.97586933        1.09083118        2.99822110
 C           -0.77972668        3.24701341        0.15171475
 C           -1.59759685        2.64687398        1.19892834
 C           -0.16474605        2.34870018       -2.03512265
 C           -1.11447583        3.03980792       -1.17636543
 C           -0.40156484       -0.02991388       -2.56811073
 C           -0.88132478        1.27591980       -2.69825992
 C           -0.80478396       -2.36202974       -2.09917141
 C           -1.50745055       -3.16565847       -1.11055452
 C           -1.29745436       -1.10143976       -2.40929859
 C           -2.37248886       -2.55136842        0.97977362
 C           -2.66689948       -2.59708603       -0.44673597
 C           -2.06748590       -0.97731792        2.82093303
 C           -2.27151170        0.46113440        2.84449363
 C           -2.89300925       -1.52851638        1.76125471
 C           -2.69867847        1.85573032        0.85882067
 C           -3.09364410        0.81451299        1.70043762
 C           -3.60183158       -0.42420188        1.12872029
 C           -2.43806904        2.53821887       -1.48915544
 C           -2.29668888        1.55922027       -2.55463967
 C           -3.22299797        1.92584403       -0.43131876
 C           -2.65490628       -0.86846814       -2.17668053
 C           -3.30492691       -1.52166715       -1.05108048
 C           -3.89484541       -0.47696997       -0.22922672
 C           -3.19786447        0.46828286       -2.26784891
 C           -3.86067915        0.75346142       -1.00290215




