%chk=000104.chk
%mem=8GB
%Nproc=48
#p B3LYP/6-31G* opt pop=NPA

Template file

0 1
 C            4.52418220       -0.86480712       -0.27408533
 C            4.56729267        0.57147104       -0.44732047
 C            4.03504880        1.16917522        0.76254997
 C            3.89074147       -1.13942539        1.00725519
 C            3.44447749        0.11283294        1.56757008
 C            2.90065948       -2.15556919        0.77745534
 C            3.64891820       -1.39971499       -1.30104052
 C            2.81862216       -2.38043001       -0.65761071
 C            3.65093839        0.91364378       -1.52248253
 C            2.97549096       -0.29668709       -1.94600428
 C            3.17310082        2.25156416        0.34768755
 C            2.83902072        2.01053508       -1.05004701
 C            2.12787967        2.58387894        1.19315108
 C            2.11287277        0.25262339        1.97591905
 C            1.61874458        1.54972737        2.09125077
 C            1.69237435       -2.09353559        1.46453527
 C            1.21321899       -0.82892357        1.86287813
 C            0.77223715       -3.05608028        1.07215975
 C            1.54484124       -2.59346159       -1.15135585
 C            0.77896724       -3.40637990       -0.33920925
 C            1.57907070       -0.31111914       -1.98914674
 C            0.89075527       -1.51816707       -1.78929655
 C            1.49691110        2.04965862       -1.40363336
 C            0.87747641        0.89579135       -1.91395531
 C            0.96225211        3.21011849        0.60429814
 C            0.70684666        2.98599237       -0.74860650
 C            0.19427502        1.77032963        2.24230105
 C           -0.11073699        3.01709710        1.56023641
 C           -0.18134960       -0.60058132        1.94699994
 C           -0.68347302        0.70195946        2.11409399
 C           -0.60902674       -2.92477645        1.46102027
 C           -1.07767871       -1.67661060        1.85730556
 C           -0.57293062       -3.67706023       -0.73560542
 C           -1.36030228       -3.69308915        0.48072885
 C           -0.51464657       -1.52770815       -1.88217239
 C           -1.19285218       -2.72283224       -1.62152531
 C           -0.51016062        0.89245410       -2.07367956
 C           -1.22378863       -0.31077486       -1.92017625
 C           -0.58199772        3.18126894       -1.21533127
 C           -1.17164919        2.11978897       -2.01196517
 C           -1.40614396        3.23887476        1.12826402
 C           -1.58766566        3.61220195       -0.26355937
 C           -2.03781699        0.97759048        1.88763823
 C           -2.41880060        2.24389193        1.43344428
 C           -2.45254469       -1.43605875        1.82211343
 C           -2.93941281       -0.07284639        1.74478689
 C           -2.68133317       -3.24237237        0.11463652
 C           -2.58458265       -2.69158682       -1.23607852
 C           -3.29825659       -2.23267307        0.94534061
 C           -2.62392396       -0.29104322       -1.72243790
 C           -3.93860605       -0.01225105        0.67710286
 C           -3.26721895       -1.42387994       -1.23460128
 C           -3.94777649       -1.31047195        0.04129332
 C           -2.59895492        2.15400436       -1.79011353
 C           -2.86312642        3.08991247       -0.70926139
 C           -3.42390080        2.32824453        0.38977812
 C           -3.26307135        0.91843658       -1.46017551
 C           -3.91348771        1.08784949       -0.16331738




