%chk=000438.chk
%mem=8GB
%Nproc=48
#p B3LYP/6-31G* opt pop=NPA

Template file

0 1
 C            3.89122833        0.67516021        1.90397679
 C            3.62591705       -0.75357060        1.87729042
 C            3.97092443       -1.23079982        0.56095091
 C            4.09151264        1.10942977        0.53190692
 C            4.21372782       -0.07051460       -0.28927280
 C            3.04614354        2.05782049        0.21482438
 C            2.69901547        1.33633014        2.40587178
 C            2.25983040        2.29129135        1.41647224
 C            2.27217356       -0.96567361        2.35579836
 C            1.76178500        0.31781536        2.80297334
 C            1.40037031       -1.81875540        1.66633783
 C            3.01938487       -2.07107714       -0.13238634
 C            1.82972861       -2.45922431        0.48996711
 C            3.35386855       -0.20064529       -1.45375810
 C            2.96720981       -1.59606280       -1.50417952
 C            2.36892855        1.97841082       -0.99928775
 C            2.39347214        0.77585175       -1.73672780
 C            1.28100865        2.83234708       -1.12682539
 C            0.89326121        2.51903406        1.26033622
 C            0.50019632        3.11462566        0.06948390
 C            0.41323767        0.55355849        2.61544262
 C           -0.02585953        1.70224224        1.93801022
 C            0.02585953       -1.70224224        1.93801022
 C           -0.41323767       -0.55355849        2.61544262
 C           -0.89326121       -2.51903406        1.26033622
 C            0.89954107       -3.12553578       -0.30007983
 C           -0.50019632       -3.11462566        0.06948390
 C            1.87674682       -1.95575401       -2.27650071
 C            0.97017503       -2.95616272       -1.74298523
 C            1.32835450        0.43554379       -2.59050751
 C            1.06057685       -0.90617487       -2.86643127
 C            0.36500203        2.65103045       -2.22525736
 C            0.32429507        1.35871871       -2.86544341
 C           -0.89954107        3.12553578       -0.30007983
 C           -0.97017503        2.95616272       -1.74298523
 C           -1.40037031        1.81875540        1.66633783
 C           -1.82972861        2.45922431        0.48996711
 C           -1.76178500       -0.31781536        2.80297334
 C           -2.27217356        0.96567361        2.35579836
 C           -2.25983040       -2.29129135        1.41647224
 C           -2.69901547       -1.33633014        2.40587178
 C           -3.04614354       -2.05782049        0.21482438
 C           -1.28100865       -2.83234708       -1.12682539
 C           -0.36500203       -2.65103045       -2.22525736
 C           -0.32429507       -1.35871871       -2.86544341
 C           -2.36892855       -1.97841082       -0.99928775
 C           -1.06057685        0.90617487       -2.86643127
 C           -1.87674682        1.95575401       -2.27650071
 C           -1.32835450       -0.43554379       -2.59050751
 C           -2.39347214       -0.77585175       -1.73672780
 C           -3.01938487        2.07107714       -0.13238634
 C           -2.96720981        1.59606280       -1.50417952
 C           -3.35386855        0.20064529       -1.45375810
 C           -3.62591705        0.75357060        1.87729042
 C           -3.89122833       -0.67516021        1.90397679
 C           -4.09151264       -1.10942977        0.53190692
 C           -3.97092443        1.23079982        0.56095091
 C           -4.21372782        0.07051460       -0.28927280




