%chk=000381.chk
%mem=8GB
%Nproc=48
#p B3LYP/6-31G* opt pop=NPA

Template file

0 1
 C           -4.41514844       -0.89204201        0.56721597
 C           -3.57189739       -2.04355598        0.81530114
 C           -3.20044256       -2.57680021       -0.47574742
 C           -4.22376199       -0.50419613       -0.82329007
 C           -3.46792017       -1.55051446       -1.47301589
 C           -3.67877140        0.83629956       -0.82257357
 C           -3.92451843        0.19614117        1.39150685
 C           -3.80206858        1.35340336        0.53371477
 C           -2.50537858       -1.64286653        1.72261259
 C           -2.73074983       -0.25367871        2.08671823
 C           -1.20353836       -2.06793524        1.46587596
 C           -1.82725492       -2.98322726       -0.65289550
 C           -0.98317496       -3.00826280        0.45076952
 C           -2.19736862       -1.21277702       -2.09701345
 C           -1.32083563       -2.33337992       -1.84895229
 C           -2.51568651        1.12066319       -1.54500082
 C           -1.68204907        0.07224610       -1.96806596
 C           -1.97516916        2.38957367       -1.37943983
 C           -2.90781246        2.33629346        0.91842109
 C           -2.26747274        3.08832394       -0.14007382
 C           -1.64483683        0.61816766        2.15884159
 C           -1.85056978        1.96582464        1.85563690
 C           -0.13969022       -1.26472627        1.89068259
 C           -0.34597440        0.10468378        2.11481909
 C            1.15935143       -1.77073734        1.81649237
 C            0.32621503       -3.36304966        0.17054594
 C            1.37932968       -2.91865051        1.05747389
 C            0.05494954       -2.15636393       -1.91471070
 C            0.79366475       -3.07107220       -1.17348842
 C           -0.29289189        0.25631722       -2.04426262
 C            0.57328632       -0.85874266       -2.07153866
 C           -0.57753720        2.62150459       -1.68748166
 C            0.22247603        1.55656986       -2.09834391
 C           -1.01635217        3.58606357        0.38655962
 C           -0.70598942        2.81870454        1.57928223
 C           -0.05809781        3.56044672       -0.69708984
 C            0.74261736        0.98392869        2.13428988
 C            0.57943725        2.30256980        1.70205296
 C            2.23265027       -0.95908879        2.18394270
 C            2.02769970        0.47392964        2.28918631
 C            3.54761223       -1.17211870        1.59569324
 C            2.60398128       -3.05893423        0.28849181
 C            2.22616601       -2.93132557       -1.11072658
 C            3.69321702       -2.13811979        0.52813782
 C            1.96716019       -0.66758610       -2.01652527
 C            2.80523019       -1.70357362       -1.59728659
 C            3.91139715       -1.39819423       -0.70690399
 C            1.59838919        1.75609323       -2.12939545
 C            2.49195860        0.61955083       -2.05136276
 C            1.27830382        3.45923260       -0.35327947
 C            1.59614811        2.90649671        0.95822893
 C            2.15797403        2.80816216       -1.29903355
 C            3.14545824        1.13705041        1.63007854
 C            4.01444707        0.10452059        1.08760906
 C            4.15370734       -0.01312535       -0.35819796
 C            3.59445580        0.97303708       -1.15919716
 C            2.89517885        2.26528328        0.86131404
 C            3.26049705        2.24356314       -0.54660242




