%chk=000510.chk
%mem=8GB
%Nproc=48
#p B3LYP/6-31G* opt pop=NPA

Template file

0 1
 C           -3.46419227        2.16078947       -1.23009648
 C           -4.06598546        1.28801569       -0.24011718
 C           -4.02900594       -0.06249467       -0.76876034
 C           -2.81213724        1.31951043       -2.21986759
 C           -3.09084166       -0.05931401       -1.88684296
 C           -1.43067588        1.73402500       -2.30712637
 C           -2.42895235        2.93083466       -0.56709468
 C           -1.22067680        2.81422536       -1.36031020
 C           -3.43217811        1.54981967        1.04206737
 C           -2.36266301        2.50824109        0.81782824
 C           -3.21600960        0.48431223        1.90419862
 C           -3.99411554       -1.11855451        0.13198753
 C           -3.71245253       -0.83238779        1.53335601
 C           -3.24688193       -2.30776413       -0.22922024
 C           -2.05250255       -0.99014826       -1.91336161
 C           -2.25408414       -2.21341825       -1.28837041
 C           -0.43444622        0.77114717       -2.40792973
 C           -0.74166204       -0.58695958       -2.21393009
 C            0.87621777        1.19628065       -2.20824121
 C            0.00203188        2.84357485       -0.70001587
 C            1.09955975        2.28500364       -1.35738671
 C           -1.09955975        2.28500364        1.35738671
 C           -0.00203188        2.84357485        0.70001587
 C           -1.90144871        0.30794333        2.50064085
 C           -0.87621777        1.19628065        2.20824121
 C           -2.75802152       -1.81760436        2.01333086
 C           -2.57202312       -2.79238407        0.96528365
 C           -1.59069099       -1.10990993        2.51388934
 C           -1.10695728       -2.97941703       -0.85531152
 C           -1.21832247       -3.12424072        0.58610128
 C            0.30697684       -1.51854680       -2.13465585
 C            0.15018676       -2.68057911       -1.36134223
 C            1.90144871        0.30794333       -2.50064085
 C            1.59069099       -1.10990993       -2.51388934
 C            3.21600960        0.48431223       -1.90419862
 C            2.36266301        2.50824109       -0.81782824
 C            3.43217811        1.54981967       -1.04206737
 C            1.22067680        2.81422536        1.36031020
 C            2.42895235        2.93083466        0.56709468
 C            0.43444622        0.77114717        2.40792973
 C            1.43067588        1.73402500        2.30712637
 C           -0.30697684       -1.51854680        2.13465585
 C           -0.15018676       -2.68057911        1.36134223
 C            0.74166204       -0.58695958        2.21393009
 C            1.21832247       -3.12424072       -0.58610128
 C            1.10695728       -2.97941703        0.85531152
 C            2.75802152       -1.81760436       -2.01333086
 C            3.71245253       -0.83238779       -1.53335601
 C            2.57202312       -2.79238407       -0.96528365
 C            2.05250255       -0.99014826        1.91336161
 C            2.25408414       -2.21341825        1.28837041
 C            3.99411554       -1.11855451       -0.13198753
 C            3.24688193       -2.30776413        0.22922024
 C            4.06598546        1.28801569        0.24011718
 C            3.46419227        2.16078947        1.23009648
 C            2.81213724        1.31951043        2.21986759
 C            4.02900594       -0.06249467        0.76876034
 C            3.09084166       -0.05931401        1.88684296




