%chk=001018.chk
%mem=8GB
%Nproc=16
#p B3LYP/6-31G* opt pop=NPA

Template file

0 1
 C            3.93461206       -1.29454056        0.62385925
 C            4.06344817       -0.29275640       -0.41310165
 C            3.47430174       -0.83353149       -1.62650047
 C            3.14083910       -2.39139676        0.08812832
 C            2.76860283       -2.05380850       -1.27173139
 C            2.08670071       -2.68697614        1.03799346
 C            3.35533685       -0.90550546        1.89258020
 C            2.29924474       -1.85238007        2.20607119
 C            2.80173154        0.42982307        2.04433190
 C            3.49347457        1.02732389       -0.20243296
 C            2.94259703        1.38353827        1.03266373
 C            2.73618405        0.23402194       -2.28105027
 C            2.79755108        1.40686386       -1.42474956
 C            1.54135819       -0.07740396       -2.90554577
 C            1.44004520       -2.19916372       -1.66213343
 C            0.95366666       -1.39028668       -2.68912960
 C            0.78524677       -2.83730476        0.57506169
 C            0.53552755       -2.82894117       -0.80181791
 C           -0.25718443       -2.53898719        1.44970123
 C            1.16707113       -1.10490043        2.73007684
 C            1.51866814        0.30199139        2.72349784
 C           -0.10852304       -1.46388989        2.32725403
 C            0.53471257        1.25736736        2.47499701
 C            2.11008382        2.49708969        1.07383652
 C            0.96534454        2.47875959        1.96925061
 C            1.70768765        2.27064075       -1.32824634
 C            1.63739076        3.05705206       -0.17942583
 C            0.46054217        0.88952414       -2.88458957
 C            0.55473312        2.03669211       -2.10033605
 C           -0.47982652       -1.26478384       -2.89328742
 C           -0.79638440        0.15442326       -2.90928901
 C           -0.77036582       -3.03979654       -1.24295735
 C           -1.32971102       -2.13763240       -2.23751829
 C           -1.53562294       -2.97380752        1.12665223
 C           -1.81038196       -3.29782383       -0.25956533
 C           -2.67528938       -2.23542713        1.64211437
 C           -1.12135259       -0.51386158        2.41033726
 C           -0.79962488        0.84920445        2.28667665
 C           -2.43622685       -0.94833759        2.27263700
 C           -1.77191529        1.76925927        1.84407988
 C            0.00085960        3.42091840        1.45081374
 C            0.44306786        3.81809922        0.12008463
 C           -1.37939642        3.01068365        1.35154852
 C           -0.62823414        2.72979923       -1.84050536
 C           -0.68487830        3.70765855       -0.77354578
 C           -1.85096137        3.40340081        0.03503218
 C           -1.88074119        0.64184793       -2.17905732
 C           -1.88787240        1.99648958       -1.83814919
 C           -2.67285020        2.46079964       -0.70314175
 C           -2.58017142       -1.62812709       -1.70593599
 C           -2.99081924       -2.55089272       -0.66014499
 C           -3.60582078       -2.02680110        0.54212604
 C           -2.74481755       -0.25111956       -1.53010654
 C           -3.43016473       -0.03518235        1.76140740
 C           -3.01066136        1.30257134        1.41290490
 C           -3.39307035        1.53043247        0.02635745
 C           -3.99688009       -0.63341914        0.56232758
 C           -3.62088150        0.22250966       -0.55040854




