%chk=000883.chk
%mem=8GB
%Nproc=16
#p B3LYP/6-31G* opt pop=NPA

Template file

0 1
 C            4.14149324        0.36332956        0.56624072
 C            3.96575757       -1.05408647        0.78065380
 C            3.76326505       -1.65379155       -0.52878251
 C            4.02612096        0.58935736       -0.86696448
 C            3.36032684       -0.57649176       -1.40710259
 C            3.39963487        1.87555684       -1.04059677
 C            3.21374862        1.27879024        1.19815691
 C            3.09624695        2.39305842        0.28754058
 C            2.04962644        0.79011234        1.79063291
 C            2.86006448       -1.49566683        1.60499637
 C            1.87313783       -0.58933505        1.98476750
 C            2.85708383       -2.75981942       -0.34788401
 C            2.44099294       -2.76276439        1.04959372
 C            1.63924169       -2.78229813       -1.12626246
 C            2.02036865       -0.48371284       -1.81022559
 C            1.20724405       -1.62729311       -1.79023744
 C            2.16456215        1.94233651       -1.79047226
 C            1.45096677        0.77202749       -2.07049961
 C            1.81497607        3.06288166        0.19154764
 C            1.45308243        3.06382822       -1.21806691
 C            0.95752756        1.65197183        1.95503101
 C            0.82228628        2.78042692        1.12904205
 C           -0.12211820        1.21647361        2.72263448
 C            0.61062946       -1.07546077        2.32836499
 C           -0.27312376       -0.20857283        2.95743966
 C            1.02477867       -3.09042602        1.06338030
 C            0.69220623       -3.48760442       -0.29216865
 C            0.13317676       -2.25991626        1.74286374
 C           -0.63289065       -3.44678732       -0.66898498
 C           -0.15146188       -1.52835835       -2.11242724
 C           -0.97534964       -2.61942116       -1.80729519
 C            0.07816234        0.87594077       -2.31188697
 C           -0.71308508       -0.27310479       -2.38756680
 C            0.11934728        3.21970562       -1.54580428
 C           -0.53558171        2.13439170       -2.25634515
 C           -0.44472692        3.30501132        0.87896833
 C           -0.78867546        3.63783964       -0.49270453
 C           -1.44629634        1.77356463        2.49770316
 C           -1.61714786        2.70965678        1.49291974
 C           -1.68768084       -0.51710160        2.95722916
 C           -2.41106878        0.69711158        2.61620443
 C           -1.23311275       -2.40469866        1.46705601
 C           -1.62377944       -3.13268761        0.34293536
 C           -2.16191879       -1.57660724        2.09157605
 C           -2.41494024       -2.46517914       -1.75443549
 C           -2.82073634       -2.73757842       -0.38140008
 C           -2.09746965       -0.12628829       -2.52458600
 C           -2.98849861       -1.20358321       -2.14624544
 C           -1.95552839        2.23314570       -1.96140751
 C           -2.09123211        3.06566817       -0.78055835
 C           -2.59635397        2.46207814        0.44042701
 C           -2.72463713        1.08758507       -2.04412075
 C           -3.27347972        0.39884027        1.48525667
 C           -3.28424897       -1.04794237        1.32764152
 C           -3.59028752       -1.60117823        0.09124491
 C           -3.80583725       -0.72014306       -1.04150559
 C           -3.23963276        1.22677275        0.36185187
 C           -3.53515524        0.70043616       -0.89736294




