%chk=001121.chk
%mem=8GB
%Nproc=16
#p B3LYP/6-31G* opt pop=NPA

Template file

0 1
 C            3.08293980        0.11000154       -2.30643455
 C            3.34009179       -1.18967414       -1.73048833
 C            3.90422174       -0.99455217       -0.40482502
 C            3.52560023        1.11670482       -1.35365718
 C            3.95265448        0.43640449       -0.14687082
 C            2.48544528        2.12484342       -1.26557188
 C            1.72330877        0.43908202       -2.69840833
 C            1.46471233        1.79281880       -2.25128617
 C            0.71009001       -0.50760826       -2.57551945
 C            2.23344825       -2.11213342       -1.60451433
 C            1.01812905       -1.83358026       -2.21929062
 C            3.19368896       -1.86864838        0.51951046
 C            2.20606114       -2.61373309       -0.24076007
 C            2.86237737       -1.39976502        1.77914415
 C            3.53099472        0.91905596        1.08480517
 C            3.17937029       -0.02503487        2.13309213
 C            2.08845614        2.61439153       -0.02054771
 C            2.58238889        2.02478066        1.14754683
 C            0.87527753        3.29551722        0.05002987
 C            0.15616629        2.19053192       -2.00407293
 C           -0.01937323        3.22639978       -1.08980185
 C           -0.61369913       -0.05606163       -2.53030418
 C           -0.89139958        1.28650841       -2.23717991
 C           -1.65645444       -0.97754700       -2.59082799
 C           -0.01807566       -2.70654096       -1.91558751
 C           -1.36804092       -2.36360993       -2.30222409
 C            0.96566011       -2.93171905        0.31807780
 C           -0.05824678       -3.26656962       -0.57259884
 C            1.55451871       -1.70740373        2.32746352
 C            0.65071326       -2.49990152        1.61707906
 C            2.05127723        0.52054011        2.86999909
 C            1.66467328        1.76168058        2.24847621
 C            1.05503127       -0.51250251        2.99179172
 C            0.04115736        3.11648009        1.22692169
 C            0.31733019        2.05139387        2.07138322
 C           -1.34490598        3.55361802       -0.60513577
 C           -1.32219740        3.39189449        0.84235272
 C           -2.21075935        1.67007457       -1.97887086
 C           -2.47059156        2.80353035       -1.11449461
 C           -2.92764040       -0.66254280       -1.96355331
 C           -3.19565727        0.65822219       -1.63701056
 C           -2.26069277       -2.79254720       -1.23781545
 C           -1.44273770       -3.28300476       -0.13825098
 C           -3.21323202       -1.71902177       -1.00253256
 C           -0.68027028       -2.46312451        2.03688948
 C           -1.74721682       -2.90909840        1.15949597
 C           -0.28807891       -0.19272329        2.83946373
 C           -0.65616223        1.04875997        2.27559085
 C           -1.14939399       -1.27729013        2.73722234
 C           -2.34132050        2.43156468        1.19046100
 C           -3.20925720        2.30276287        0.03183044
 C           -3.71033670        0.98369206       -0.31265107
 C           -1.99764347        1.28114916        1.89846009
 C           -3.56074749       -1.38925823        0.30281208
 C           -2.90960021       -2.07017150        1.41121379
 C           -2.53141020       -1.06330000        2.39078144
 C           -3.70895918        0.00774938        0.67535100
 C           -2.91168313        0.22851517        1.87384113




