%chk=000151.chk
%mem=8GB
%Nproc=48
#p B3LYP/6-31G* opt pop=NPA

Template file

0 1
 C            4.20762022        1.51864835        0.69093077
 C            4.44084896        0.92196664       -0.61204821
 C            4.21272177       -0.50238001       -0.48596116
 C            3.70626619        0.48292242        1.57965187
 C            3.73562308       -0.77481224        0.86174005
 C            2.43783862        0.93340701        2.12261654
 C            3.15043576        2.49631347        0.53799096
 C            2.17377078        2.25929644        1.58805926
 C            3.43599818        1.43529579       -1.53076312
 C            2.67471219        2.44698700       -0.83328740
 C            3.36726119       -0.90250370       -1.59490100
 C            2.71916142        0.30526673       -2.08886574
 C            2.58523249       -2.02783646       -1.41437678
 C            2.66337137       -1.65057603        1.00167254
 C            2.41064241       -2.52024053       -0.05744573
 C            1.38239735        0.02673926        2.19698555
 C            1.60966099       -1.31428045        1.86343625
 C            0.07092370        0.52122241        2.23348693
 C            0.85334429        2.58709783        1.31365242
 C           -0.14392087        1.88036857        1.98293098
 C            1.30000017        2.49580857       -1.01182796
 C            0.56592553        3.04443955        0.02802547
 C            1.32326551        0.35646098       -2.15177881
 C            0.65985934        1.54357468       -1.81797715
 C            1.26481229       -2.04593609       -2.00318136
 C            0.60228012       -0.83754972       -2.22212370
 C            1.19950642       -3.31865705       -0.04775914
 C            0.56027288       -3.13041320       -1.34822599
 C            0.57845104       -2.23042291        2.05074610
 C            0.42618633       -3.32583581        1.10536715
 C           -1.00469048       -0.37339547        2.21818684
 C           -0.75022044       -1.73159861        2.35744663
 C           -2.27164886        0.05633743        1.80570319
 C           -1.44471133        2.36184880        1.87203627
 C           -2.55100187        1.42055048        1.83418947
 C           -0.73766405        3.40477204       -0.25207207
 C           -1.68596421        3.35257607        0.84016370
 C           -0.73778287        1.60059665       -1.90365002
 C           -1.36573884        2.73682502       -1.37607775
 C           -0.79307141       -0.80945974       -2.17686898
 C           -1.46685067        0.41336119       -2.09128843
 C           -0.82061363       -3.16619281       -1.44727011
 C           -1.50049023       -2.00621586       -2.00053288
 C           -0.98759443       -3.63210945        1.00222616
 C           -1.70955313       -2.67890851        1.83080350
 C           -1.59921476       -3.63389008       -0.31271638
 C           -3.11713697       -0.81155397        1.09175321
 C           -2.83550800       -1.98011920       -1.42643331
 C           -2.82680584       -2.17170116        1.05998680
 C           -2.79865831       -2.82228657       -0.24110643
 C           -2.85735950        0.39711263       -1.93751102
 C           -3.84424982       -0.31419119        0.01138316
 C           -3.47387959       -0.75831774       -1.31865236
 C           -3.56207277        1.96404730        0.94014243
 C           -2.99431544        3.11497293        0.26585539
 C           -2.79410503        2.74737016       -1.12812641
 C           -4.10012952        1.10531716       -0.08855961
 C           -3.54343776        1.53988096       -1.36578056




