%chk=000918.chk
%mem=8GB
%Nproc=16
#p B3LYP/6-31G* opt pop=NPA

Template file

0 1
 C            3.56527352       -1.31824150        1.47458612
 C            3.23858924       -2.33746007        0.50249904
 C            3.49020612       -1.78241799       -0.81974289
 C            4.09449386       -0.17697290        0.74568098
 C            3.73982125       -0.36145451       -0.64725327
 C            3.63951470        1.01536075        1.42301354
 C            2.51208195       -0.82017984        2.33686659
 C            2.74278409        0.60253903        2.49492947
 C            1.20288143       -1.26011593        2.15775125
 C            1.89416943       -2.87656447        0.48681723
 C            0.92426963       -2.37797677        1.35706977
 C            2.40285039       -2.20545873       -1.68752205
 C            1.53941654       -3.07617566       -0.90332775
 C            1.83402814       -1.27375156       -2.54738606
 C            2.89710774        0.55517541       -1.27892508
 C            2.16826773        0.13431635       -2.39284746
 C            2.93824947        2.02421536        0.65702823
 C            2.61507525        1.79489681       -0.68340467
 C            1.59754657        1.50069992        2.47253536
 C            1.92281234        2.56580325        1.54286212
 C            0.15914548       -0.42343444        2.55300107
 C            0.31307059        0.96110593        2.45369232
 C           -1.11699399       -0.95475854        2.64850435
 C           -0.40890472       -2.72670302        1.12603111
 C           -1.38849194       -2.20703632        1.96766793
 C            0.19311419       -3.17553675       -1.22118558
 C           -0.77642361       -3.20085673       -0.13658730
 C            0.41663081       -1.35778414       -2.86698492
 C           -0.36570853       -2.33785324       -2.27494802
 C            1.02675679        0.90428038       -2.85149231
 C           -0.10197548       -0.00314681       -2.96530794
 C            1.70085225        2.65857450       -1.28756312
 C            0.81981773        2.16835402       -2.33569392
 C            0.88816386        3.29959401        0.98755625
 C            0.92070633        3.54948303       -0.44272716
 C           -0.74878095        1.74229332        1.98325114
 C           -0.48165813        2.94995473        1.33181923
 C           -2.25404345       -0.08052171        2.43324684
 C           -2.03308098        1.19354066        1.90899003
 C           -2.77496214       -2.18149771        1.52849126
 C           -3.34300675       -0.90643181        1.93467745
 C           -2.04846054       -2.80342613       -0.71590360
 C           -1.73245291       -2.01859218       -1.89879003
 C           -3.06963804       -2.37514436        0.11986188
 C           -1.31714359        0.32182413       -2.35910653
 C           -2.19801958       -0.70712991       -1.98865349
 C           -0.53420271        2.58611965       -2.01506739
 C           -0.44899505        3.54233123       -0.92520833
 C           -1.32304764        3.35801777        0.21939168
 C           -1.57293042        1.65478824       -1.99890847
 C           -2.97388634        1.77562297        1.05431035
 C           -2.51324684        2.67922208        0.01938365
 C           -2.69620163        1.96580077       -1.23603620
 C           -4.15784879       -0.41889330        0.84211694
 C           -3.89931378       -1.26325558       -0.31390091
 C           -3.41771238       -0.40746088       -1.38736555
 C           -3.99486621        0.95679377        0.42262941
 C           -3.70570031        0.95552540       -1.00442260




