%chk=000019.chk
%mem=8GB
%Nproc=16
#p B3LYP/6-31G* opt pop=NPA

Template file

0 1
 C            4.73870692       -1.02999526       -0.64194093
 C            4.96559365        0.40135235       -0.66198564
 C            4.76277107        0.89514161        0.68979914
 C            4.25765938       -1.38982768        0.68417436
 C            4.24027266       -0.19609706        1.49522724
 C            3.01341714       -2.11043284        0.51228335
 C            3.66836772       -1.31748270       -1.58064572
 C            2.73932062       -2.19257831       -0.90752392
 C            3.94635366        0.99767627       -1.51263600
 C            3.14750544       -0.06584450       -2.09172232
 C            3.73258574        1.91309175        0.63204429
 C            3.26269870        2.01004009       -0.73927880
 C            2.97039803        0.23356524        2.05678502
 C            2.74251375        1.60894354        1.65535368
 C            1.92644863       -1.84370700        1.34619402
 C            1.87584747       -0.62752698        2.05451404
 C            0.71292316       -2.44083403        0.98834960
 C            1.40530607       -2.12752719       -1.26403256
 C            0.50577899       -2.69511909       -0.37387228
 C            1.76126737        0.09248710       -2.13961428
 C            0.95346484       -1.03747701       -2.02173062
 C            1.89569574        2.15929832       -0.91011206
 C            1.21044433        1.32984553       -1.80853204
 C            1.42887236        2.00029863        1.40590911
 C            1.18618738        2.62423101        0.18545912
 C            0.62613276       -0.07147857        2.33712052
 C            0.38318111        1.26213608        1.97824321
 C           -0.38195530       -2.21144691        1.81578424
 C           -0.43823117       -0.94153877        2.51030074
 C           -1.72290302       -2.53460498        1.35827062
 C           -0.77552922       -2.89710925       -0.85800385
 C           -1.89000585       -2.99494262        0.06036863
 C           -0.42611710       -0.89864193       -2.19211309
 C           -1.19217092       -2.03500478       -1.94403161
 C           -0.17686026        1.50242924       -1.90400560
 C           -1.00967963        0.37423315       -2.04908295
 C           -0.08846361        3.07966552       -0.06214328
 C           -0.68909192        2.65320800       -1.30799730
 C           -0.93063041        1.71023277        1.75852507
 C           -1.09292825        2.83221332        0.94330160
 C           -1.79484324       -0.44476698        2.42327657
 C           -2.62138423       -1.52231778        1.89879129
 C           -2.02247936        0.86234714        2.00945166
 C           -3.80893672       -1.21352592        1.24280069
 C           -3.07678808       -2.62755376       -0.69057427
 C           -2.62999429       -1.94137605       -1.89762854
 C           -4.08280811       -1.79416330       -0.06160064
 C           -2.41210105        0.50211191       -1.91029046
 C           -3.23030510       -0.63071585       -1.90032546
 C           -4.35170451       -0.69770097       -0.97454756
 C           -2.11456909        2.81097424       -1.14488649
 C           -2.35095563        3.07396576        0.27087461
 C           -2.97572971        1.71843147       -1.51912162
 C           -3.31330773        1.21678900        1.60305849
 C           -4.24234356        0.17236718        1.19764148
 C           -4.65977350        0.46440114       -0.16924482
 C           -3.50347961        2.30554660        0.66822436
 C           -4.05364451        1.72431416       -0.54290200




