%chk=000831.chk
%mem=8GB
%Nproc=16
#p B3LYP/6-31G* opt pop=NPA

Template file

0 1
 C            3.95553302       -1.48662786       -0.05421026
 C            3.04580467       -2.57938661        0.23951789
 C            2.24262164       -2.81216008       -0.94944026
 C            3.71411720       -1.07307751       -1.42814487
 C            2.49590787       -1.72150473       -1.86720269
 C            3.78472484        0.36838149       -1.47470783
 C            3.92387621       -0.29273297        0.77287372
 C            3.99733710        0.85004174       -0.11644216
 C            3.07974836       -0.23704759        1.87631857
 C            2.13551377       -2.46243238        1.36454458
 C            2.23294209       -1.37411957        2.21921692
 C            0.87367035       -3.03776818       -0.52429143
 C            0.82084122       -2.89381892        0.91859745
 C           -0.16049271       -2.47804925       -1.26315628
 C            1.40728488       -0.96177376       -2.29010673
 C            0.14767809       -1.55769449       -2.27395020
 C            2.65990634        1.10461006       -2.01834324
 C            1.50256596        0.43493262       -2.41783492
 C            3.09601057        1.97192451        0.09038428
 C            2.52692451        2.29811800       -1.20896366
 C            2.32849018        0.98032074        2.15602421
 C            2.28144799        2.01480894        1.22335051
 C            1.02552141       -0.85450466        2.83147964
 C            1.11897065        0.59719421        2.86919695
 C           -0.32468543       -2.32675449        1.47631632
 C           -0.20733156       -1.43359596        2.55265386
 C           -1.42224444       -2.43495729       -0.67348499
 C           -1.50643210       -2.35169333        0.72484570
 C           -2.50922165       -2.10075286       -1.47762413
 C           -0.88471631       -0.90630632       -2.93321029
 C           -2.25787305       -1.28960471       -2.64925141
 C            0.33867234        1.18824491       -2.62047847
 C           -0.83457923        0.54085618       -3.00241612
 C            1.33253190        2.99850863       -1.25699182
 C            0.22700398        2.45056378       -2.02945381
 C            1.19237443        2.88115742        1.23275052
 C            0.78381281        3.50628073       -0.01335976
 C           -0.04566355        1.35190115        2.72778534
 C           -0.01512960        2.51855291        1.96155260
 C           -1.32939296       -0.72823665        2.97125025
 C           -1.27472591        0.72644775        2.94668154
 C           -2.70386820       -2.00484211        1.34765554
 C           -2.63965837       -1.13066986        2.49639645
 C           -3.73363275       -1.60461326       -0.88319861
 C           -3.83437459       -1.55889070        0.55721836
 C           -3.03584274       -0.06942965       -2.50127777
 C           -2.09513402        1.02935636       -2.46991907
 C           -3.92575401       -0.24856587       -1.37501346
 C           -1.01161817        2.80319475       -1.34833565
 C           -0.66507607        3.43898898       -0.09946267
 C           -1.15998322        2.85087351        1.12175179
 C           -2.06121836        1.89369354       -1.37927175
 C           -2.43166488        1.17435970        2.19252518
 C           -3.37596190        0.07811951        2.15760087
 C           -4.09319202       -0.17590283        0.92843347
 C           -3.78933661        0.63713554       -0.23409841
 C           -2.22195749        1.95846902        1.06289827
 C           -2.72107246        1.54047774       -0.18617804




