%chk=000412.chk
%mem=8GB
%Nproc=48
#p B3LYP/6-31G* opt pop=NPA

Template file

0 1
 C           -4.36582724        0.79050688        0.42160167
 C           -4.18654377       -0.64759429        0.35408634
 C           -3.88136357       -0.98397555       -1.01519319
 C           -3.92133537        1.34898651       -0.84590731
 C           -3.61824705        0.25341737       -1.73651153
 C           -2.86891749        2.29544700       -0.55738720
 C           -3.48595158        1.29987611        1.46131154
 C           -2.69025486        2.34930572        0.88339765
 C           -3.23107939       -1.02740544        1.37759065
 C           -2.78779660        0.18632288        2.05264930
 C           -2.28334111       -2.01670356        1.11428611
 C           -2.76035671       -1.86193590       -1.25518382
 C           -2.14764376       -2.52615578       -0.19220870
 C           -2.27724010        0.16314147       -2.29871179
 C           -1.90450317       -1.23184681       -2.24761640
 C           -1.71485837        2.30939195       -1.33794616
 C           -1.32041894        1.12356547       -1.97946963
 C           -0.72583205        3.17820324       -0.89855432
 C           -1.39197682        2.53893695        1.33338937
 C           -0.64266770        3.39200128        0.53807045
 C           -1.43423788        0.31834498        2.36354136
 C           -0.72284757        1.46873472        1.96603897
 C           -1.20781969       -2.08737987        1.99876391
 C           -0.74001122       -0.85819137        2.62247691
 C           -0.05182285       -2.90403988        1.68899699
 C           -1.01124701       -3.25758956       -0.52766551
 C           -0.02379604       -3.58535634        0.48251543
 C           -0.56319958       -1.58653083       -2.24274941
 C           -0.28031700       -2.83961573       -1.71233508
 C            0.03758746        0.76813951       -2.02337463
 C            0.41784696       -0.58246307       -2.17260957
 C            0.62900965        3.00578567       -1.36889989
 C            1.00816747        1.76499465       -1.87487685
 C            0.73943113        3.61752334        0.87192141
 C            1.46826435        3.66497063       -0.38216068
 C            0.68749105        1.46340646        2.00686912
 C            1.38774373        2.62921582        1.69818191
 C            0.70794533       -0.86766608        2.59363257
 C            1.12944001       -2.19031356        2.16358716
 C            1.38529538        0.25445150        2.13551774
 C            2.34554123       -2.33063272        1.50880362
 C            1.24005797       -3.78107396       -0.20589414
 C            1.09148081       -3.24812915       -1.55378607
 C            2.44775224       -3.20990155        0.35743855
 C            1.77467624       -0.94826236       -2.08966551
 C            2.12412088       -2.25874217       -1.75390882
 C            3.10124954       -2.46372392       -0.70304926
 C            2.35949378        1.43146846       -1.90898819
 C            2.74722751        0.03590114       -1.92231308
 C            2.78333312        3.12711435       -0.12191541
 C            2.74778681        2.53083931        1.21066168
 C            3.29272703        2.12260553       -1.03090526
 C            2.68986041        0.11427410        1.63387223
 C            3.13791532       -1.14545664        1.22621530
 C            3.70112826       -1.28917436       -0.11203845
 C            3.77543120       -0.15184973       -0.89895302
 C            3.35666014        1.22251221        1.11766196
 C            3.92678943        1.11232497       -0.21230104




