%chk=000011.chk
%mem=8GB
%Nproc=16
#p B3LYP/6-31G* opt pop=NPA

Template file

0 1
 C            5.07464462       -0.38848959        0.05990242
 C            4.99313425        0.85767354       -0.67859139
 C            4.50253622        1.86930250        0.23727899
 C            4.42804300       -0.19339523        1.35022639
 C            4.09014537        1.20417857        1.46529209
 C            3.36015863       -1.17315043        1.45891248
 C            4.29013567       -1.37001464       -0.66121115
 C            3.48605836       -2.06887635        0.31886805
 C            3.99836945        0.69001485       -1.72966398
 C            3.58869364       -0.69793054       -1.74485264
 C            3.31155784        2.44845379       -0.35410653
 C            2.97672519        1.69855421       -1.54805845
 C            2.70477012        1.55546701        1.70544968
 C            2.30564211        2.50473469        0.68385692
 C            2.07675712       -0.78338332        1.87066032
 C            1.77639636        0.57463506        2.06557281
 C            1.02239262       -1.68671718        1.67593047
 C            2.33152465       -2.67009540       -0.14017465
 C            1.19467475       -2.71745385        0.75034255
 C            2.24012096       -1.00329187       -1.92830593
 C            1.79465210       -2.21652674       -1.41610565
 C            1.64258028        1.33984206       -1.71012177
 C            1.30952386        0.03414047       -2.09229516
 C            0.97732687        2.45363609        0.29625089
 C            0.68656654        2.07894586       -1.01323748
 C            0.43438923        0.95646274        2.05606116
 C            0.07023475        2.04704732        1.25795412
 C           -0.28183726       -1.32574722        2.03890979
 C           -0.53695721        0.00812810        2.36993438
 C           -1.33529508       -2.15320641        1.63201855
 C            0.08256251       -3.08429250       -0.09713064
 C            0.37285708       -2.49542990       -1.39277497
 C           -1.18929473       -2.92545191        0.41076883
 C           -0.05283071       -0.27115853       -2.21311158
 C           -0.51625136       -1.55797348       -1.90314426
 C           -0.65281373        1.86297589       -1.32246845
 C           -0.96026935        0.78746153       -2.15611638
 C           -1.27288171        2.22770630        0.96219923
 C           -1.61185112        2.27949136       -0.39440913
 C           -1.85120536        0.45843017        2.50708396
 C           -2.18424271        1.71830545        1.87643374
 C           -2.70440358       -1.66526932        1.65877681
 C           -2.96228511       -0.44237562        2.25551705
 C           -2.23140234       -2.46560326       -0.48672065
 C           -1.87433197       -1.73557418       -1.62461384
 C           -3.30675914       -1.99144774        0.36711201
 C           -2.29900343        0.52083666       -2.42460594
 C           -2.78109265       -0.81989904       -2.14826824
 C           -2.94884612        2.26775556       -0.78522969
 C           -3.29890282        1.45310714       -1.93158576
 C           -3.59532161        1.70697620        1.55275244
 C           -4.08510538        0.35766520        1.79069602
 C           -3.98873052        2.09431441        0.21521931
 C           -4.28349519       -1.16954499       -0.18046230
 C           -4.10012018       -0.70433500       -1.54357192
 C           -4.49033767        0.69231712       -1.60066140
 C           -4.80649358       -0.06365075        0.60321514
 C           -4.92081252        1.09172513       -0.27159667




