%chk=001151.chk
%mem=8GB
%Nproc=16
#p B3LYP/6-31G* opt pop=NPA

Template file

0 1
 C            0.58936450        3.29733910       -1.87049336
 C            0.23323696        3.80765119       -0.56714052
 C            1.36099286        3.57099058        0.31955641
 C            1.90730777        2.68829937       -1.76835752
 C            2.28647249        2.69049977       -0.37458330
 C            1.86446978        1.42110488       -2.46546235
 C           -0.28741942        2.33060533       -2.49617636
 C            0.54240961        1.27869109       -3.05876907
 C           -1.49033810        1.97606118       -1.89486830
 C           -0.95009420        3.28159795        0.08528135
 C           -1.73282805        2.31348811       -0.54979521
 C            0.83170273        3.15321780        1.60668440
 C           -0.61946133        3.11515791        1.48986611
 C            1.49066399        2.14328569        2.29747307
 C            2.65344879        1.49095494        0.22783039
 C            2.51649265        1.37282028        1.61123249
 C            2.45648824        0.30264006       -1.89486830
 C            2.86995351        0.34392906       -0.54979521
 C            2.16207313       -0.91639015       -2.49617636
 C           -0.00000000       -0.00000000       -3.21827088
 C            0.83617416       -1.10908605       -3.05876907
 C           -2.16294782        0.90412576       -2.46546235
 C           -1.37858377       -0.16960504       -3.05876907
 C           -3.28178943        0.30762730       -1.76835752
 C           -2.61792925        1.55247659        0.22783039
 C           -3.47327740        0.63489338       -0.37458330
 C           -1.34743550        2.20313584        2.24073396
 C           -2.44714356        1.49293642        1.61123249
 C            0.73198673        1.22082023        3.12712818
 C           -0.65816877        1.26226804        3.11261660
 C            2.58168935        0.06534545        2.24073396
 C            1.42224057       -0.06114315        3.11261660
 C            3.31699429       -0.81799326        0.08528135
 C            3.00753655       -1.02110971        1.48986611
 C            2.56089718       -2.15907418       -1.87049336
 C            3.18090418       -2.10581473       -0.56714052
 C            0.29847804       -2.32523064       -2.46546235
 C            1.37448166       -2.99592667       -1.76835752
 C           -1.87465371       -1.41421518       -2.49617636
 C           -3.15026168       -1.13826492       -1.87049336
 C           -0.96615014       -2.27870125       -1.89486830
 C           -3.77306498       -0.60684090        0.31955641
 C           -3.41414114       -1.70183646       -0.56714052
 C           -2.60147185        0.21931003        2.29747307
 C           -1.42325470        0.02350898        3.12712818
 C           -3.14661808       -0.85633321        1.60668440
 C            0.69126797       -1.24432922        3.12712818
 C           -0.76407181       -1.20112490        3.11261660
 C            2.31491535       -2.29688459        1.60668440
 C            2.41207213       -2.96414968        0.31955641
 C            1.18680490       -3.32539315       -0.37458330
 C            1.11080786       -2.36259573        2.29747307
 C           -1.13712545       -2.65741717       -0.54979521
 C           -2.36690009       -2.46360469        0.08528135
 C           -2.38807522       -2.09404820        1.48986611
 C           -1.23425385       -2.26848129        2.24073396
 C           -0.03551954       -3.04343153        0.22783039
 C           -0.06934909       -2.86575670        1.61123249




