%chk=000217.chk
%mem=8GB
%Nproc=48
#p B3LYP/6-31G* opt pop=NPA

Template file

0 1
 C            4.72837237        0.07336266        0.60397339
 C            4.15025791       -1.25365023        0.68872585
 C            3.90486367       -1.70372795       -0.66209575
 C            4.56512449        0.53779747       -0.76697872
 C            3.99147624       -0.54601247       -1.53733335
 C            3.85653537        1.79733090       -0.71959068
 C            3.94906876        0.94897058        1.46094359
 C            3.61617473        2.11692757        0.68103185
 C            3.02113209       -1.20144146        1.60370149
 C            2.85930104        0.17639545        2.03844819
 C            1.87412974       -1.93210809        1.30950957
 C            2.63596668       -2.34113762       -0.92671555
 C            1.83036682       -2.71183696        0.14044727
 C            2.68358433       -0.37196268       -2.15850832
 C            1.99104443       -1.63498604       -2.02006450
 C            2.58112900        1.92459092       -1.40997903
 C            1.96569386        0.80646076       -1.97481376
 C            2.26314371        2.61708317        0.76857781
 C            1.77986596        2.80519293       -0.58685865
 C            1.57103406        0.72326202        2.07965915
 C            1.37965130        2.05768068        1.68708703
 C            0.67411249       -1.51460606        1.89069106
 C            0.47197010       -0.15041350        2.13006329
 C           -0.41246229       -2.37612588        1.83943684
 C            0.61235703       -3.26791429       -0.21914922
 C           -0.41813807       -3.36861156        0.78887713
 C            0.59942725       -1.66198630       -2.05553612
 C           -0.01275187       -2.73995047       -1.42515043
 C            0.56982616        0.77154496       -2.02914462
 C           -0.10725598       -0.45716508       -2.13532157
 C            0.40431902        2.81094728       -0.76273596
 C           -0.14111822        1.93127896       -1.69980762
 C            0.08521357        2.55382323        1.63433741
 C           -0.35423227        3.10841040        0.36418656
 C           -0.82809014        0.36781380        2.22253468
 C           -1.00624595        1.74266837        2.12440934
 C           -1.75889931       -1.84455598        1.94300100
 C           -1.94399628       -0.47512183        2.12708491
 C           -1.69138968       -3.27724925        0.10679126
 C           -1.44443691       -2.71913762       -1.21071208
 C           -2.59414096       -2.55871564        0.97937240
 C           -1.50857035       -0.47613482       -2.09303016
 C           -2.18362627       -1.60486899       -1.59308444
 C           -1.51576074        1.96086867       -1.91056395
 C           -2.18730021        0.72891725       -2.27312064
 C           -1.79443167        2.97060443        0.29532729
 C           -2.21017707        2.26289146        1.50247273
 C           -2.35620920        2.63077951       -0.92889674
 C           -3.20934994        0.06667340        1.87099401
 C           -3.33754519        1.45818282        1.46871788
 C           -3.62919241       -1.86415466        0.37648045
 C           -3.44909133       -1.46729576       -1.01488785
 C           -4.14202690       -0.70372466        1.06800334
 C           -3.57484803        0.86210030       -1.86444783
 C           -3.65743797        1.99204378       -0.95080359
 C           -4.20558833        1.50944697        0.30197449
 C           -4.22281171       -0.26349528       -1.23204752
 C           -4.71801693        0.17404039        0.06451739




