%chk=000057.chk
%mem=8GB
%Nproc=16
#p B3LYP/6-31G* opt pop=NPA

Template file

0 1
 C            4.88453001       -0.32949925       -0.00000000
 C            4.38139393       -1.68744601       -0.00000000
 C            3.52663664       -1.83833670        1.16468073
 C            4.33500440        0.34076741        1.16692151
 C            3.33307054       -0.53085714        1.75255947
 C            3.92708604        1.65149287        0.73096493
 C            4.33500440        0.34076741       -1.16692151
 C            3.92708604        1.65149287       -0.73096493
 C            3.52663664       -1.83833670       -1.16468073
 C            3.33307054       -0.53085714       -1.75255947
 C            2.34920911       -2.54646843        0.72458650
 C            2.34920911       -2.54646843       -0.72458650
 C            1.13352948       -2.24891791        1.32038504
 C            2.02162129       -0.07372979        1.92702462
 C            0.97757861       -1.00765565        1.95942621
 C            2.62523188        2.13926416        1.13688890
 C            1.71974386        1.28844074        1.78175802
 C            2.62523188        2.13926416       -1.13688890
 C            2.14915757        2.89424639       -0.00000000
 C            2.02162129       -0.07372979       -1.92702462
 C            1.71974386        1.28844074       -1.78175802
 C            1.13352948       -2.24891791       -1.32038504
 C            0.97757861       -1.00765565       -1.95942621
 C            0.01335470       -2.78740915        0.70141662
 C            0.01335470       -2.78740915       -0.70141662
 C           -1.17997037       -2.68686059        1.39835142
 C           -0.31809111       -0.57546736        2.26921061
 C           -1.35049052       -1.51896678        2.23888357
 C            0.38260265        1.69880158        1.83007062
 C           -0.61870573        0.78928680        2.19093919
 C            0.82336150        3.25729505       -0.00000000
 C            0.02781917        2.86288349        1.14200098
 C            0.38260265        1.69880158       -1.83007062
 C            0.02781917        2.86288349       -1.14200098
 C           -0.31809111       -0.57546736       -2.26921061
 C           -0.61870573        0.78928680       -2.19093919
 C           -1.17997037       -2.68686059       -1.39835142
 C           -1.35049052       -1.51896678       -2.23888357
 C           -2.43212087       -2.95589694        0.72223189
 C           -2.43212087       -2.95589694       -0.72223189
 C           -2.73736090       -1.09859637        2.13252949
 C           -3.40005475       -1.97289923        1.17471639
 C           -1.95192825        1.21749339        2.20626378
 C           -3.03572421        0.25272520        2.12712048
 C           -1.34823059        3.05909898        0.73179025
 C           -1.34823059        3.05909898       -0.73179025
 C           -2.33855450        2.37615055        1.41673599
 C           -1.95192825        1.21749339       -2.20626378
 C           -2.33855450        2.37615055       -1.41673599
 C           -2.73736090       -1.09859637       -2.13252949
 C           -3.40005475       -1.97289923       -1.17471639
 C           -4.03495451       -1.39462063        0.00000000
 C           -3.03572421        0.25272520       -2.12712048
 C           -4.01671737        0.75419396        1.17557728
 C           -3.57578768        2.06150740        0.72565840
 C           -3.57578768        2.06150740       -0.72565840
 C           -4.34099147       -0.04006451       -0.00000000
 C           -4.01671737        0.75419396       -1.17557728




