%chk=000135.chk
%mem=8GB
%Nproc=48
#p B3LYP/6-31G* opt pop=NPA

Template file

0 1
 C            4.21939879       -1.06046777       -1.30806572
 C            4.60778600       -0.66133861        0.03213664
 C            4.27728074        0.74188859        0.18565919
 C            3.58033418        0.07800946       -1.94631525
 C            3.59024621        1.18644428       -1.01798162
 C            2.30529104       -0.36646798       -2.45468393
 C            3.21727265       -2.10422442       -1.18711162
 C            2.09696307       -1.74174241       -2.03670183
 C            3.78471213       -1.39899712        0.97520600
 C            2.94993377       -2.31807811        0.22183455
 C            3.58665556        0.88995848        1.45387730
 C            3.13038189       -0.43623854        1.84716970
 C            2.70045615        1.94540870        1.56996431
 C            2.43785828        1.95649091       -0.86208208
 C            2.29644916        2.62597025        0.35062999
 C            1.21777042        0.48643596       -2.38176736
 C            1.28956446        1.66986242       -1.62693456
 C           -0.02725772       -0.07622257       -2.60686213
 C            0.81398575       -2.10251193       -1.62553361
 C           -0.26814062       -1.36939740       -2.12347599
 C            1.62313888       -2.46216970        0.60460462
 C            0.67588168       -2.72776814       -0.38553015
 C            1.78394086       -0.63832139        2.15698924
 C            1.19638676       -1.84585726        1.78243919
 C            1.48194036        1.74568525        2.32772402
 C            0.96165512        0.45931383        2.44356946
 C            1.05992219        3.31046010        0.64676153
 C            0.59886613        2.82179202        1.93969338
 C            0.11302591        2.42241326       -1.43628273
 C           -0.04053390        3.18597002       -0.28260106
 C           -1.07816838        0.79322533       -2.82178688
 C           -1.04936539        2.05986148       -2.11911552
 C           -2.43252755        0.28669506       -2.79593092
 C           -1.56700902       -1.76103406       -1.77607433
 C           -2.66019832       -1.02345659       -2.22610217
 C           -0.59066165       -3.12392868        0.02171420
 C           -1.74645693       -2.67068146       -0.73463427
 C           -0.08111601       -2.13098460        2.24297174
 C           -0.91398639       -2.99905870        1.43118818
 C           -0.42514200        0.27332226        2.55822277
 C           -0.90946616       -1.02735327        2.69652232
 C           -0.81233336        2.53944682        1.81681068
 C           -1.24419961        3.01981429        0.51429050
 C           -1.31263785        1.32486673        2.26934438
 C           -2.33505970        2.19828271       -1.44657495
 C           -3.24417569        1.24046510       -2.05844164
 C           -2.36265142        2.43241479       -0.06889182
 C           -3.84319756       -0.92553621       -1.38763703
 C           -4.15555414        0.48657197       -1.22246116
 C           -2.84662537       -2.48869638        0.20417072
 C           -2.28561430       -2.54164828        1.54287829
 C           -2.28918335       -1.33769669        2.35587148
 C           -3.82137233       -1.53891443       -0.07191942
 C           -2.63715630        1.04774939        1.94195333
 C           -3.20140145        1.67910990        0.75802932
 C           -4.18625651        0.77089755        0.19573043
 C           -3.15090783       -0.30741519        2.01626892
 C           -4.07874136       -0.49261900        0.90727338




