%chk=000355.chk
%mem=8GB
%Nproc=48
#p B3LYP/6-31G* opt pop=NPA

Template file

0 1
 C            4.02926938       -1.91650277        0.43974783
 C            4.30122424       -0.53390461        0.77750016
 C            4.49821787        0.16735909       -0.47371108
 C            3.62253983       -1.94900101       -0.95764129
 C            3.92744322       -0.65878237       -1.53024007
 C            2.25130101       -2.41772087       -0.99986258
 C            2.89208459       -2.34385103        1.23201771
 C            1.92341073       -2.91426146        0.32226090
 C            3.25319010       -0.08001842        1.68405240
 C            2.45120869       -1.23186792        2.05204037
 C            2.61089489        1.13195820        1.45146295
 C            3.92607537        1.48801662       -0.60742965
 C            3.08974271        1.99945029        0.46278030
 C            2.85226345        0.10117662       -2.14056065
 C            3.09575877        1.48583848       -1.80166451
 C            1.27184884       -1.68791686       -1.68095293
 C            1.54036132       -0.37356272       -2.08683281
 C           -0.05882258       -2.05570506       -1.46010703
 C            0.59136086       -2.84879470        0.68553605
 C           -0.33423656       -2.85729195       -0.34585324
 C            1.07819544       -1.07493718        2.22166363
 C            0.25440960       -2.13269844        1.83548370
 C            1.32130127        1.32613926        1.95387034
 C            0.52979052        0.21226829        2.29348080
 C            0.72796448        2.56917369        1.74453994
 C            2.15330026        2.89042318       -0.19160448
 C            1.95306328        2.33190634       -1.51740588
 C            1.02955422        3.27996248        0.51479542
 C            0.48400026        0.53728317       -2.18930124
 C            0.67781666        1.88549046       -1.84569431
 C           -1.08080060       -1.28084157       -2.01481050
 C           -0.81536899        0.05460412       -2.34564809
 C           -2.39398649       -1.74702245       -1.92468382
 C           -1.64963210       -3.12425306        0.00321198
 C           -2.71422517       -2.69906958       -0.88115850
 C           -1.08736838       -2.08056339        2.18931893
 C           -2.04376757       -2.80355844        1.36201882
 C           -0.85566067        0.34872229        2.49957617
 C           -1.66661046       -0.78491651        2.49734168
 C           -0.68607988        2.74189726        1.99576559
 C           -1.47842284        1.57832314        2.31270497
 C           -0.22918624        3.37874936       -0.20222003
 C           -0.40279272        2.62543011       -1.36504435
 C           -1.26487178        3.35975905        0.81196091
 C           -1.85088567        0.98547886       -2.42803711
 C           -1.68620616        2.25742007       -1.75468312
 C           -3.50471905       -0.81869562       -1.98693289
 C           -3.22578102        0.57716512       -2.22999912
 C           -3.76667806       -2.11764690       -0.05946881
 C           -3.26458526       -2.02274509        1.29534879
 C           -2.97412562       -0.71374244        1.85494418
 C           -4.20804494       -0.90632319       -0.71570170
 C           -2.69454593        1.63971834        1.51434831
 C           -2.50881866        2.68139842        0.51231865
 C           -2.79215343        2.39240833       -0.81292584
 C           -3.73518841        1.32932138       -1.09355284
 C           -3.33320689        0.44841303        1.16812783
 C           -4.03081974        0.37094059       -0.04449086




