%chk=000536.chk
%mem=8GB
%Nproc=48
#p B3LYP/6-31G* opt pop=NPA

Template file

0 1
 C            3.74107380       -2.03438447        0.56806104
 C            4.11133213       -0.79799376       -0.09091611
 C            3.81807476        0.29054533        0.82481697
 C            2.99679006       -1.68382743        1.76696901
 C            2.92401457       -0.24276809        1.84133814
 C            1.75916232       -2.42324085        1.73943400
 C            2.83268675       -2.74528175       -0.31349538
 C            1.70407873       -3.16314195        0.48567238
 C            3.48742528       -0.78422011       -1.40463818
 C            2.55888407       -1.90216751       -1.45561567
 C            3.09684333        0.43886816       -1.92804708
 C            3.53275132        1.53465010        0.28246356
 C            3.38837704        1.64013448       -1.16246102
 C            2.46920797        2.32898209        0.87404270
 C            1.68805823        0.37019783        2.04278332
 C            1.58333335        1.73652015        1.77837691
 C            0.58720974       -1.81008612        2.17447252
 C            0.52283595       -0.40514313        2.21280630
 C           -0.58052883       -2.52834839        1.94000667
 C            0.45863397       -3.26467317       -0.12019555
 C           -0.60647880       -3.38018979        0.76382271
 C            1.22495553       -1.68398973       -1.79235686
 C            0.25292712       -2.58329067       -1.33451238
 C            1.75155954        0.58200057       -2.46183198
 C            0.82555877       -0.44254673       -2.30243148
 C            2.33994629        2.60580250       -1.43594399
 C            1.94613863        3.19653220       -0.17273477
 C            1.31864777        1.94909286       -2.23247217
 C            0.64380387        3.65269487       -0.05194284
 C            0.40443432        2.40150591        2.08616558
 C           -0.00219392        3.50811412        1.23763887
 C           -0.72483905        0.23408536        2.30804022
 C           -0.77995440        1.62328001        2.39734581
 C           -1.86385607       -1.86713312        2.02176037
 C           -1.90856737       -0.48365888        2.10635836
 C           -1.95774036       -3.41259762        0.25382467
 C           -2.76162932       -2.54566069        1.09924021
 C           -1.03816112       -2.46647883       -1.85295851
 C           -2.16522887       -3.01769389       -1.11943896
 C           -0.53216669       -0.13527160       -2.37969468
 C           -1.44854635       -1.18265604       -2.39543343
 C           -0.01799420        2.18740994       -1.92382657
 C           -0.32886062        3.23876216       -1.05565800
 C           -0.96039903        1.17873685       -2.14597289
 C           -1.42875488        3.39483232        1.00497666
 C           -1.93205101        2.33491321        1.86158152
 C           -1.64080703        3.29739504       -0.43177338
 C           -3.05476022        0.17269177        1.65493710
 C           -3.02822035        1.60601576        1.42693498
 C           -3.61117617       -1.74519856        0.23700589
 C           -3.23920419       -2.03969740       -1.14067075
 C           -2.83198218       -0.94931026       -2.01414307
 C           -3.85241902       -0.42503393        0.59182758
 C           -2.30313165        1.43913666       -1.87443527
 C           -2.64384961        2.45885997       -0.89534709
 C           -3.52573836        1.83877098        0.07900064
 C           -3.24007059        0.34034109       -1.70797675
 C           -3.95943493        0.56481218       -0.46477983




