%chk=001020.chk
%mem=8GB
%Nproc=16
#p B3LYP/6-31G* opt pop=NPA

Template file

0 1
 C            4.17235413        0.55337483        0.44508637
 C            3.97524936        0.30246931       -0.96635004
 C            3.31980526        1.46824020       -1.53256134
 C            3.45198711        1.77263413        0.78560084
 C            2.86204586        2.29831063       -0.43096579
 C            2.57906504        1.47652248        1.90442320
 C            3.77704645       -0.47016730        1.38896011
 C            2.92778914        0.15763435        2.38806999
 C            3.08141660       -1.65454924        0.90966770
 C            3.22019614       -0.86762884       -1.38160044
 C            2.82640600       -1.83467082       -0.45224668
 C            2.34113381        1.00575553       -2.50305210
 C            2.27268973       -0.44367540       -2.40307691
 C            1.16358489        1.72114717       -2.63577907
 C            1.53102343        2.70634151       -0.41840118
 C            0.83939367        2.71879981       -1.62849923
 C            1.23326928        1.80882370        1.80889734
 C            0.80754426        2.65229187        0.77678261
 C            0.29355382        1.06409449        2.53096039
 C            1.85094364       -0.76369992        2.69362962
 C            2.03426326       -1.95323265        1.87471223
 C            0.56308197       -0.26947930        2.86078502
 C            0.91146503       -2.66746542        1.46110844
 C            1.81792998       -2.71961971       -0.82225279
 C            0.92992941       -3.25543567        0.19805596
 C            1.04690119       -1.10343759       -2.48856104
 C            0.99408295       -2.39423718       -1.97512710
 C           -0.06227383        1.00286104       -2.91962259
 C           -0.13730055       -0.36517356       -2.65626154
 C           -0.60431332        2.88796214       -1.63434717
 C           -1.15563636        1.87064956       -2.51896326
 C           -0.49576683        3.14105852        0.79752720
 C           -1.25087499        3.19348850       -0.44399898
 C           -1.00722327        1.54629683        2.64282890
 C           -1.39425525        2.69436698        1.84568093
 C           -2.11828631        0.60903329        2.64048234
 C           -0.47452869       -1.19508996        2.85798426
 C           -0.30706767       -2.42622273        2.10226102
 C           -1.84997358       -0.75113625        2.70790188
 C           -1.57219353       -2.71495209        1.43843146
 C           -2.52083191       -1.67239835        1.80303000
 C           -0.31594755       -3.61104926       -0.45973744
 C           -0.28304384       -3.04692167       -1.80168711
 C           -1.57557464       -3.22998030        0.14965495
 C           -1.39326640       -0.94968426       -2.42352212
 C           -1.48571778       -2.26783566       -1.98196227
 C           -2.37849731       -2.58836058       -0.87872040
 C           -2.38612895        1.30167856       -2.23351660
 C           -2.52625210       -0.14157181       -2.31558674
 C           -2.57875976        2.65892391       -0.18564025
 C           -2.68682346        2.41088929        1.24324844
 C           -3.12401951        1.10572636        1.71345228
 C           -3.14815083        1.75847136       -1.07989927
 C           -3.41779474       -1.18717079        0.85613825
 C           -3.35353291       -1.66664333       -0.51807185
 C           -3.58015890       -0.53022342       -1.39327867
 C           -3.74212013        0.23159467        0.82489435
 C           -3.89783655        0.62227203       -0.56696614




