%chk=000753.chk
%mem=8GB
%Nproc=16
#p B3LYP/6-31G* opt pop=NPA

Template file

0 1
 C            3.37897397       -2.39097952       -0.71989369
 C            3.40570035       -1.25814793       -1.62647800
 C            2.14579350       -1.23181852       -2.35423943
 C            2.07948798       -3.02119383       -0.84529341
 C            1.36664253       -2.38377412       -1.93672764
 C            1.44760626       -3.02120394        0.46019764
 C            3.48640844       -1.87318975        0.63173546
 C            2.26491101       -2.21246877        1.34712735
 C            3.79260571       -0.08682051       -0.86190979
 C            3.87057480       -0.47701873        0.54165780
 C            3.22809016        1.13494633       -1.20629345
 C            1.49499547       -0.01443123       -2.53754966
 C            2.15607885        1.16609301       -2.19102307
 C            0.10671127       -0.00279173       -2.70571567
 C           -0.00809343       -2.23836616       -1.80836631
 C           -0.63116978       -1.16301684       -2.44109232
 C            0.07357347       -2.85780324        0.50629576
 C           -0.62759929       -2.81285487       -0.69778908
 C           -0.48357056       -2.24092844        1.62035214
 C            1.65365481       -1.23729211        2.13730990
 C            0.25481197       -1.24964856        2.28663037
 C            3.40010789        0.38838699        1.51956008
 C            2.38508479       -0.08930005        2.44755073
 C            2.89671483        2.10072564       -0.16901034
 C            3.05034981        1.75499837        1.16672361
 C            1.39081232        2.37586894       -1.95154964
 C            1.70630095        2.82529752       -0.60058826
 C           -0.55016317        1.21808636       -2.87399948
 C            0.08153839        2.43813915       -2.39866056
 C           -1.97388719        1.32371180       -2.59565905
 C           -2.02406855       -1.11344768       -2.44540619
 C           -2.69375288        0.16979184       -2.33726765
 C           -2.01566235       -2.85237200       -0.65421776
 C           -2.75852032       -2.05048603       -1.60910789
 C           -1.86371270       -2.32189827        1.78149475
 C           -2.66890270       -2.72139741        0.63761391
 C           -2.55636619       -1.23845798        2.43843030
 C           -0.40558747       -0.16486069        2.89572559
 C           -1.78873192       -0.07654162        2.82116525
 C            1.70294012        1.07430293        2.96360294
 C            2.06657404        2.21042641        2.12967497
 C            0.26367774        1.03882904        3.05796647
 C            0.67587150        3.10684433        0.30368792
 C            0.83708221        2.82150963        1.65505380
 C           -0.26450422        2.21481782        2.38511097
 C           -0.88859874        3.14400623       -1.58598669
 C           -2.16330936        2.46151633       -1.71632847
 C           -0.61398613        3.32078379       -0.17169270
 C           -2.36754748        1.08652166        2.16326797
 C           -1.52515098        2.13568179        1.79109101
 C           -2.69135564        2.23064202       -0.38290405
 C           -1.74532472        2.78709425        0.57599686
 C           -3.53035980        0.11167612       -1.14716939
 C           -3.76243912       -1.29678745       -0.87323220
 C           -3.75648417       -1.76535155        0.49666317
 C           -3.62617502       -0.79261097        1.55980116
 C           -3.31235604        1.01784018       -0.10251877
 C           -3.36629522        0.59872197        1.22618275




