%chk=000201.chk
%mem=8GB
%Nproc=48
#p B3LYP/6-31G* opt pop=NPA

Template file

0 1
 C            4.40472400        1.03620556       -0.13543647
 C            3.79776630        2.28262224        0.28580456
 C            3.05034274        2.02238070        1.50524473
 C            4.05282262        0.02375872        0.84429034
 C            3.11868771        0.60511504        1.78496919
 C            3.61890814       -1.14398720        0.11157487
 C            3.78966759        0.64644052       -1.39378062
 C            3.41701145       -0.74528576       -1.27653425
 C            2.83370821        2.66699683       -0.72962460
 C            2.74526992        1.59924291       -1.70328700
 C            1.74193851        2.61191659        1.33885821
 C            1.62084741        3.04230181       -0.04089366
 C            0.63731243        1.97030434        1.88593060
 C            1.93411226       -0.08238060        2.03524050
 C            0.75252625        0.63137783        2.29891834
 C            2.65055483       -1.96323479        0.67782708
 C            1.86404279       -1.44351033        1.72132321
 C            2.08534729       -2.89329287       -0.18654332
 C            2.25790075       -1.18831096       -1.90919328
 C            1.81034917       -2.45692573       -1.54295194
 C            1.48159320        1.11460450       -2.03332009
 C            1.32501897       -0.23899621       -2.35742167
 C            0.40371328        2.78970947       -0.65380282
 C            0.35218261        1.88737053       -1.72540927
 C           -0.60996868        2.42430758        1.46878079
 C           -0.72106128        2.89121156        0.15058306
 C           -1.71915833        1.92780341        2.13621618
 C           -0.40346360       -0.06938809        2.68509844
 C           -1.64112516        0.58138726        2.66293506
 C            0.78528035       -2.17525718        2.20880218
 C           -0.40926340       -1.46506297        2.62858750
 C            0.98262613       -3.71416564        0.26069128
 C            0.35638728       -3.38091189        1.51930363
 C            0.46730556       -2.89022087       -1.88431222
 C           -0.04020133       -3.68051580       -0.77303704
 C            0.09386244       -0.66777920       -2.84391449
 C           -0.38689752       -2.00057622       -2.51380767
 C           -0.90344466        1.49735175       -2.21177918
 C           -1.04808730        0.23355792       -2.78879363
 C           -1.94712468        2.89466936       -0.49663445
 C           -2.04302561        2.15923078       -1.74356230
 C           -3.04866604        2.11936101        1.58538818
 C           -3.16368654        2.68133032        0.25989105
 C           -2.78794360       -0.13881801        2.13419808
 C           -3.71330127        0.82516071        1.57873519
 C           -1.55603863       -2.13330177        2.02572301
 C           -1.07315542       -3.27396858        1.28285189
 C           -1.29311522       -3.29195431       -0.14582643
 C           -2.55421594       -1.34005730        1.47680525
 C           -1.74250145       -1.85632190       -2.01273650
 C           -2.22556780       -0.57483851       -2.48455074
 C           -2.04361740       -2.26797843       -0.71443532
 C           -2.83348075       -1.44550521        0.10004765
 C           -3.31363272        1.45501685       -1.73420665
 C           -4.02553980        1.81001053       -0.51878896
 C           -4.22302320        0.59071851        0.24703927
 C           -3.29318490        0.01161555       -1.82673635
 C           -3.66831796       -0.51053436       -0.52033841




