%chk=000258.chk
%mem=8GB
%Nproc=48
#p B3LYP/6-31G* opt pop=NPA

Template file

0 1
 C            4.32493612       -1.47846788       -0.36948049
 C            4.51064884       -0.04414098       -0.26545663
 C            4.23368005        0.33706782        1.10682635
 C            3.72749746       -1.93693034        0.87472836
 C            3.65604422       -0.81422836        1.78152840
 C            2.49586760       -2.61585125        0.54006262
 C            3.36623138       -1.72399873       -1.43450088
 C            2.34358404       -2.59824551       -0.90672687
 C            3.74153784        0.58384201       -1.32776182
 C            2.94176053       -0.44921218       -1.96929644
 C            3.15630587        1.81807669       -1.08853197
 C            3.35834235        1.46988729        1.33694167
 C            3.09306843        2.32951094        0.27886618
 C            2.35469125       -0.42239462        2.29704501
 C            2.24740953        1.01825720        2.16876687
 C            1.35318971       -2.39890375        1.30634177
 C            1.22943929       -1.19970330        2.02820163
 C            0.19569999       -2.99144169        0.81866823
 C            1.04766478       -2.48577524       -1.39917753
 C            0.05951830       -3.08490525       -0.62565683
 C            1.57516402       -0.24403710       -2.16369885
 C            0.70947861       -1.34570862       -2.14403103
 C            1.87632405        2.10672701       -1.70744176
 C            1.05165818        1.05458876       -2.10285062
 C            1.91376702        3.16480252        0.36656397
 C            1.29587332        3.18684220       -0.94916038
 C            0.98534144        1.58760761        1.99593738
 C            0.87835875        2.79529178        1.31424555
 C           -0.03061962       -0.60801400        2.16850260
 C           -0.15467992        0.78863909        2.11744061
 C           -1.08920240       -2.58585156        1.34466945
 C           -1.16962543       -1.40801628        2.07814257
 C           -1.33784330       -2.88509325       -0.95663352
 C           -2.06893512       -2.84177337        0.30004139
 C           -0.61380342       -1.15775431       -2.53670674
 C           -1.66153814       -1.99520554       -1.96943062
 C           -0.33523915        1.25271362       -2.18328691
 C           -1.13031567        0.19661258       -2.62720965
 C           -0.13360774        3.17305147       -0.74947663
 C           -0.38120646        3.12848114        0.68353904
 C           -0.92669483        2.36686177       -1.55975518
 C           -1.41621145        1.36625953        1.93077028
 C           -1.54090346        2.48898038        1.09882037
 C           -2.42321949       -0.83748024        2.27742324
 C           -2.54615382        0.60867718        2.24011218
 C           -3.28579222       -2.17969214        0.36429504
 C           -3.55535270       -1.39561114        1.55424967
 C           -2.86926760       -1.19457501       -1.85713843
 C           -2.54705592        0.15637817       -2.30330095
 C           -3.73098863       -1.39499970       -0.77975618
 C           -2.27456824        2.32306324       -1.20870526
 C           -2.59465854        2.53242610        0.19162125
 C           -3.12849284        1.25474066       -1.68837294
 C           -3.82155146        0.92891292        1.61565945
 C           -4.44049804       -0.31007394        1.18070203
 C           -4.51336734       -0.28149880       -0.27205356
 C           -3.82115813        1.82820645        0.48547228
 C           -4.18053188        1.06307795       -0.70058676




