%chk=000316.chk
%mem=8GB
%Nproc=48
#p B3LYP/6-31G* opt pop=NPA

Template file

0 1
 C            4.19256570       -1.41913553       -0.51091547
 C            4.29353533       -0.54016223        0.64063785
 C            4.21057515        0.82437403        0.15822931
 C            3.79367923       -0.61135423       -1.65240200
 C            3.91142933        0.77410519       -1.26634387
 C            2.50167222       -1.09200198       -2.11500551
 C            3.12380436       -2.36384489       -0.25011861
 C            2.18380371       -2.28450001       -1.34941641
 C            3.33367678       -0.98905685        1.63479333
 C            2.61256228       -2.12661949        1.08681941
 C            2.63076651       -0.04735040        2.37106094
 C            3.26083001        1.73293340        0.78179251
 C            2.60500543        1.34923303        1.94061320
 C            2.78009620        1.64097827       -1.50449525
 C            2.49755395        2.36507016       -0.27739723
 C            1.46996575       -0.18613579       -2.39583230
 C            1.69873782        1.19417113       -2.26104048
 C            0.15282715       -0.67679519       -2.42907233
 C            0.84940177       -2.52327846       -1.07361257
 C           -0.09229654       -1.96207911       -1.92377210
 C            1.23428753       -2.22755777        1.27693033
 C            0.47270704       -2.77756999        0.24668691
 C            1.29475405       -0.37672376        2.82978933
 C            0.59845336       -1.43191140        2.23886460
 C            1.26540559        1.85296897        2.18454525
 C            0.61273150        0.88403275        3.04517847
 C            1.18148301        2.77226271       -0.06023136
 C            0.53835859        2.44348341        1.14726639
 C            0.61753319        2.06216662       -2.32480967
 C            0.41670844        2.96981010       -1.20506379
 C           -0.91213519        0.19305499       -2.70529184
 C           -0.68295091        1.56209125       -2.71124928
 C           -2.22966086       -0.25065192       -2.59630794
 C           -1.38568442       -2.46229056       -1.85280991
 C           -2.49148785       -1.63645729       -2.27912158
 C           -0.85856596       -3.07929499        0.49999144
 C           -1.77767263       -3.13113533       -0.62588685
 C           -0.79837126       -1.45982776        2.34249997
 C           -1.52456919       -2.38188829        1.58535939
 C           -0.76661411        0.87910428        3.10336482
 C           -1.46134295       -0.38578265        2.94150828
 C           -0.86245494        2.49488024        1.25163387
 C           -1.49625919        1.85835696        2.31947453
 C           -0.99907120        3.22144694       -1.08356598
 C           -1.67169324        2.44414836       -2.11212506
 C           -1.63800944        2.93073032        0.17770796
 C           -3.19835920        0.55739006       -1.86787821
 C           -2.86163758        1.85928249       -1.52060462
 C           -2.89751567        2.26294079       -0.12144533
 C           -3.51002218       -1.67619025       -1.23894164
 C           -3.04970011       -2.57690147       -0.19905036
 C           -2.88113927       -2.06766315        1.14923805
 C           -3.84144147       -0.30523344       -0.89042427
 C           -2.82080788       -0.06505906        2.54138782
 C           -2.84037011        1.33362183        2.13938452
 C           -3.45975798        1.41873171        0.82912008
 C           -3.44449581       -0.84493357        1.49195091
 C           -3.88082381        0.07801683        0.44840234




