%chk=000558.chk
%mem=8GB
%Nproc=48
#p B3LYP/6-31G* opt pop=NPA

Template file

0 1
 C            4.27547023        0.82462104        0.78647099
 C            4.13933275        0.41897898       -0.60273300
 C            3.68387720       -0.96037373       -0.61444121
 C            3.75305345       -0.25042591        1.60877688
 C            3.65236100       -1.42390756        0.77034440
 C            2.54462588        0.21772930        2.26759827
 C            3.42567594        1.97994826        0.98866357
 C            2.39296350        1.62509974        1.95034239
 C            3.34802351        1.42496819       -1.28597402
 C            3.00996238        2.45970396       -0.31641909
 C            2.39792764        1.01108004       -2.21229497
 C            2.66615781       -1.34749666       -1.49287248
 C            2.08124683       -0.40555684       -2.34243701
 C            1.99672966       -2.54557168       -1.25394832
 C            2.70796190       -2.37300413        1.11840753
 C            2.13613221       -3.16372098        0.05186113
 C            1.42125213       -0.61135432        2.26672270
 C            1.60252344       -1.96189094        1.98088602
 C            0.14396544       -0.04497434        2.15410111
 C            1.11610398        2.12799459        1.75434594
 C            0.01984539        1.35055328        2.12639622
 C            1.77994629        3.09731893       -0.39851360
 C            0.93846292        3.11333701        0.78562306
 C            1.16037338        1.76001346       -2.36475853
 C            0.90016393        2.83392160       -1.52698052
 C            0.66777789       -0.51626001       -2.67934113
 C            0.09376646        0.81619496       -2.66034913
 C            0.60192536       -2.68368962       -1.65410506
 C           -0.07432539       -1.58052395       -2.18133206
 C            0.82084141       -3.58157556        0.48585400
 C            0.45745617       -2.78026205        1.64393826
 C           -0.05388626       -3.53487953       -0.66925531
 C           -0.98293480       -0.86389807        1.93944754
 C           -0.81973940       -2.23422785        1.67209112
 C           -2.26599351       -0.29038111        1.87511597
 C           -1.24153994        1.93259688        2.07456619
 C           -2.41660089        1.08522242        2.04088080
 C           -0.40332307        3.41969255        0.34012414
 C           -0.46166287        3.05869809       -1.07020957
 C           -1.46098473        3.03948842        1.15021770
 C           -1.16886429        0.99780630       -2.10403571
 C           -1.49134720        2.22282540       -1.50060176
 C           -1.43921527       -1.41008339       -1.91952449
 C           -1.99458011       -0.11807327       -1.92541315
 C           -1.39947271       -3.33370042       -0.42564397
 C           -1.77737730       -2.89131717        0.90577734
 C           -2.12944123       -2.46404267       -1.31810492
 C           -3.34227987       -1.02674357        1.36818701
 C           -3.09976461       -2.32617868        0.78891762
 C           -3.38320884       -2.21320237       -0.63737967
 C           -3.33617492        0.07444304       -1.59430840
 C           -4.28833920       -0.38527937        0.47179384
 C           -4.03913735       -0.94471253       -0.84479967
 C           -3.42840738        1.79528974        1.27154823
 C           -2.73934493        2.81326347        0.50773792
 C           -2.72824172        2.37676923       -0.87741620
 C           -4.24121600        1.05265397        0.33175488
 C           -3.72850228        1.33709544       -1.00529978




