%chk=000748.chk
%mem=8GB
%Nproc=16
#p B3LYP/6-31G* opt pop=NPA

Template file

0 1
 C           -3.85321069        0.04355924        1.91842505
 C           -3.46284869       -1.31821410        1.59834616
 C           -2.14816479       -1.55500771        2.17125119
 C           -2.70926455        0.69714220        2.52964605
 C           -1.68936207       -0.30475499        2.74899383
 C           -2.36396302        1.85433253        1.72916632
 C           -4.13577049        0.72810678        0.67073178
 C           -3.30481670        1.91939311        0.61908652
 C           -3.64372180       -1.51746613        0.17279333
 C           -4.04327716       -0.24283581       -0.40846350
 C           -2.73317878       -2.32554458       -0.49444687
 C           -1.22855103       -2.32913105        1.46390173
 C           -1.61787801       -2.89710380        0.24823208
 C            0.13552291       -2.15330009        1.72283091
 C           -0.36315245        0.04236216        2.55222814
 C            0.55294005       -0.98433271        2.36894208
 C           -1.01723217        2.12903652        1.49584392
 C           -0.03558557        1.32612458        2.09955265
 C           -0.67767927        2.92209798        0.39784643
 C           -2.85267542        2.36250256       -0.61619848
 C           -1.50841035        2.90021813       -0.72185649
 C           -3.51289920        0.16046099       -1.63049167
 C           -3.09016287        1.54189062       -1.79554969
 C           -2.22341362       -1.92699066       -1.79940295
 C           -2.54009781       -0.67905867       -2.31444973
 C           -0.60535308       -3.24272963       -0.73231904
 C           -0.85052332       -2.39542078       -1.88936923
 C            1.05869203       -2.92427571        1.01506132
 C            0.70246618       -3.40914717       -0.30831738
 C            2.45977470       -2.53540299        0.97962242
 C            1.90149404       -0.67015132        2.46302401
 C            2.88945517       -1.47914302        1.76918180
 C            1.31504748        1.65829486        1.94976126
 C            2.28554724        0.72440297        2.33059811
 C            0.66429443        3.20531849        0.17280186
 C            1.65405888        2.72139485        1.11339487
 C            1.18936854        2.92527047       -1.15325908
 C           -0.93957293        2.44857808       -1.98180538
 C           -1.87680390        1.54366859       -2.59791895
 C           -1.46372600        0.17501617       -2.79321959
 C            0.41283812        2.13960048       -1.99023488
 C            0.15531362       -1.52876697       -2.32143123
 C           -0.14142924       -0.17982019       -2.52815788
 C            0.81653984        0.81124297       -2.23328542
 C            1.75887519       -2.99321647       -1.21120930
 C            2.89541072       -2.59252423       -0.40599986
 C            1.47532601       -1.92213942       -2.15193825
 C            2.15502629        0.43725919       -2.00988240
 C            3.46385212       -1.40186826       -1.01091863
 C            2.50375988       -0.91217522       -1.99583815
 C            3.91027732       -0.57973841        1.25002085
 C            3.61600209        0.75489820        1.74330234
 C            4.11232885       -0.48980440       -0.18960767
 C            2.91821011        2.71862601        0.39262317
 C            2.59474782        2.63732880       -1.02241101
 C            3.07015461        1.36146801       -1.50162943
 C            3.89266297        1.68618859        0.67214755
 C            4.07273775        0.91428032       -0.54974562




