%chk=000005.chk
%mem=8GB
%Nproc=16
#p B3LYP/6-31G* opt pop=NPA

Template file

0 1
 C            4.93412700        0.29547914        0.74916067
 C            5.00285879       -0.89266650       -0.08101159
 C            4.65155910       -0.50550124       -1.43639108
 C            4.42710800        1.38392611       -0.07142341
 C            4.22386157        0.88403155       -1.40986692
 C            3.28536478        1.94682120        0.61481709
 C            3.95712611        0.04984940        1.79862130
 C            3.06427065        1.18281985        1.83442120
 C            3.98586624       -1.81666009        0.39067430
 C            3.36769209       -1.25030071        1.58099173
 C            3.50676780       -1.30227155       -1.84044285
 C            3.12194240       -2.15042004       -0.73150737
 C            2.88264448        0.94630531       -1.96549763
 C            2.50364525       -0.39876677       -2.36295926
 C            2.15963108        2.33544292       -0.10950736
 C            1.90637859        1.74433604       -1.36117186
 C            1.07082790        2.72090705        0.66362345
 C            1.74280727        0.98508196        2.22344725
 C            0.87546969        2.02444216        1.92506062
 C            1.98786813       -1.37666349        1.70847778
 C            1.22794090       -0.32226881        2.24614521
 C            1.76296921       -2.29367978       -0.47563451
 C            1.35580652       -2.27123249        0.85336539
 C            1.16857570       -0.74811813       -2.21316438
 C            0.84501743       -1.86311382       -1.43998957
 C            0.57767544        1.52407278       -1.74538616
 C            0.23392505        0.27228662       -2.27423786
 C           -0.23050836        2.86974856        0.04565099
 C           -0.42623449        2.34014329       -1.21894227
 C           -0.54321973        1.83923624        2.11159212
 C           -1.22095794        2.60255707        1.07607737
 C           -0.15817810       -0.52062183        2.39200364
 C           -1.02782686        0.58227470        2.44055546
 C            0.04263171       -2.59778554        1.12126200
 C           -0.66879864       -1.78428766        2.08483855
 C           -0.50923022       -2.12269261       -1.20510907
 C           -0.84849111       -2.75262516       -0.00839486
 C           -1.10554835       -0.08449666       -2.34950786
 C           -1.47795393       -1.33974057       -1.84625015
 C           -1.73643060        2.14513982       -1.64226575
 C           -2.02839489        0.95234775       -2.40521197
 C           -2.49826935        2.21035477        0.69147679
 C           -2.81079628        2.27134479       -0.66914960
 C           -2.40796168        0.39743947        2.34903278
 C           -3.17814870        1.32336166        1.53010417
 C           -2.08472918       -1.95704613        1.80824835
 C           -2.19645994       -2.62311971        0.51139852
 C           -2.95475792       -0.92882313        2.13183983
 C           -2.82605846       -1.63979777       -1.62541958
 C           -3.20712919       -2.25619475       -0.36513748
 C           -3.44490141        0.67960215       -2.26726638
 C           -3.94931399        1.54130222       -1.20667015
 C           -3.85230035       -0.67315262       -1.97115059
 C           -4.36739633        0.62514156        1.07122635
 C           -4.19574959       -0.78488655        1.38552437
 C           -4.35384102       -1.53426185        0.15403073
 C           -4.75740445        0.72948931       -0.32028174
 C           -4.80536781       -0.61408948       -0.87471877




