%chk=000569.chk
%mem=8GB
%Nproc=48
#p B3LYP/6-31G* opt pop=NPA

Template file

0 1
 C           -4.06639005       -1.38950029       -0.57697086
 C           -3.31053330       -2.33157008        0.22544249
 C           -2.89184059       -1.66225718        1.44435583
 C           -4.15321426       -0.14716540        0.16613231
 C           -3.40064036       -0.29724620        1.39833875
 C           -3.77267871        0.91786267       -0.73313630
 C           -3.29276208       -1.12415126       -1.77944112
 C           -3.05606732        0.29950479       -1.84360572
 C           -2.28533335       -2.89515658       -0.62459946
 C           -2.14973773       -2.00761694       -1.76926679
 C           -1.12359687       -3.34043665       -0.01815841
 C           -1.60482259       -1.89399329        1.92768514
 C           -0.82294149       -2.89057029        1.33814006
 C           -0.99260170       -0.90777743        2.69477958
 C           -2.58220878        0.75085040        1.81919454
 C           -1.48563590        0.46004892        2.62591681
 C           -3.23519130        2.06571356       -0.17656005
 C           -2.64006612        1.98084359        1.15630203
 C           -2.32859959        2.83880414       -0.99914115
 C           -1.78435639        0.77086214       -2.17249052
 C           -1.54538323        2.12984524       -1.99492582
 C           -0.88724792       -1.50125728       -2.06916243
 C           -0.69538828       -0.11586358       -2.22369999
 C            0.11517269       -3.24659550       -0.76520246
 C            0.21131059       -2.31470198       -1.79814429
 C            0.62958496       -2.85384849        1.46949349
 C            1.18428035       -3.33675528        0.21059926
 C            0.45771058       -0.85776158        2.80210480
 C            1.24206820       -1.79413788        2.13771312
 C           -0.33635914        1.35338593        2.64516923
 C            0.86099679        0.54043138        2.80229028
 C           -1.48854032        2.87434597        1.18566486
 C           -1.40355315        3.51490649       -0.11345461
 C           -0.31205936        2.46985954        1.81535953
 C           -0.18356960        2.61567195       -1.89799714
 C           -0.11845718        3.54705655       -0.77495866
 C            0.60790098        0.38764945       -2.36719572
 C            0.87456784        1.73861259       -2.11439472
 C            1.46906591       -1.90497059       -2.21522505
 C            1.67200824       -0.50211666       -2.52310531
 C            2.46022193       -2.94819295       -0.16716568
 C            2.63915557       -2.38238857       -1.49415767
 C            2.56453148       -1.47068979        1.84571523
 C            3.24508201       -2.15623362        0.76025197
 C            2.04007630        0.91517185        2.16493848
 C            2.96406056       -0.07136703        1.81084349
 C            0.91624662        2.95489826        1.35767699
 C            1.01441004        3.53433700        0.02092193
 C            2.13014017        2.18606975        1.59923258
 C            2.14376826        2.12494658       -1.68221777
 C            2.24422501        3.05306959       -0.57294662
 C            3.01502247        2.40169083        0.46846588
 C            2.99821583       -0.13034873       -2.05253774
 C            3.58443701       -1.28550372       -1.39479645
 C            3.98450921       -1.16694381       -0.00574076
 C            3.82873685        0.11712228        0.65178853
 C            3.18043757        1.12822155       -1.49757118
 C            3.67183266        1.25533564       -0.12654676




