%chk=000737.chk
%mem=8GB
%Nproc=16
#p B3LYP/6-31G* opt pop=NPA

Template file

0 1
 C            3.10033043       -2.63846858        1.05966901
 C            3.62287156       -1.28839619        1.12816547
 C            2.75301879       -0.50827603        1.98988578
 C            1.90130332       -2.68921029        1.87695414
 C            1.65210015       -1.36659728        2.39697737
 C            0.86415965       -3.29686133        1.08155306
 C            2.69992894       -2.87861080       -0.31702445
 C            1.33522115       -3.34023296       -0.29427820
 C            3.81585379       -0.82896779       -0.23141617
 C            3.00091443       -1.68959919       -1.08188548
 C            3.77550860        0.53643520       -0.45430660
 C            2.47489186        0.80793442        1.62738487
 C            3.20806021        1.38707954        0.58559357
 C            1.24355692        1.36224199        1.98652707
 C            0.36189188       -0.85776265        2.33089072
 C            0.20072646        0.52146840        2.39263027
 C           -0.45436321       -2.90204852        1.27412693
 C           -0.70891516       -1.66578244        1.90340562
 C           -1.33522115       -3.34023296        0.29427820
 C            0.45436321       -2.90204852       -1.27412693
 C           -0.86415965       -3.29686133       -1.08155306
 C            2.00815683       -1.12085168       -1.88764957
 C            0.70891516       -1.66578244       -1.90340562
 C            3.22762921        0.99531738       -1.71405899
 C            2.21323238        0.17799466       -2.35764006
 C            2.71276277        2.58962012       -0.06565216
 C            2.67114119        2.31784683       -1.49496252
 C            0.97685008        2.68849321        1.65091397
 C            1.65400493        3.27892106        0.50838883
 C           -0.39231743        3.17747849        1.65145720
 C           -1.06791703        1.03190264        2.61920497
 C           -1.39448113        2.38084981        2.18542887
 C           -2.00815683       -1.12085168        1.88764957
 C           -2.21323238        0.17799466        2.35764006
 C           -2.69992894       -2.87861080        0.31702445
 C           -3.00091443       -1.68959919        1.08188548
 C           -1.90130332       -2.68921029       -1.87695414
 C           -3.10033043       -2.63846858       -1.05966901
 C           -0.36189188       -0.85776265       -2.33089072
 C           -1.65210015       -1.36659728       -2.39697737
 C            1.06791703        1.03190264       -2.61920497
 C            1.39448113        2.38084981       -2.18542887
 C           -0.20072646        0.52146840       -2.39263027
 C            0.62621074        3.81808201       -0.36673885
 C           -0.62621074        3.81808201        0.36673885
 C            0.39231743        3.17747849       -1.65145720
 C           -1.24355692        1.36224199       -1.98652707
 C           -1.65400493        3.27892106       -0.50838883
 C           -0.97685008        2.68849321       -1.65091397
 C           -2.67114119        2.31784683        1.49496252
 C           -3.22762921        0.99531738        1.71405899
 C           -2.71276277        2.58962012        0.06565216
 C           -3.81585379       -0.82896779        0.23141617
 C           -3.62287156       -1.28839619       -1.12816547
 C           -2.75301879       -0.50827603       -1.98988578
 C           -2.47489186        0.80793442       -1.62738487
 C           -3.77550860        0.53643520        0.45430660
 C           -3.20806021        1.38707954       -0.58559357




