%chk=000287.chk
%mem=8GB
%Nproc=48
#p B3LYP/6-31G* opt pop=NPA

Template file

0 1
 C            4.39287515        0.16443572        1.36972568
 C            4.54006614        0.09573162       -0.07516780
 C            4.16235429       -1.24166444       -0.49118565
 C            3.69222188       -1.03311937        1.79890533
 C            3.67921629       -1.95172633        0.68437464
 C            2.41847127       -0.63194160        2.37348824
 C            3.54455005        1.30178411        1.67218082
 C            2.36608898        0.81910793        2.37340308
 C            3.84334044        1.23409651       -0.64978936
 C            3.35151116        2.05526297        0.44827454
 C            3.05323193        1.05297926       -1.78263320
 C            3.17193475       -1.40212297       -1.54480293
 C            2.72544147       -0.29205878       -2.24461117
 C            2.41889827       -2.56762346        0.33336124
 C            2.20220588       -2.38224028       -1.09134399
 C            1.25825674       -1.33318575        2.04839562
 C            1.32187323       -2.43210325        1.17785218
 C            0.03020813       -0.69954027        2.25494863
 C            1.14450016        1.43836064        2.12221906
 C           -0.03020813        0.69954027        2.25494863
 C            2.15616037        2.74519302        0.30123687
 C            1.12180895        2.56672994        1.30936306
 C            1.88176787        1.89145948       -1.98614215
 C            1.48856771        2.77134097       -0.99201781
 C            1.35883397       -0.27386503       -2.73083010
 C            0.87359184        1.09665669       -2.66625530
 C            0.88238077       -2.33488923       -1.54519486
 C            0.48263236       -1.31485798       -2.42357027
 C            0.13107418       -2.96022560        0.69840646
 C           -0.07175325       -2.96252342       -0.74259086
 C           -1.14450016       -1.43836064        2.12221906
 C           -1.12180895       -2.56672994        1.30936306
 C           -2.36608898       -0.81910793        2.37340308
 C           -1.25825674        1.33318575        2.04839562
 C           -2.41847127        0.63194160        2.37348824
 C           -0.13107418        2.96022560        0.69840646
 C            0.07175325        2.96252342       -0.74259086
 C           -1.32187323        2.43210325        1.17785218
 C           -0.48263236        1.31485798       -2.42357027
 C           -0.88238077        2.33488923       -1.54519486
 C           -0.87359184       -1.09665669       -2.66625530
 C           -1.35883397        0.27386503       -2.73083010
 C           -1.48856771       -2.77134097       -0.99201781
 C           -2.15616037       -2.74519302        0.30123687
 C           -1.88176787       -1.89145948       -1.98614215
 C           -3.54455005       -1.30178411        1.67218082
 C           -3.35151116       -2.05526297        0.44827454
 C           -3.69222188        1.03311937        1.79890533
 C           -4.39287515       -0.16443572        1.36972568
 C           -2.41889827        2.56762346        0.33336124
 C           -2.20220588        2.38224028       -1.09134399
 C           -3.67921629        1.95172633        0.68437464
 C           -2.72544147        0.29205878       -2.24461117
 C           -3.05323193       -1.05297926       -1.78263320
 C           -3.84334044       -1.23409651       -0.64978936
 C           -4.54006614       -0.09573162       -0.07516780
 C           -3.17193475        1.40212297       -1.54480293
 C           -4.16235429        1.24166444       -0.49118565




