%chk=000141.chk
%mem=8GB
%Nproc=48
#p B3LYP/6-31G* opt pop=NPA

Template file

0 1
 C            4.29326207        0.32892894       -1.34581793
 C            4.47197966        0.99406213       -0.06744049
 C            4.15444268        0.03842731        0.97697803
 C            3.82800854       -1.02179567       -1.08623000
 C            3.71895592       -1.19824756        0.34768842
 C            2.64120924       -1.24247499       -1.88834007
 C            3.23317617        1.01671708       -2.05924551
 C            2.27893781        0.01761225       -2.51406197
 C            3.49485301        2.06594015        0.02014393
 C            2.73751150        2.08749192       -1.21419080
 C            3.25026804        0.68976011        1.90604548
 C            2.76548965        1.90475810        1.26381187
 C            2.33693272       -0.10576023        2.58138101
 C            2.58688657       -1.83582512        0.84915594
 C            2.11518242       -1.46461455        2.10925551
 C            1.61578725       -2.01030250       -1.35802328
 C            1.71329778       -2.47143388       -0.03825877
 C            0.35565374       -1.89027480       -1.93615729
 C            0.92957579        0.36741392       -2.54531764
 C           -0.03069660       -0.64743503       -2.45852077
 C            1.36192546        2.25440737       -1.14136975
 C            0.58148965        1.64805121       -2.11881041
 C            1.39687367        2.16906314        1.27564635
 C            0.76518376        2.56004010        0.08566375
 C            1.03388617        0.44661259        2.90502615
 C            0.62858685        1.64014084        2.31331738
 C            0.77542360       -1.85662702        2.52145783
 C            0.08684441       -0.65656289        2.96832198
 C            0.65283153       -3.20433247        0.49225700
 C            0.08433033       -2.78549362        1.76373128
 C           -0.59258598       -2.85703687       -1.63236901
 C           -0.45524357       -3.56501363       -0.37590515
 C           -1.99582758       -2.56054966       -1.80932358
 C           -1.38668147       -0.29924872       -2.54863052
 C           -2.37659128       -1.22991970       -2.23766493
 C           -0.74111282        2.03968065       -2.21264320
 C           -1.73242755        1.04983964       -2.58815792
 C           -0.60425255        2.84511411        0.09831655
 C           -1.29875259        2.80893944       -1.11563669
 C           -0.71954168        1.96474408        2.37626419
 C           -1.29388927        2.75652806        1.30834252
 C           -1.23344541       -0.41481128        2.59142509
 C           -1.67017535        0.90254458        2.66805387
 C           -1.33918338       -2.59364229        1.55602472
 C           -1.68328900       -3.35916093        0.37430826
 C           -2.66251315       -2.81828066       -0.53896120
 C           -1.89693415       -1.32689246        1.75360616
 C           -3.48975584       -0.82796069       -1.39158834
 C           -3.35322888       -1.60059714       -0.17155386
 C           -3.02776960       -0.93423561        1.01050121
 C           -3.00391021        1.47914146       -2.02432206
 C           -2.73900308        2.61179255       -1.14954764
 C           -3.80757950        0.51894078       -1.28808144
 C           -2.72711834        2.50486534        1.33459805
 C           -2.93596343        1.27189652        2.07940778
 C           -3.58697914        0.32774091        1.20046504
 C           -3.45502829        2.39700639        0.08860581
 C           -4.04930630        1.07032830        0.03636907




