%chk=000482.chk
%mem=8GB
%Nproc=48
#p B3LYP/6-31G* opt pop=NPA

Template file

0 1
 C            4.38075159        0.90901717       -0.29065513
 C            3.86451179        0.36988723       -1.53700207
 C            3.75750299       -1.05984027       -1.36862278
 C            4.20448605       -0.11113206        0.72957566
 C            3.96078955       -1.35883198        0.04387195
 C            3.20472772        0.36987345        1.66861224
 C            3.54669539        2.03579871        0.07692857
 C            3.03766106        1.79199703        1.41226850
 C            2.66786484        1.11580529       -1.88762688
 C            2.58078776        2.25033879       -0.98611732
 C            1.49355105        0.43681246       -2.22090707
 C            2.52439713       -1.70584460       -1.76827706
 C            1.49980490       -0.96245529       -2.34494067
 C            2.84060008       -2.17068247        0.47303242
 C            2.17810916       -2.65247317       -0.72424339
 C            2.07933345       -0.41513308        1.94812710
 C            2.04520201       -1.75782770        1.53817746
 C            0.91532911        0.20802156        2.42366312
 C            1.83127226        2.38122032        1.74596757
 C            0.85773957        1.60020840        2.48143714
 C            1.31865749        2.70953615       -0.63476311
 C            1.08392885        3.05711443        0.69766526
 C            0.27560416        1.12326901       -2.12018448
 C            0.23252897        2.34306441       -1.42574491
 C           -0.90439997        0.50735307       -2.55836890
 C            0.29663951       -1.62726106       -2.53242280
 C           -0.91719109       -0.86907189       -2.74757016
 C            0.85357351       -3.07041971       -0.61613145
 C           -0.02435072       -2.74611269       -1.65524172
 C            0.90098643       -2.50930203        1.77226862
 C            0.35119115       -3.28360465        0.66763200
 C           -0.24776659       -0.53588032        2.64141715
 C           -0.21373333       -1.91408988        2.47799569
 C           -1.48446958        0.10840927        2.73450372
 C           -0.42033599        2.26974719        2.30911398
 C           -0.28743456        3.17232154        1.17168602
 C           -1.58454589        1.53455845        2.47485406
 C           -0.99017898        2.94307343       -1.14925667
 C           -1.30835446        3.25035876        0.23333028
 C           -2.12515578        1.17223817       -2.46673790
 C           -2.19042565        2.44181219       -1.77937148
 C           -3.30883344        0.41738173       -2.08848350
 C           -2.02722093       -1.65416492       -2.22709979
 C           -1.46715988       -2.74440559       -1.44373709
 C           -3.16409873       -0.99435149       -1.77765300
 C           -1.07957759       -3.40296687        0.88032366
 C           -1.41678406       -2.61235962        2.05339010
 C           -1.98556344       -3.02748553       -0.18640046
 C           -2.67728687       -0.52509286        2.18937893
 C           -3.61476729       -1.19390836       -0.40691963
 C           -2.60635702       -1.83952510        1.74654999
 C           -3.00850678       -2.16442904        0.38504090
 C           -2.71356259        1.74826750        1.58059855
 C           -2.59693754        2.64431953        0.52139085
 C           -3.22066412        2.34255028       -0.75533085
 C           -3.89975291        1.07296821       -0.93320997
 C           -3.38712116        0.46719966        1.39740446
 C           -3.91169058        0.11412884        0.15681427




