%chk=000154.chk
%mem=8GB
%Nproc=48
#p B3LYP/6-31G* opt pop=NPA

Template file

0 1
 C            4.17787503       -1.21379574        1.16514277
 C            4.57270849       -0.48257085       -0.02483330
 C            3.89835624       -1.08559526       -1.15956768
 C            3.24514961       -2.25006287        0.76048983
 C            3.02791655       -2.14154557       -0.66611730
 C            2.09217486       -2.15469500        1.62374057
 C            3.45400955       -0.29985174        2.03279811
 C            2.20685582       -0.94026874        2.41089230
 C            4.07045645        0.87394967        0.09946203
 C            3.37970496        0.98657413        1.37179813
 C            3.30203454       -0.01375780       -1.93459846
 C            3.32840053        1.18793527       -1.11118101
 C            2.14537774       -0.30008725       -2.64134588
 C            1.72143944       -2.20708499       -1.15144767
 C            1.42353932       -1.52467779       -2.32516736
 C            0.84555029       -2.43985354        1.10076653
 C            0.67261144       -2.54654707       -0.28641911
 C           -0.24369743       -2.04218962        1.85401500
 C            1.06331741       -0.15015223        2.55196440
 C           -0.18912266       -0.77621160        2.45792625
 C            2.16436727        1.65546615        1.39246833
 C            1.16067914        1.21257053        2.25786456
 C            2.16771755        1.95177431       -0.99341586
 C            1.80227263        2.40817042        0.27682101
 C            1.15099202        0.74403767       -2.80861977
 C            1.19729252        1.87219666       -1.99827672
 C            0.03740520       -1.31586909       -2.68956089
 C           -0.12703127        0.09032780       -3.03648023
 C           -0.63995800       -2.62016522       -0.78097311
 C           -0.96931983       -1.94456203       -1.96997575
 C           -1.45989291       -2.60671330        1.51842204
 C           -1.64806757       -2.96888588        0.12620798
 C           -2.66754313       -1.97481526        1.98453625
 C           -1.35629307       -0.00637208        2.60374212
 C           -2.59905607       -0.57157341        2.31795089
 C            0.03774166        2.01256126        2.42077389
 C           -1.26393987        1.38154108        2.53658481
 C            0.74298956        3.29744748        0.40094275
 C           -0.11193793        3.18235252        1.56869823
 C            0.04995925        2.65133946       -1.89932400
 C           -0.11038831        3.51978764       -0.74848668
 C           -1.30901364        0.74327777       -2.68340792
 C           -1.24509575        2.04775063       -2.18665817
 C           -2.25891172       -1.45641738       -2.16824578
 C           -2.43241372       -0.03130278       -2.39219866
 C           -3.04362940       -2.74244803       -0.20048447
 C           -3.68568081       -2.15499159        0.96457531
 C           -3.35320892       -1.90790575       -1.33491080
 C           -3.48495651        0.13940759        1.40633337
 C           -3.37166966        0.43644284       -1.38669435
 C           -4.16906948       -0.83865779        0.58525438
 C           -4.05038066       -0.72488252       -0.84698878
 C           -2.18089617        2.08843630        1.65618650
 C           -1.49422385        3.24455792        1.12243106
 C           -1.49365274        3.43630071       -0.30691373
 C           -2.16365004        2.45155006       -1.13101147
 C           -3.02972196        1.33341126        0.84869439
 C           -2.98647197        1.48534257       -0.55417891




