%chk=000326.chk
%mem=8GB
%Nproc=48
#p B3LYP/6-31G* opt pop=NPA

Template file

0 1
 C            4.38570151       -0.65744653       -1.27627044
 C            4.45165496        0.61130409       -0.57377628
 C            4.48877482        0.32127444        0.84331837
 C            4.06445455       -1.68166842       -0.29613455
 C            4.13655970       -1.08170228        1.01684009
 C            2.81584603       -2.29023537       -0.69763575
 C            3.28208444       -0.58815842       -2.22280660
 C            2.39826531       -1.69081552       -1.95556992
 C            3.38931828        1.45669214       -1.09121031
 C            2.71968469        0.73497822       -2.16586026
 C            2.61529025        2.23653183       -0.22842582
 C            3.64047750        1.09593884        1.72403144
 C            2.71938984        2.07038489        1.15715733
 C            2.96193632       -1.13950401        1.87192085
 C            2.84470147        0.15876654        2.50033935
 C            1.82818436       -2.54119281        0.25096798
 C            1.79789723       -1.77064036        1.42325152
 C            0.62321043       -2.99711900       -0.26273901
 C            1.03099814       -1.52786990       -2.15401527
 C            0.23956366       -2.50836811       -1.57828033
 C            1.34383961        0.89306326       -2.30150965
 C            0.49268537       -0.23232653       -2.29792564
 C            1.43309267        2.76237495       -0.73848076
 C            0.83855596        2.11772590       -1.89917314
 C            0.34183185        3.06707550        0.16911051
 C            1.50629265        2.00811788        1.96143354
 C            1.52247598        0.72988958        2.64364067
 C            0.30267105        2.43835078        1.40942671
 C            0.56094405       -1.37115086        1.95614456
 C            0.41333818       -0.08412346        2.49202259
 C           -0.56514174       -2.96283241        0.56280952
 C           -0.58800540       -2.11436407        1.66403343
 C           -1.19212195       -2.36034968       -1.58862656
 C           -1.68645629       -2.96504846       -0.36282505
 C           -0.90732622       -0.04807928       -2.20691150
 C           -1.74585400       -1.16421129       -2.01872378
 C           -0.58811734        2.31012861       -1.82617502
 C           -0.86154340        3.10920331       -0.63983298
 C           -1.43632678        1.25473872       -2.13345718
 C           -2.08458318        2.94012251       -0.01348617
 C           -0.88685552        1.81509482        1.80975151
 C           -0.82230075        0.54181873        2.39245472
 C           -2.09369665        2.28409657        1.28542384
 C           -1.82184108       -1.65906870        2.13216557
 C           -1.95411133       -0.25628212        2.47912749
 C           -2.93927409       -2.59254637        0.09691458
 C           -3.04068023       -2.06076729        1.44421208
 C           -3.11561307       -1.00212810       -1.82571259
 C           -3.76377073       -1.76386626       -0.76776311
 C           -2.79113090        1.45357356       -1.87668984
 C           -3.15598525        2.35578880       -0.79731727
 C           -3.68557265        0.32259190       -1.81423985
 C           -3.29372673        1.46521302        1.36192297
 C           -3.22934911        0.22128655        1.97711725
 C           -3.93872849       -0.91725454        1.41105982
 C           -4.49130911       -0.82757155        0.07100691
 C           -4.01946691        1.62612804        0.10969958
 C           -4.49083197        0.45443775       -0.60573017




