%chk=000122.chk
%mem=8GB
%Nproc=48
#p B3LYP/6-31G* opt pop=NPA

Template file

0 1
 C            4.22532468        0.00000000        1.85320825
 C            4.77704577        0.00000000        0.51030658
 C            4.26311904       -1.16804649       -0.18148705
 C            3.37351223       -1.16892063        1.98644179
 C            3.37008139       -1.87664522        0.72311972
 C            2.09973918       -0.72649849        2.51559954
 C            3.37351223        1.16892063        1.98644179
 C            2.09973918        0.72649849        2.51559954
 C            4.26311904        1.16804649       -0.18148705
 C            3.37008139        1.87664522        0.72311972
 C            3.74186600       -0.72929356       -1.46526324
 C            3.74186600        0.72929356       -1.46526324
 C            2.65354353       -1.41417244       -1.99186511
 C            2.15191127       -2.33682446        0.23089734
 C            1.96984464       -2.38289199       -1.15124522
 C            0.94205146       -1.36452946        2.08578200
 C            1.02569735       -2.31467723        1.06262571
 C           -0.26715221       -0.69909581        2.27478386
 C            0.94205146        1.36452946        2.08578200
 C           -0.26715221        0.69909581        2.27478386
 C            2.15191127        2.33682446        0.23089734
 C            1.02569735        2.31467723        1.06262571
 C            2.65354353        1.41417244       -1.99186511
 C            1.96984464        2.38289199       -1.15124522
 C            1.62758173       -0.69253846       -2.73027273
 C            1.62758173        0.69253846       -2.73027273
 C            0.63292164       -2.54688082       -1.68989168
 C            0.37198643       -1.40332130       -2.54827213
 C           -0.15631032       -2.88553759        0.59509278
 C           -0.37460511       -2.97315979       -0.84228546
 C           -1.45493503       -1.38786084        2.04476439
 C           -1.42349297       -2.49513369        1.19967593
 C           -2.66240974       -0.72646428        2.24662183
 C           -1.45493503        1.38786084        2.04476439
 C           -2.66240974        0.72646428        2.24662183
 C           -0.15631032        2.88553759        0.59509278
 C           -1.42349297        2.49513369        1.19967593
 C            0.63292164        2.54688082       -1.68989168
 C            0.37198643        1.40332130       -2.54827213
 C           -0.37460511        2.97315979       -0.84228546
 C           -0.82347231       -0.70115788       -2.38842147
 C           -0.82347231        0.70115788       -2.38842147
 C           -1.72963421       -2.51724719       -1.09532646
 C           -2.43844804       -2.63349963        0.16600281
 C           -1.93392864       -1.38815746       -1.89033751
 C           -3.83714423       -1.17171979        1.51479897
 C           -3.64296355       -1.96259193        0.31356855
 C           -3.83714423        1.17171979        1.51479897
 C           -4.62027454        0.00000000        1.16324089
 C           -2.43844804        2.63349963        0.16600281
 C           -1.72963421        2.51724719       -1.09532646
 C           -1.93392864        1.38815746       -1.89033751
 C           -3.64296355        1.96259193        0.31356855
 C           -3.15353164       -0.72571229       -1.80144630
 C           -4.11904018       -1.17100485       -0.80758027
 C           -4.79567137       -0.00000000       -0.27891690
 C           -3.15353164        0.72571229       -1.80144630
 C           -4.11904018        1.17100485       -0.80758027




