%chk=000713.chk
%mem=8GB
%Nproc=16
#p B3LYP/6-31G* opt pop=NPA

Template file

0 1
 C            4.13000506       -1.39764433        0.50876435
 C            3.12196426       -2.39396093        0.81260679
 C            2.26981158       -1.87702959        1.87188929
 C            3.87584071       -0.24633004        1.35262870
 C            2.69037631       -0.51747710        2.15378435
 C            3.87574542        0.92981036        0.50274699
 C            3.92999568       -0.98059306       -0.86802494
 C            3.82891283        0.46804304       -0.88087259
 C            2.49426088       -2.78397075       -0.43581098
 C            2.83288849       -1.76424187       -1.41614458
 C            1.18608689       -3.23268803       -0.37458183
 C            0.91272663       -2.16019534        1.81294885
 C            0.48308794       -3.11267424        0.89042472
 C            0.00031900       -1.20885670        2.27150305
 C            1.73218099        0.48671591        2.28117610
 C            0.36910312        0.14440079        2.29877426
 C            3.07888185        1.99752936        0.89034549
 C            2.12098519        1.78686029        1.96415893
 C            2.40330505        2.79432441       -0.11963109
 C            2.94091412        1.05835784       -1.77274010
 C            2.24524936        2.28095109       -1.39998580
 C            1.81250794       -1.11213071       -2.11025889
 C            1.99569775        0.21811065       -2.49421686
 C            0.24746857       -2.80597643       -1.39570652
 C            0.53729655       -1.68642778       -2.17018702
 C           -0.93062755       -3.21910376        0.59533412
 C           -1.08707780       -2.96029379       -0.83226244
 C           -1.34675633       -1.56213023        2.33175159
 C           -1.82706462       -2.64092846        1.47762180
 C           -2.35582451       -0.52136293        2.33486547
 C           -0.62062931        1.14514989        2.26144446
 C           -1.96329880        0.79241473        2.10149995
 C            1.12537881        2.82414589        1.84971915
 C            1.27215908        3.42817455        0.53080492
 C           -0.26650136        2.46855099        2.00461055
 C           -0.03324521        3.37875997       -0.10333331
 C           -0.98618087        3.18778976        0.97237093
 C            0.91983983        2.24354434       -2.00835963
 C            0.84709499        1.04283190       -2.82370249
 C           -0.20165413        2.66006479       -1.28697847
 C           -0.51601896       -0.98613548       -2.75380577
 C           -0.38077327        0.43740099       -3.01745251
 C           -2.12298968       -2.13446746       -1.26922971
 C           -1.88108353       -1.22484692       -2.30035471
 C           -3.12476323       -2.25355029        0.96458825
 C           -3.53753633       -1.06078359        1.67786572
 C           -3.24610971       -1.97725713       -0.45607115
 C           -4.26831918       -0.23227003        0.74024132
 C           -4.07625022       -0.79229873       -0.59080876
 C           -2.82534213        1.68007317        1.44749168
 C           -2.25518805        2.74871756        0.65078252
 C           -3.94789160        1.17634660        0.67617863
 C           -1.46133099        2.12689048       -1.58496668
 C           -1.57531951        1.09097674       -2.51433076
 C           -2.57905811        0.05387294       -2.33081808
 C           -3.64432530        0.27790592       -1.47109450
 C           -2.53135303        2.40105794       -0.73209830
 C           -3.68757156        1.51585282       -0.71509448




