%chk=000884.chk
%mem=8GB
%Nproc=16
#p B3LYP/6-31G* opt pop=NPA

Template file

0 1
 C            4.09108635        0.72158281        0.65493823
 C            4.09108635       -0.72158281        0.65493823
 C            3.95813763       -1.13899056       -0.73283052
 C            3.95813763        1.13899056       -0.73283052
 C            3.41619574       -0.00000000       -1.44096171
 C            3.19758522        2.36247554       -0.72933552
 C            3.04659867        1.41037520        1.38323702
 C            2.82915044        2.63695212        0.65366626
 C            1.92907654        0.70308433        1.82896458
 C            3.04659867       -1.41037520        1.38323702
 C            1.92907654       -0.70308433        1.82896458
 C            3.19758522       -2.36247554       -0.72933552
 C            2.82915044       -2.63695212        0.65366626
 C            1.96512045       -2.40510895       -1.48495545
 C            2.06340630       -0.00000000       -1.81196384
 C            1.36628833       -1.21456796       -1.91121120
 C            1.96512045        2.40510895       -1.48495545
 C            1.36628833        1.21456796       -1.91121120
 C            1.48837358        3.18240885        0.62315674
 C            1.15082670        3.36868611       -0.77989509
 C            0.73404700        1.39657771        2.06150928
 C            0.51519078        2.65141196        1.46759299
 C           -0.31718754        0.72596564        2.68080713
 C            0.73404700       -1.39657771        2.06150928
 C           -0.31718754       -0.72596564        2.68080713
 C            1.48837358       -3.18240885        0.62315674
 C            1.15082670       -3.36868611       -0.77989509
 C            0.51519078       -2.65141196        1.46759299
 C           -0.18727673       -3.44932786       -1.11383725
 C           -0.01590259       -1.21042072       -2.12709054
 C           -0.73573520       -2.39927544       -1.95649793
 C           -0.01590259        1.21042072       -2.12709054
 C           -0.70126571       -0.00000000       -2.25845971
 C           -0.18727673        3.44932786       -1.11383725
 C           -0.73573520        2.39927544       -1.95649793
 C           -0.78860799        3.10714879        1.27533138
 C           -1.13266514        3.64414510       -0.03021659
 C           -1.68524926        1.17405264        2.48071656
 C           -1.91922744        2.32361761        1.74242349
 C           -1.68524926       -1.17405264        2.48071656
 C           -2.51871916        0.00000000        2.27892638
 C           -0.78860799       -3.10714879        1.27533138
 C           -1.13266514       -3.64414510       -0.03021659
 C           -1.91922744       -2.32361761        1.74242349
 C           -2.16354613       -2.35127569       -1.69161197
 C           -2.39306213       -3.05707523       -0.43971452
 C           -2.93251291       -2.32480138        0.69442254
 C           -2.09619662       -0.00000000       -2.34661953
 C           -2.84640899       -1.16877658       -1.91948263
 C           -2.16354613        2.35127569       -1.69161197
 C           -2.39306213        3.05707523       -0.43971452
 C           -2.93251291        2.32480138        0.69442254
 C           -2.84640899        1.16877658       -1.91948263
 C           -3.49140142        0.00000000        1.28367083
 C           -3.67479901       -1.17659722        0.44668700
 C           -3.81531020       -0.72509189       -0.92907019
 C           -3.67479901        1.17659722        0.44668700
 C           -3.81531020        0.72509189       -0.92907019




