%chk=000999.chk
%mem=8GB
%Nproc=16
#p B3LYP/6-31G* opt pop=NPA

Template file

0 1
 C            4.18716373       -0.29829488       -0.62661133
 C            4.00954915        0.74689924        0.35998892
 C            3.51630655        1.90867075       -0.34951032
 C            3.46146935        0.10704003       -1.82537281
 C            2.94208612        1.43754659       -1.59604417
 C            2.53127593       -0.94978589       -2.15168997
 C            3.74893220       -1.63465728       -0.28744325
 C            2.92668945       -2.11183640       -1.38603768
 C            2.96885503       -1.82726493        0.92162562
 C            3.10624572        0.51576681        1.47721288
 C            2.47071325       -0.71655446        1.60835633
 C            2.64760895        2.63162065        0.55452801
 C            2.33743230        1.73252105        1.66461711
 C            1.60445477        3.34608813       -0.01064511
 C            1.59628659        1.70836795       -1.83945069
 C            1.07377234        2.87406347       -1.28622315
 C            1.17541715       -0.66145095       -2.23993383
 C            0.71967430        0.66496427       -2.17314777
 C            0.26334045       -1.70964370       -2.11012843
 C            1.87732360       -2.93138113       -0.80753585
 C            2.07992515       -2.93519369        0.63663308
 C            0.57747695       -2.80592596       -1.29454441
 C            0.97620932       -3.11996887        1.45364547
 C            1.19733499       -0.77881500        2.18319001
 C            0.57524663       -2.02345530        2.32160483
 C            1.02304727        1.64886831        2.12525493
 C            0.47143944        0.39728345        2.42503441
 C            0.47276687        3.65317117        0.83559787
 C            0.17949373        2.74498987        1.92602326
 C           -0.36050024        3.08268483       -1.27751675
 C           -0.70212972        3.70885250       -0.01037087
 C           -0.65339450        0.91840578       -2.30123501
 C           -1.20563503        2.09755960       -1.77561545
 C           -1.05063198       -1.49341816       -2.50624798
 C           -1.48730164       -0.12416627       -2.71412219
 C           -2.12723607       -2.20828363       -1.83731183
 C           -0.43619723       -3.43104368       -0.57258209
 C           -0.23185406       -3.64986838        0.84799335
 C           -1.81357962       -3.01526540       -0.75566689
 C           -0.86731992       -2.10253388        2.49084638
 C           -1.36948999       -3.08510961        1.55117880
 C           -2.34402377       -2.66992631        0.55758620
 C           -0.86684363        0.31728564        2.81276390
 C           -1.58613986       -0.93448812        2.67394353
 C           -1.26420518        2.57270324        1.96195525
 C           -1.81511199        3.16596955        0.74839109
 C           -1.78409984        1.38180626        2.44703695
 C           -2.52910713        2.11475836       -1.33137005
 C           -2.80236728        2.48908625        0.04575306
 C           -2.90901060       -0.07957666       -2.42811309
 C           -3.24723715       -1.29556365       -1.70969733
 C           -3.42763566        1.03240577       -1.66606565
 C           -3.02218707       -1.46302559        0.72372252
 C           -2.76084040       -0.67411272        1.84951119
 C           -2.93565017        0.77157595        1.79567906
 C           -3.47929221        1.36021687        0.66113133
 C           -3.67745225       -0.91178030       -0.37646247
 C           -3.96106307        0.51121846       -0.41410891




