%chk=000860.chk
%mem=8GB
%Nproc=16
#p B3LYP/6-31G* opt pop=NPA

Template file

0 1
 C            4.20780681        0.12895404        0.58934610
 C            4.15782519       -1.08609946       -0.19694284
 C            3.61645787       -0.73517968       -1.50510147
 C            3.97035733        1.23358202       -0.32148229
 C            3.29983155        0.68185076       -1.48064119
 C            3.29577302        2.26180776        0.43524984
 C            3.26803748        0.29002402        1.68747703
 C            2.95785688        1.69925663        1.73834688
 C            2.24488934       -0.64418110        1.85685824
 C            3.37316061       -2.19069234        0.31202786
 C            2.44565284       -1.94546413        1.40513849
 C            2.55539633       -1.68029385       -1.81312303
 C            2.59030296       -2.70650961       -0.79618304
 C            1.31173290       -1.19635850       -2.20606141
 C            1.99552722        1.07653099       -1.77560141
 C            1.15842797        0.17512315       -2.43040108
 C            2.07131257        2.82441617       -0.09645849
 C            1.44887095        2.23458173       -1.19927692
 C            1.59972359        2.10194894        2.03078215
 C            1.26239692        3.12710883        1.06286519
 C            0.94352876       -0.22780725        2.17938786
 C            0.63982782        1.13827281        2.32709267
 C           -0.07872841       -1.18236946        2.29848921
 C            1.29647914       -2.78769651        1.15742628
 C            1.32607377       -3.15407923       -0.25241351
 C            0.06708411       -2.44518940        1.70304131
 C            0.17691648       -1.99675314       -2.01562851
 C            0.16371741       -2.95597574       -0.99186371
 C           -1.02094807       -1.61087915       -2.61334870
 C           -0.02545626        0.64574916       -2.97612238
 C           -1.10626667       -0.29186530       -3.21320646
 C            0.10679099        2.55507594       -1.44401085
 C           -0.59551555        1.86478198       -2.43438133
 C           -0.07532868        3.40142947        0.85812361
 C           -0.59555740        3.30413989       -0.49548423
 C           -0.69500933        1.54954788        2.34886409
 C           -1.04728299        2.74158900        1.71103036
 C           -1.33305284       -0.77377498        2.75613012
 C           -1.68671989        0.63022240        2.67399178
 C           -2.51877626       -1.53630130        2.40346829
 C           -1.04022662       -3.05141798        1.11569566
 C           -1.03028981       -3.22262078       -0.32580119
 C           -2.37448568       -2.66593281        1.51428888
 C           -2.27801583       -1.85855650       -1.92832846
 C           -2.29072731       -2.71347490       -0.83854005
 C           -3.13072755       -2.38660465        0.30189070
 C           -2.34361219        0.32627552       -2.76642636
 C           -2.03650177        1.66736826       -2.31331513
 C           -2.99338671       -0.59247447       -1.84916440
 C           -2.03443781        3.14211234       -0.37272321
 C           -2.31939332        2.82669440        1.01890473
 C           -2.70184535        2.16009051       -1.20169016
 C           -2.99872623        0.72613422        2.03962241
 C           -3.46706658       -0.62080373        1.79324796
 C           -3.66853587       -1.04291493        0.41799736
 C           -3.45268158       -0.12957777       -0.61400259
 C           -3.20059284        1.67889300        1.05257317
 C           -3.41186335        1.23828682       -0.32163379




