%chk=000576.chk
%mem=8GB
%Nproc=48
#p B3LYP/6-31G* opt pop=NPA

Template file

0 1
 C            3.70873623       -1.97872560       -0.78629179
 C            4.03771308       -0.59559912       -0.50268482
 C            3.63179309       -0.29732317        0.86031577
 C            3.09475352       -2.53919362        0.40263000
 C            3.00104686       -1.49252201        1.40543840
 C            1.87607807       -3.19956276       -0.01045555
 C            2.70436816       -1.98038164       -1.83709276
 C            1.56978154       -2.73751024       -1.35639632
 C            3.48136689        0.21134140       -1.56846942
 C            2.48844287       -0.60894807       -2.24705158
 C            3.14957952        1.52134068       -1.26921628
 C            3.07413555        0.95138972        1.12774448
 C            3.11439071        1.92871064        0.12963400
 C            2.16462900        1.06623448        2.18006751
 C            1.82642690       -1.36897792        2.14724826
 C            1.49924039       -0.12632455        2.68337971
 C            0.83523021       -3.26468618        0.90177771
 C            0.83609501       -2.34979554        2.03998721
 C           -0.52293126       -3.29623540        0.39144368
 C            0.28401533       -2.27450833       -1.61659920
 C           -0.76461694       -2.85619180       -0.90959636
 C            1.18272805       -0.13283385       -2.36162835
 C            0.09634764       -1.00854818       -2.19371746
 C            1.97196247        2.09459247       -1.88962754
 C            0.97195659        1.24841054       -2.36586012
 C            2.24404711        3.09022111        0.21148503
 C            1.59813980        3.24271112       -1.08368417
 C            1.20605622        2.16365218        2.22355436
 C            1.21289359        3.13239773        1.22840094
 C            0.10486523        0.21027226        2.93459466
 C           -0.05810376        1.63650030        2.71432573
 C           -0.55286108       -2.00742277        2.32456961
 C           -1.38351138       -2.83213373        1.46560064
 C           -0.89616175       -0.67700401        2.54696990
 C           -2.65815807       -2.39822354        1.14238570
 C           -2.06657511       -2.54194649       -1.27117607
 C           -3.08600407       -2.54806316       -0.23593449
 C           -1.20741149       -0.54545975       -2.41012251
 C           -2.28796282       -1.37172651       -2.10112531
 C           -0.31960476        1.74517944       -2.49611945
 C           -1.43346297        0.82045519       -2.57406544
 C            0.18895863        3.50257426       -0.85776244
 C           -0.03329364        3.51403519        0.58083245
 C           -0.73858391        2.88257692       -1.68548388
 C           -1.25434478        2.10912717        2.19590827
 C           -1.24446247        3.05954409        1.09265515
 C           -2.14076159       -0.19555716        2.12129985
 C           -3.07800390       -1.07628590        1.57879611
 C           -2.34583361        1.17776794        1.97069620
 C           -4.03546835       -1.49180787       -0.52795145
 C           -3.54319642       -0.76563120       -1.68388690
 C           -4.02793914       -0.57462486        0.59721801
 C           -2.57308700        1.45074595       -1.91924029
 C           -2.06981983        2.59578960       -1.17989632
 C           -2.32197817        2.69498668        0.18386269
 C           -3.11889342        1.67151430        0.83961532
 C           -3.55258953        0.64623620       -1.35355277
 C           -3.84015700        0.76544734        0.07225169




