%chk=000601.chk
%mem=8GB
%Nproc=48
#p B3LYP/6-31G* opt pop=NPA

Template file

0 1
 C            3.69076249       -2.03632635       -0.69629198
 C            4.05477728       -0.67577978       -0.34770142
 C            3.45644977        0.21318827       -1.32403842
 C            2.79092929       -1.97813320       -1.83662121
 C            2.64541338       -0.59826120       -2.22290342
 C            1.59692069       -2.70620577       -1.49303271
 C            2.94620374       -2.58976245        0.42148556
 C            1.70782479       -3.10756103       -0.09916803
 C            3.72875158       -0.47575291        1.04675454
 C            2.87258587       -1.58423868        1.45537441
 C            3.39140019        0.80327997        1.45573350
 C            2.95451009        1.44657633       -0.90629703
 C            3.01823765        1.79640809        0.44884030
 C            2.01741815        2.07369621       -1.72615668
 C            1.39297747       -0.11923247       -2.58973805
 C            1.29093168        1.26103113       -2.68881353
 C            0.35864805       -2.23528957       -1.92554929
 C            0.23660644       -0.88966288       -2.32929816
 C           -0.74330527       -2.87381276       -1.36317901
 C            0.55961807       -3.00980988        0.66927968
 C           -0.60084180       -3.36352602       -0.00004105
 C            1.64101599       -1.31560517        2.06019132
 C            0.48156168       -1.99968198        1.64964218
 C            2.46601869        0.93436255        2.56302095
 C            1.51803237       -0.14096919        2.79997656
 C            1.98099111        2.64183147        1.02680366
 C            1.71314848        2.15818818        2.36966449
 C            1.06459916        3.00797940       -1.15124583
 C            0.91909306        3.06335797        0.23102040
 C            0.00347973        1.86905952       -2.90918122
 C           -0.10884738        3.00715475       -2.00848237
 C           -1.03890602       -0.28554073       -2.37042968
 C           -1.17441432        1.05411057       -2.73590272
 C           -2.05433491       -2.27578744       -1.46604953
 C           -2.15401986       -0.94131305       -1.83760245
 C           -1.86662998       -3.20205370        0.66871818
 C           -2.82308748       -2.77027725       -0.33308287
 C           -0.77846436       -1.52038087        2.05369802
 C           -1.92466358       -2.25512047        1.75627085
 C            0.21039479        0.46272390        2.97926804
 C            0.34144841        1.89516323        2.75020467
 C           -0.91192953       -0.20291268        2.50245239
 C           -0.35236383        3.20659201        0.79727674
 C           -0.66481019        2.55203277        2.06218650
 C           -1.42681937        2.96033652       -1.40710121
 C           -2.15494693        1.87760010       -2.05159132
 C           -1.54820907        3.14710405       -0.03655328
 C           -3.27871342       -0.20066812       -1.45958643
 C           -3.18469326        1.24513960       -1.37291335
 C           -3.75257698       -1.87912443        0.32765012
 C           -3.19539654       -1.56464891        1.63828317
 C           -4.07646754       -0.62707687       -0.32330820
 C           -2.06229724        0.53432862        2.19594419
 C           -1.94549636        1.89168795        1.90439283
 C           -2.56783334        2.41524661        0.69877285
 C           -3.46753621        1.61042044        0.00997359
 C           -3.21909866       -0.12422416        1.79284821
 C           -3.97404672        0.42013977        0.67613254




