%chk=000969.chk
%mem=8GB
%Nproc=16
#p B3LYP/6-31G* opt pop=NPA

Template file

0 1
 C            3.98479769       -1.17757080        1.07205384
 C            3.75195019        0.13869441        1.62508495
 C            3.95873107        1.10279380        0.55878985
 C            4.04403198       -1.04474119       -0.37772673
 C            4.02773020        0.36941759       -0.69743858
 C            3.01327688       -1.90176403       -0.93903221
 C            3.03282393       -2.22509154        1.37256010
 C            2.63367365       -2.82026790        0.10857187
 C            1.80884082       -1.89158632        2.08494431
 C            2.46573907        0.43284898        2.23797821
 C            1.48786899       -0.56068450        2.34637240
 C            2.96240098        2.15164317        0.71516251
 C            2.07476543        1.76226563        1.80113253
 C            2.41759696        2.73602023       -0.41927545
 C            3.25656565        0.80047873       -1.76882062
 C            2.67096508        2.12830234       -1.71562932
 C            2.01857639       -1.34031851       -1.74239134
 C            2.25671650       -0.09843972       -2.33641565
 C            0.70930062       -1.85571149       -1.71153806
 C            1.23988053       -3.16786759        0.22515857
 C            0.78345218       -2.76003239        1.54378177
 C            0.39224743       -2.91571492       -0.84102408
 C           -0.55232052       -2.39422309        1.66997888
 C            0.14228193       -0.18556467        2.38861381
 C           -0.85855359       -1.16144455        2.25240434
 C            0.71964382        2.05888557        1.72053526
 C           -0.18293770        1.17359413        2.31027960
 C            1.02780521        3.15514557       -0.39533704
 C            0.26410498        2.96221672        0.75209950
 C            1.41625513        2.08912435       -2.44527141
 C            1.13335105        0.71027590       -2.77798642
 C            0.42875893        2.81725372       -1.67702672
 C           -0.32259766       -1.12598138       -2.32433029
 C           -0.14999365        0.23420497       -2.56760709
 C           -1.60250002       -1.66261630       -2.40977823
 C           -0.94315164       -3.20527679       -0.59891342
 C           -1.44198579       -2.93677418        0.74033924
 C           -1.94197111       -2.76674826       -1.54430310
 C           -2.78705748       -2.40012121        0.61783123
 C           -3.13288868       -2.40014321       -0.79512409
 C           -2.19802748       -0.79627877        2.36920352
 C           -3.16159734       -1.33006420        1.42113326
 C           -1.49392995        1.58825530        2.50040046
 C           -2.53996598        0.59253671        2.60227044
 C           -1.10781872        3.15993650        0.62353798
 C           -1.98758633        2.65843374        1.66123524
 C           -0.88822919        2.36794635       -1.67693262
 C           -1.18332353        1.13282775       -2.26842179
 C           -1.71492483        2.84549829       -0.66079373
 C           -2.73700663       -0.75643919       -2.42150224
 C           -3.67007100       -1.19301531       -1.39245583
 C           -2.49335762        0.66257935       -2.23151262
 C           -3.88157918       -0.20149051        0.84494170
 C           -3.59829565        0.95784710        1.67069203
 C           -3.21244599        2.19949695        1.02774783
 C           -3.00256318        2.21807587       -0.41094018
 C           -3.95494191       -0.05427705       -0.53869766
 C           -3.38251091        1.12364984       -1.17860871




