%chk=001117.chk
%mem=8GB
%Nproc=16
#p B3LYP/6-31G* opt pop=NPA

Template file

0 1
 C            3.69003442       -1.00143235        1.25633516
 C            3.13684299       -2.29101444        0.89246766
 C            2.03099706       -2.56654722        1.79661549
 C            2.88622175       -0.46746195        2.34518948
 C            1.77481992       -1.36900834        2.56620103
 C            2.59338986        0.91845743        2.04621642
 C            3.80350782        0.02745886        0.23802674
 C            3.21723558        1.24847577        0.77337327
 C            3.59992515       -0.30369959       -1.09552234
 C            2.66449901       -2.50083314       -0.46625959
 C            2.92572432       -1.54948900       -1.44465886
 C            0.94325498       -3.11534919        1.01550719
 C            1.33693418       -3.08539202       -0.38424029
 C           -0.36463633       -2.75685263        1.32667319
 C            0.48535393       -0.84938422        2.56821791
 C           -0.58504749       -1.66801242        2.18160039
 C            1.32210663        1.41549752        2.30770236
 C            0.30226209        0.53459012        2.68898932
 C            0.98879512        2.63974265        1.73518764
 C            2.57846927        2.16080029       -0.06987257
 C            1.63743384        3.02391810        0.49055618
 C            3.12343699        0.72176198       -2.00146514
 C            2.57191329        1.94878841       -1.45247583
 C            1.88822194       -1.23472611       -2.41143129
 C            2.10826956        0.12689312       -2.85901063
 C            0.36463633       -2.75685263       -1.32667319
 C            0.58504749       -1.66801242       -2.18160039
 C           -1.33693418       -3.08539202        0.38424029
 C           -0.94325498       -3.11534919       -1.01550719
 C           -2.66449901       -2.50083314        0.46625959
 C           -1.88822194       -1.23472611        2.41143129
 C           -2.92572432       -1.54948900        1.44465886
 C           -0.97811624        1.03566926        2.90309322
 C           -2.10826956        0.12689312        2.85901063
 C           -0.40038266        3.06770176        1.67629272
 C           -1.37954360        2.25812536        2.23033498
 C            0.63121694        3.63132197       -0.36091016
 C           -0.63121694        3.63132197        0.36091016
 C            1.37954360        2.25812536       -2.23033498
 C            0.97811624        1.03566926       -2.90309322
 C            0.40038266        3.06770176       -1.67629272
 C           -0.48535393       -0.84938422       -2.56821791
 C           -0.30226209        0.53459012       -2.68898932
 C           -2.03099706       -2.56654722       -1.79661549
 C           -3.13684299       -2.29101444       -0.89246766
 C           -1.77481992       -1.36900834       -2.56620103
 C           -3.69003442       -1.00143235       -1.25633516
 C           -2.88622175       -0.46746195       -2.34518948
 C           -3.59992515       -0.30369959        1.09552234
 C           -3.12343699        0.72176198        2.00146514
 C           -2.57191329        1.94878841        1.45247583
 C           -3.80350782        0.02745886       -0.23802674
 C           -1.63743384        3.02391810       -0.49055618
 C           -0.98879512        2.63974265       -1.73518764
 C           -1.32210663        1.41549752       -2.30770236
 C           -2.59338986        0.91845743       -2.04621642
 C           -2.57846927        2.16080029        0.06987257
 C           -3.21723558        1.24847577       -0.77337327




