%chk=000870.chk
%mem=8GB
%Nproc=16
#p B3LYP/6-31G* opt pop=NPA

Template file

0 1
 C            4.15861392        0.79440548       -0.56411702
 C            4.00136785       -0.49423522       -1.19811980
 C            3.92675508       -1.47935439       -0.13169282
 C            4.09107804        0.57848357        0.87537604
 C            3.56062927       -0.75665572        1.06867655
 C            3.37319658        1.69742314        1.44571426
 C            3.20214324        1.83618595       -0.87324166
 C            3.01176593        2.58493183        0.35340926
 C            2.08040499        1.55131544       -1.65471381
 C            2.84113658       -0.71203414       -2.04009599
 C            1.81278291        0.23086092       -2.04548490
 C            3.05092628       -2.52731997       -0.59278423
 C            2.50587671       -2.10809949       -1.87866835
 C            1.91499180       -2.88726140        0.22751871
 C            2.27692253       -0.91678188        1.60567097
 C            1.51807802       -2.05770828        1.28076347
 C            2.16068858        1.43333409        2.18918897
 C            1.70518497        0.12587802        2.35301632
 C            1.68842124        3.11491426        0.63057576
 C            1.19888702        2.46622699        1.83707815
 C            1.04214872        2.47574761       -1.63936481
 C            0.81534712        3.26368591       -0.43216861
 C           -0.25591809        2.10564394       -2.16843987
 C            0.48848419       -0.18245311       -2.27617454
 C           -0.51066793        0.77502421       -2.48422151
 C            1.10892923       -2.48952219       -1.88246479
 C            0.90887549       -3.32469626       -0.71378344
 C            0.13609467       -1.53965600       -2.17847253
 C           -0.38223406       -3.47566689       -0.24770238
 C            0.21071323       -2.19463444        1.76169777
 C           -0.66154803       -3.07831625        1.12086225
 C            0.43078416       -0.02761660        2.88109226
 C           -0.29764312       -1.25752660        2.65501890
 C           -0.15966890        2.17363094        1.96486361
 C           -0.51019538        1.07607560        2.75106430
 C           -0.60701682        3.22936063       -0.16614679
 C           -1.24467192        2.86554950       -1.41834156
 C           -1.07280445        2.67282867        1.02535133
 C           -2.55778617        2.42306315       -1.39451697
 C           -1.83536959        0.36691243       -2.62526766
 C           -2.90232081        1.24923471       -2.17609659
 C           -1.19318022       -1.88664629       -1.93211136
 C           -1.46501842       -2.93164786       -1.04660811
 C           -2.20145645       -0.98741569       -2.25993918
 C           -2.09795732       -2.86351206        1.20285606
 C           -2.60925559       -2.83279474       -0.15992848
 C           -1.71958897       -0.93169195        2.65205479
 C           -1.84799845        0.51768953        2.67670704
 C           -2.59957851       -1.69197174        1.89319508
 C           -2.41631021        2.30711580        1.10462065
 C           -3.22352008        2.31069879       -0.10703603
 C           -2.80168274        1.14526229        1.88766444
 C           -3.84977692        0.45901762       -1.40769200
 C           -3.40884608       -0.92211286       -1.44431999
 C           -3.48868525       -1.68886973       -0.28814455
 C           -3.55248668       -1.03206190        1.01315963
 C           -4.02700819        1.09946988       -0.11795962
 C           -3.72103304        0.34829279        1.08862340




