%chk=000587.chk
%mem=8GB
%Nproc=48
#p B3LYP/6-31G* opt pop=NPA

Template file

0 1
 C            4.33940916       -0.06269523        0.42007942
 C            3.88836140       -1.31319514       -0.16194283
 C            3.05220187       -1.97648988        0.81746220
 C            3.58281430        0.15459189        1.64288220
 C            2.76688779       -1.01144039        1.87009139
 C            2.92058055        1.43133617        1.53028738
 C            3.98476897        1.00096458       -0.49931058
 C            3.35393941        2.04387787        0.27865450
 C            3.31886385       -1.02722099       -1.46240183
 C            3.22256545        0.41966324       -1.58951028
 C            2.25743864       -1.80555567       -1.88857716
 C            2.00534803       -2.78118357        0.37776596
 C            1.70918858       -2.81877206       -0.99249059
 C            0.99553288       -3.04301761        1.29821527
 C            1.44526327       -0.85760841        2.27732912
 C            0.68259681       -2.01484882        2.28025501
 C            1.58029972        1.54759681        1.90826649
 C            0.80774692        0.38963587        2.12886429
 C            0.94864899        2.74462847        1.59411093
 C            2.45113448        2.86477649       -0.37307165
 C            1.42708210        3.48309313        0.43925666
 C            2.00663020        1.01478504       -1.94061979
 C            1.78290664        2.33769633       -1.56169063
 C            1.13047195       -1.15334940       -2.52462781
 C            0.92500634        0.21186057       -2.32031192
 C            0.34871085       -3.08701380       -1.45007908
 C            0.01122156       -2.07403361       -2.44163178
 C           -0.25144372       -3.63087012        0.85252193
 C           -0.61275715       -3.52096116       -0.54536265
 C           -0.75176208       -1.93095607        2.39665625
 C           -1.31711719       -3.03754571        1.63904391
 C           -0.60435490        0.46909348        2.14294623
 C           -1.37569653       -0.69364575        2.32860540
 C           -0.49449991        2.81687049        1.57986313
 C           -1.24467156        1.70987098        1.96098734
 C            0.29055703        3.72683903       -0.42052713
 C            0.43310209        2.87086419       -1.58353225
 C           -0.89457296        3.56608038        0.39057613
 C           -0.38151702        0.72419574       -2.32208866
 C           -0.63236663        2.04265884       -1.92430469
 C           -1.27580326       -1.56548358       -2.50292871
 C           -1.45495275       -0.12726120       -2.59000781
 C           -1.96696412       -2.99003732       -0.61349030
 C           -2.43149789       -2.76569868        0.75033883
 C           -2.30707184       -2.08923095       -1.61953344
 C           -2.72930154       -0.69337069        2.00144061
 C           -3.21840506       -1.65707721        1.02835258
 C           -2.61432900        1.76089265        1.69866350
 C           -3.40309928        0.55385465        1.74431550
 C           -2.05349356        3.17412421       -0.25614234
 C           -1.91297583        2.40578548       -1.48888814
 C           -3.06268969        2.51389081        0.54263336
 C           -2.76704170        0.17725922       -2.05046520
 C           -3.23853007       -1.00689871       -1.33827183
 C           -3.78755722       -0.89007006       -0.06454651
 C           -4.09721087        0.42472204        0.46810295
 C           -3.00478848        1.44569444       -1.53972253
 C           -3.78280799        1.59832869       -0.32249032




