%chk=000473.chk
%mem=8GB
%Nproc=48
#p B3LYP/6-31G* opt pop=NPA

Template file

0 1
 C            4.35349526        0.80298051        0.59393525
 C            3.64519939        0.65014488        1.85309207
 C            3.40036453       -0.75972249        2.04496230
 C            4.24415611       -0.45599590       -0.12362456
 C            3.78619464       -1.44859462        0.82081793
 C            3.45265741       -0.22046466       -1.31989500
 C            3.65598390        1.81007761       -0.18331618
 C            3.30456366        1.22037375       -1.45971560
 C            2.50791314        1.54961039        1.83700210
 C            2.58505352        2.35538441        0.63385543
 C            1.25417749        1.09904560        2.23614338
 C            2.05409327       -1.18760351        2.37642152
 C            1.04559491       -0.25140802        2.56442959
 C            2.67538683       -2.29365395        0.43941088
 C            1.75361887       -2.34216067        1.56042636
 C            2.36514232       -1.05097836       -1.61233834
 C            2.13941017       -2.20837448       -0.84151898
 C            1.38363499       -0.58331487       -2.50081739
 C            2.17776450        1.70957940       -2.09806297
 C            1.28988008        0.77840529       -2.76900462
 C            1.39297641        2.71550936        0.00892150
 C            1.32772675        2.65048975       -1.38477589
 C            0.15210114        1.88646730        1.90710768
 C            0.20310908        2.66644209        0.74400753
 C           -1.07045509        1.56446877        2.48732597
 C           -0.26397623       -0.72444648        2.62690492
 C           -1.25797920        0.20017798        2.93569128
 C            0.41876952       -2.63530895        1.29440936
 C           -0.58388375       -1.92828288        1.97069372
 C            0.99846837       -2.96877856       -1.06654990
 C            0.12035394       -3.22902512        0.06531586
 C            0.30184805       -1.38646085       -2.83880619
 C            0.16896449       -2.68068785       -2.21324851
 C           -1.02467208       -0.78954934       -2.92081672
 C           -0.02667308        1.39824319       -2.83025654
 C            0.03151023        2.62332281       -2.03854075
 C           -1.16683073        0.59075953       -2.79412941
 C           -0.97788531        3.08715642        0.13069497
 C           -1.08348300        3.01645914       -1.31782486
 C           -2.31267021        2.00907718        1.88015635
 C           -2.26764739        2.71757154        0.68953942
 C           -2.65580586       -0.13953884        2.77400747
 C           -3.29042685        0.94104092        2.03707974
 C           -1.91349481       -2.25980452        1.70360311
 C           -2.99055270       -1.38284567        2.12182914
 C           -1.24965302       -3.24826268       -0.42470291
 C           -1.22027590       -2.85408263       -1.82057920
 C           -1.95420469       -1.66890440       -2.22687050
 C           -2.25927474       -2.74823329        0.38268832
 C           -3.91983529        0.36845540        0.85676763
 C           -3.78577961       -1.07258766        0.94138680
 C           -2.89382616       -1.11948487       -1.35816468
 C           -3.20865585       -1.79724781       -0.17798797
 C           -2.35721666        1.09906505       -2.27573264
 C           -2.35592539        2.40299032       -1.63701877
 C           -3.12527624        2.30545224       -0.40974052
 C           -3.23066839        0.22630682       -1.50309401
 C           -3.74308474        0.99074628       -0.37149400




