%chk=001050.chk
%mem=8GB
%Nproc=16
#p B3LYP/6-31G* opt pop=NPA

Template file

0 1
 C            3.90039171       -1.44262459        0.00000000
 C            3.74607094       -0.71912103       -1.24393472
 C            2.79884781       -1.45175028       -2.06915221
 C            2.94003563       -2.53592719        0.00000000
 C            2.19800506       -2.48165195       -1.24881332
 C            2.19800506       -2.48165195        1.24881332
 C            3.74607094       -0.71912103        1.24393472
 C            2.79884781       -1.45175028        2.06915221
 C            3.31575666        0.66935715        1.21316135
 C            3.31575666        0.66935715       -1.21316135
 C            3.12333047        1.33407078        0.00000000
 C            1.92366073       -0.48629532       -2.70457003
 C            2.34067698        0.84202842       -2.27851306
 C            0.56373326       -0.75980697       -2.79585500
 C            0.81131077       -2.56503060       -1.19982010
 C            0.04586893       -1.89585782       -2.16093009
 C            0.81131077       -2.56503060        1.19982010
 C            0.21236000       -2.94469852       -0.00000000
 C            0.04586893       -1.89585782        2.16093009
 C            1.92366073       -0.48629532        2.70457003
 C            2.34067698        0.84202842        2.27851306
 C            0.56373326       -0.75980697        2.79585500
 C            1.38599370        1.85027427        2.16582106
 C            2.35372509        2.49293660        0.00000000
 C            1.55412246        2.81366221        1.17279924
 C            1.38599370        1.85027427       -2.16582106
 C            1.55412246        2.81366221       -1.17279924
 C           -0.28235658        0.30207929       -3.09951630
 C            0.12764375        1.65096828       -2.74003079
 C           -1.71277844        0.18654725       -2.87123448
 C           -1.32664776       -2.13563918       -2.20387895
 C           -2.23553619       -1.03041505       -2.45685570
 C           -1.13264462       -3.28730756       -0.00000000
 C           -1.92462336       -2.96763547       -1.17275274
 C           -1.32664776       -2.13563918        2.20387895
 C           -1.92462336       -2.96763547        1.17275274
 C           -2.23553619       -1.03041505        2.45685570
 C           -0.28235658        0.30207929        3.09951630
 C            0.12764375        1.65096828        2.74003079
 C           -1.71277844        0.18654725        2.87123448
 C           -1.04476294        2.34953693        2.22774110
 C           -2.16601390        1.42248461        2.25035714
 C            0.42026368        3.60508039        0.72746813
 C            0.42026368        3.60508039       -0.72746813
 C           -0.91026167        3.24640024        1.17641054
 C           -1.04476294        2.34953693       -2.22774110
 C           -2.16601390        1.42248461       -2.25035714
 C           -0.91026167        3.24640024       -1.17641054
 C           -1.75661484        3.11381193       -0.00000000
 C           -3.04928909        1.37719754        1.17664574
 C           -3.04928909        1.37719754       -1.17664574
 C           -2.80340387        2.19736617       -0.00000000
 C           -3.26932419       -1.06146852       -1.43362943
 C           -3.14957601       -2.32344929       -0.72560091
 C           -3.14957601       -2.32344929        0.72560091
 C           -3.26932419       -1.06146852        1.43362943
 C           -3.57937437        0.09869110       -0.72945152
 C           -3.57937437        0.09869110        0.72945152




