%chk=000880.chk
%mem=8GB
%Nproc=16
#p B3LYP/6-31G* opt pop=NPA

Template file

0 1
 C            3.97683195        1.01481388        0.81187081
 C            4.00788147       -0.39624806        1.11973229
 C            4.02300715       -1.10772615       -0.14888913
 C            3.96124229        1.13420539       -0.63871396
 C            3.57645448       -0.16469728       -1.15284002
 C            3.13437768        2.27458583       -0.96126876
 C            2.86858642        1.80784626        1.30449664
 C            2.61754889        2.80551328        0.29182662
 C            1.76865618        1.18381850        1.89228136
 C            2.92165983       -0.95907865        1.89476799
 C            1.79170951       -0.19247157        2.16834590
 C            3.26625058       -2.32200532        0.03746834
 C            2.72653838       -2.30083554        1.39115364
 C            2.14672705       -2.57899673       -0.84158928
 C            2.31402190       -0.32302585       -1.73747598
 C            1.66159108       -1.56920732       -1.67807075
 C            1.99491280        2.07782543       -1.83318604
 C            1.65258908        0.79819615       -2.26362554
 C            1.24366253        3.20040117        0.05931703
 C            0.94329524        2.94825469       -1.34183422
 C            0.54807395        1.87035961        1.94200867
 C            0.27261806        2.87485819        0.99950765
 C           -0.48661457        1.32258476        2.69920489
 C            0.59647342       -0.84678464        2.46696678
 C           -0.43967209       -0.09578758        3.00560804
 C            1.37080305       -2.82067999        1.31495583
 C            1.19923898       -3.32004898       -0.03738552
 C            0.32590496       -2.09804214        1.89057877
 C           -0.08740987       -3.45451777       -0.52148601
 C            0.36764142       -1.71070411       -2.19100356
 C           -0.42430184       -2.77827731       -1.76143059
 C            0.40862577        0.64609428       -2.86009223
 C           -0.21955872       -0.65833870       -2.88559170
 C           -0.37741881        2.67540539       -1.69186118
 C           -0.62626809        1.64082134       -2.60016066
 C           -1.04362669        3.12053155        0.62248073
 C           -1.37272562        3.05941248       -0.79326495
 C           -1.86856356        1.67177710        2.41200113
 C           -2.14410372        2.54060871        1.36797021
 C           -1.79022278       -0.61507743        2.94912925
 C           -2.67666227        0.47381481        2.57424262
 C           -0.98396040       -2.43031961        1.52234097
 C           -1.19437776       -3.20947312        0.38481894
 C           -2.05803466       -1.73605074        2.07325379
 C           -1.87272413       -2.65688742       -1.78686533
 C           -2.35729543       -2.95090435       -0.44590964
 C           -1.66313701       -0.45894654       -2.83487584
 C           -1.91404806        0.95693260       -2.61862094
 C           -2.46737934       -1.40581219       -2.21328945
 C           -2.71337380        2.51955183       -0.91741086
 C           -3.19778822        2.21151472        0.41928341
 C           -2.92596999        1.35637220       -1.75403618
 C           -3.50967277        0.01610719        1.47289050
 C           -3.19529016       -1.38301120        1.23256227
 C           -3.27560482       -1.89691279       -0.05663788
 C           -3.41338219       -0.99072453       -1.18743780
 C           -3.74802939        0.86613516        0.39801294
 C           -3.63970731        0.36325114       -0.96422402




