%chk=000681.chk
%mem=8GB
%Nproc=48
#p B3LYP/6-31G* opt pop=NPA

Template file

0 1
 C            4.26355515        0.66907874       -0.42098307
 C            4.02141183       -0.75455868       -0.27238856
 C            3.16523443       -1.18401063       -1.36832173
 C            3.49217047        1.12817699       -1.56063865
 C            2.95805302       -0.03759705       -2.23906779
 C            2.56057993        2.14447438       -1.10025009
 C            3.73905053        1.32867319        0.76057303
 C            2.69916341        2.25387251        0.33942484
 C            3.57875764       -0.99157592        1.09021911
 C            3.40412689        0.30494763        1.73320629
 C            2.64687311       -1.99745094        1.30811242
 C            2.10139996       -2.04498296       -1.09492316
 C            2.04041227       -2.65353348        0.15981966
 C            0.97001091       -2.03794472       -1.92152869
 C            1.74240204        0.09392025       -2.88854359
 C            0.78703254       -0.99792772       -2.83139295
 C            1.28186205        2.17255396       -1.64584463
 C            0.98697318        1.32498610       -2.71686562
 C            0.23318595        2.70607521       -0.89386700
 C            1.54604703        2.36659685        1.10817051
 C            0.36580441        2.80223055        0.50222639
 C            2.30864245        0.52253766        2.55966813
 C            1.47374491        1.69097180        2.32942968
 C            1.60068379       -1.81744705        2.30402258
 C            1.42055620       -0.57981546        2.89989930
 C            0.79692350       -3.23904315        0.61690387
 C            0.43803224       -2.56434672        1.85654006
 C           -0.13277070       -2.83132930       -1.60217143
 C           -0.19811443       -3.49665786       -0.30970039
 C           -1.46678752       -2.33381814       -1.90866661
 C           -0.54291606       -0.42596038       -2.99704207
 C           -0.39900621        1.02013205       -3.03309894
 C           -1.61503275       -1.01027957       -2.32489916
 C           -1.02071420        2.80225963       -1.49904146
 C           -1.39487419        1.80895408       -2.48801616
 C           -2.20100565        3.08595816       -0.70827576
 C           -0.75596436        2.97811537        1.31329646
 C           -2.06739732        3.16906896        0.72627618
 C            0.17463575        1.40165488        2.91281442
 C            0.07411023       -0.04306751        3.02895238
 C           -0.92471368        2.10897265        2.46218110
 C           -0.84357207       -2.02868583        1.99241766
 C           -1.00395325       -0.70635594        2.43813800
 C           -1.57762048       -3.44753571        0.14109597
 C           -2.37942465       -2.90645887       -0.94170400
 C           -1.88473023       -2.67938713        1.33512930
 C           -3.38607350       -2.05603021       -0.35231815
 C           -3.12170755       -1.97744969        1.07943922
 C           -2.64248880       -0.20268200       -1.80585236
 C           -2.61241641        1.17630409       -2.01647008
 C           -3.18792876        2.05998775       -1.01187094
 C           -3.51745113       -0.69656281       -0.83511462
 C           -2.95810026        2.18299578        1.32019516
 C           -2.17723048        1.40281568        2.26871076
 C           -2.17936105        0.01192710        2.16372409
 C           -3.22237729       -0.58623812        1.46212273
 C           -3.65026436        1.49333151        0.24421245
 C           -3.80743847        0.11716004        0.33193592




