%chk=001183.chk
%mem=8GB
%Nproc=16
#p B3LYP/6-31G* opt pop=NPA

Template file

0 1
 C            3.01762233       -1.53193274        1.87504704
 C            2.29317499       -2.72340322        1.50440901
 C            2.49895218       -2.94867862        0.08010248
 C            3.68792837       -1.02454693        0.68748010
 C            3.27975347       -1.84076489       -0.43939145
 C            3.46914646        0.41151549        0.63696487
 C            2.28334051       -0.43192720        2.46422258
 C            2.76337264        0.79355816        1.84987938
 C            0.92156152       -0.55321357        2.73619016
 C            0.86319085       -2.76939421        1.74146098
 C            0.19418442       -1.64373979        2.23415944
 C            1.19710804       -3.23479373       -0.50141433
 C            0.29750703       -3.47892500        0.61086987
 C            0.74494413       -2.48168424       -1.58502111
 C            2.86657846       -1.21462430       -1.60639856
 C            1.63990268       -1.64917895       -2.26015015
 C            3.11739306        1.01922033       -0.56293625
 C            2.92600584        0.23741442       -1.70753715
 C            2.58994305        2.30551829       -0.50833784
 C            1.91979912        1.90193926        1.83005336
 C            1.94983301        2.75447397        0.72072189
 C            0.25065008        0.60917989        3.08982330
 C            0.80415140        1.88995015        2.66760672
 C           -1.19075836        0.67826995        2.95982898
 C           -1.18917061       -1.54075413        2.01964588
 C           -1.87426498       -0.35853213        2.33632799
 C           -1.06096801       -3.36860966        0.39139346
 C           -1.83433577       -2.56065219        1.31303025
 C           -0.63242303       -2.35979136       -1.80373784
 C           -1.51723188       -3.00195321       -0.93710271
 C           -1.12036946       -1.39000168       -2.68179485
 C            1.14424168       -0.52917408       -3.04188814
 C            1.95462243        0.63631395       -2.71824713
 C           -0.22187121       -0.39051615       -3.23441762
 C            1.82036235        2.81709520       -1.62781999
 C            1.36589802        1.89204913       -2.64734799
 C            0.77408849        3.53712393        0.35064990
 C            0.65635287        3.50418371       -1.09476854
 C           -0.30337986        2.78708226        2.40247268
 C           -1.53619795        2.04857364        2.61359938
 C           -0.38242843        3.43033660        1.10780010
 C           -2.39815900        2.27846919        1.46785764
 C           -1.61007998        2.97770757        0.46512258
 C           -3.08079362       -0.04891771        1.70214554
 C           -3.22932663        1.24760971        1.06411596
 C           -3.09432413       -2.29919327        0.64592708
 C           -2.86997076       -2.48976337       -0.78025311
 C           -3.72055975       -1.01236674        0.83046018
 C           -2.38162283       -0.72119922       -2.39791276
 C           -3.38073350        0.98533093       -0.35442977
 C           -3.24733569       -1.26333842       -1.45916537
 C           -3.85731487       -0.38503867       -0.47661458
 C           -0.85165070        0.91305460       -3.07019544
 C           -0.08062078        2.02004279       -2.74895696
 C           -0.52603037        2.90073541       -1.68315202
 C           -1.57187918        2.50418900       -0.85000816
 C           -2.11312401        0.70821739       -2.37958889
 C           -2.41468415        1.45745446       -1.24078008




