%chk=000291.chk
%mem=8GB
%Nproc=48
#p B3LYP/6-31G* opt pop=NPA

Template file

0 1
 C            4.48652569       -1.09081174       -0.00350758
 C            4.47394620        0.27245523        0.49825785
 C            3.86063126        0.25164740        1.81395094
 C            3.67406902       -1.89628406        0.89164573
 C            3.36921391       -1.09552192        2.05527506
 C            2.56871555       -2.43773563        0.12481407
 C            3.84071123       -1.08972269       -1.30466844
 C            2.70689924       -1.99700159       -1.24942858
 C            3.89956758        1.12249548       -0.53162647
 C            3.60072969        0.28771813       -1.68748885
 C            3.01482981        2.13245384       -0.16579185
 C            2.77391384        1.17379336        2.09688793
 C            2.49017584        2.18957570        1.19558261
 C            1.98381420       -0.98936591        2.46780293
 C            1.67050668        0.41067378        2.66176752
 C            1.28943252       -2.45371756        0.66674290
 C            1.01667035       -1.78515005        1.87136130
 C            0.22951217       -2.69268748       -0.20650928
 C            1.54652340       -1.66928995       -1.94962376
 C            0.32652689       -2.20274211       -1.51655628
 C            2.47801181        0.56006836       -2.45899142
 C            1.54004658       -0.51606053       -2.74042283
 C            1.94447526        2.51831872       -1.07340675
 C            1.69067436        1.75782775       -2.20280139
 C            1.13172610        2.68696369        1.12153784
 C            0.83054351        2.98066207       -0.26891894
 C            0.35638178        0.82890433        2.43557799
 C            0.13414197        2.10163557        1.89723338
 C           -0.31010826       -1.48567997        2.15768396
 C           -0.65965966       -0.13995102        2.36163474
 C           -1.01784950       -2.93524593        0.36124779
 C           -1.25860364       -2.37207746        1.67241823
 C           -2.22685345       -2.75076300       -0.41883408
 C           -0.82900034       -1.88541735       -2.23184643
 C           -2.14123092       -2.12218758       -1.65175283
 C            0.27623009        0.11056841       -3.08688126
 C            0.31218140        1.46906726       -2.56863488
 C           -0.88821050       -0.62216674       -2.94645706
 C           -0.48054589        2.79371277       -0.69679752
 C           -0.74085895        1.92521721       -1.77085796
 C           -1.17014521        2.49030525        1.61923608
 C           -1.45743884        2.97272133        0.27589841
 C           -1.99490214        0.27280203        2.23460285
 C           -2.26327735        1.61811878        1.99289442
 C           -2.65926435       -2.03913281        1.77295204
 C           -3.28659650       -2.38764355        0.50657454
 C           -3.01328794       -0.67160297        2.07695800
 C           -4.19519910       -1.31110743        0.15950205
 C           -4.17445354       -0.35880581        1.25777393
 C           -2.96703057       -0.95431252       -1.94285976
 C           -2.09146693        0.05868251       -2.50803145
 C           -1.99564691        1.30731394       -1.89356336
 C           -3.97671605       -0.56567933       -1.06834276
 C           -2.83024202        2.64124155       -0.02840513
 C           -3.38595626        1.99443457        1.14817572
 C           -4.29563737        0.96663584        0.68803211
 C           -3.08120603        1.77623893       -1.15704478
 C           -4.12593971        0.84561092       -0.75397122




