%chk=000502.chk
%mem=8GB
%Nproc=48
#p B3LYP/6-31G* opt pop=NPA

Template file

0 1
 C           -3.80568380       -2.03204056       -0.08500532
 C           -3.88257341       -1.03451474        0.96791682
 C           -4.11375165        0.24015329        0.33125186
 C           -3.62604456       -1.32720178       -1.34354622
 C           -3.94846721        0.05892453       -1.10573799
 C           -2.30532977       -1.65300551       -1.85496890
 C           -2.61128051       -2.81875535        0.14718226
 C           -1.78056156       -2.73174366       -1.03679619
 C           -2.70968455       -1.18277604        1.81274261
 C           -2.02401538       -2.39664459        1.40436676
 C           -1.94151312       -0.06588378        2.14480673
 C           -3.28356890        1.36060529        0.72159058
 C           -2.35187300        1.21990458        1.74362506
 C           -3.01410444        1.06638282       -1.56109138
 C           -2.86873658        2.03825341       -0.49258950
 C           -1.43443476       -0.63360812       -2.25666749
 C           -1.87681688        0.69969438       -2.27610615
 C           -0.06083136       -0.92031075       -2.31951651
 C           -0.40961892       -2.79057194       -0.85537649
 C            0.39950793       -2.12631445       -1.76801641
 C           -0.63886834       -2.43331464        1.50370017
 C            0.07815335       -2.97998877        0.43742170
 C           -0.62960338       -0.27931315        2.58675685
 C           -0.00323025       -1.50408362        2.32755306
 C            0.12656333        0.79259782        3.05318262
 C           -1.49755032        2.29847618        1.93549022
 C           -0.31864333        2.13592648        2.75711438
 C           -1.71395276        2.81876054       -0.46353375
 C           -1.13811643        3.11040795        0.77975808
 C           -0.96089428        1.71164142       -2.52346834
 C           -0.92685261        2.85144122       -1.61527707
 C            0.84537840        0.06763829       -2.73325753
 C            0.40441323        1.37787526       -2.86896688
 C            2.21644845       -0.13575353       -2.58548495
 C            1.75639495       -2.42957580       -1.75606019
 C            2.70872491       -1.44151113       -2.20607377
 C            1.44143876       -3.20278460        0.59707263
 C            2.30601446       -3.05404645       -0.56350110
 C            1.37070005       -1.62975459        2.53331066
 C            2.11219832       -2.58675530        1.72745360
 C            1.56738910        0.77674705        2.87606830
 C            2.19005914       -0.43340733        2.63493921
 C            0.78197566        2.83355009        2.10936892
 C            0.28058533        3.43541162        0.88872104
 C            1.89865191        1.90856650        2.02876770
 C            0.44400832        3.31855491       -1.54077545
 C            1.25377870        2.45160523       -2.37879357
 C            1.08077842        3.40972995       -0.24370964
 C            2.99958614        0.84761867       -1.85041177
 C            2.51753399        1.68499120        0.79824102
 C            2.45045758        2.10031314       -1.63649442
 C            2.26235065        2.55502709       -0.26686480
 C            3.68028858       -1.24644345       -1.13954166
 C            3.47691567       -2.29184821       -0.15873187
 C            3.30123021       -1.91347927        1.22786661
 C            3.17368398       -0.50658229        1.57020499
 C            3.58371926        0.14407329       -0.72700874
 C            3.16767326        0.46714119        0.56689960




