%chk=000469.chk
%mem=8GB
%Nproc=48
#p B3LYP/6-31G* opt pop=NPA

Template file

0 1
 C            4.37768371        0.96225865       -0.30620022
 C            3.93771184        0.16232668       -1.43549401
 C            3.86582469       -1.20493746       -0.98286535
 C            4.16606223        0.16901318        0.89345680
 C            3.98703095       -1.19810658        0.47186173
 C            3.10819739        0.80281966        1.65720226
 C            3.50326574        2.11588180       -0.22032558
 C            2.94188451        2.14161635        1.11575432
 C            2.73829224        0.77423676       -1.97399765
 C            2.57876537        2.06994410       -1.34050239
 C            1.59728903        0.00641380       -2.19667019
 C            2.67945541       -1.97680558       -1.29620767
 C            1.59644069       -1.37823418       -1.94511198
 C            2.85353389       -1.94047213        0.98499162
 C            2.41088473       -2.76907088       -0.11574846
 C            1.97121890        0.07633511        2.02634971
 C            1.88179258       -1.30420146        1.76284106
 C            0.83833482        0.78438728        2.44088866
 C            1.71321003        2.75963977        1.27080878
 C            0.72042394        2.13542141        2.12587748
 C            1.28757008        2.54777251       -1.13864961
 C            1.00200260        3.17710696        0.07398688
 C            0.38524129        0.67458707       -2.36565159
 C            0.23564032        1.97213643       -1.85650284
 C           -0.72391629       -0.05507195       -2.77452809
 C            0.38157890       -2.07568707       -1.95019965
 C           -0.74898942       -1.47933390       -2.50752210
 C            1.16845507       -3.36028765       -0.01235307
 C            0.23613721       -3.18362311       -1.11086822
 C            0.66253504       -1.96826664        1.94317083
 C            0.39953307       -3.11782159        1.19386021
 C           -0.29707393        0.09659747        2.84595985
 C           -0.37758817       -1.33129499        2.61493058
 C           -1.61236522        0.67221532        2.59292817
 C           -0.57566845        2.66093283        1.72144539
 C           -0.38282954        3.37057271        0.46080955
 C           -1.71906042        1.88366176        1.90622726
 C           -1.03702777        2.53227268       -1.72893365
 C           -1.35850220        3.27025722       -0.51699172
 C           -2.06163691        0.46874534       -2.56540872
 C           -2.21456695        1.77172653       -2.11325563
 C           -2.07988531       -1.81705544       -2.01424934
 C           -2.88224536       -0.60466317       -2.01713150
 C           -1.07331106       -3.52075946       -0.58021550
 C           -0.97209034       -3.47260373        0.87251877
 C           -2.21919049       -2.72704986       -0.97409781
 C           -1.76511388       -1.65771654        2.30569117
 C           -2.53030894       -0.42151984        2.30566333
 C           -2.05042619       -2.64101693        1.36698562
 C           -2.91724394       -2.33098102        0.24010732
 C           -3.75370889       -0.35597443       -0.95968320
 C           -3.54679173       -0.24179702        1.37560871
 C           -3.66298937       -1.15776996        0.25038146
 C           -2.85022213        2.14865586        1.13256480
 C           -2.69480128        2.88736687       -0.10795043
 C           -3.27622390        2.09049775       -1.17385585
 C           -3.81864106        1.09525045        0.88381197
 C           -4.02357712        1.01147226       -0.55551226




