%chk=000215.chk
%mem=8GB
%Nproc=48
#p B3LYP/6-31G* opt pop=NPA

Template file

0 1
 C            4.76382479       -0.63614959       -0.37917734
 C            4.23740425        0.34519999       -1.31452830
 C            3.99256810        1.56296517       -0.58450423
 C            4.59379613       -0.10203004        0.96209525
 C            4.14514435        1.26744589        0.83564049
 C            3.77209778       -1.03150506        1.70733255
 C            3.94919499       -1.83616854       -0.48422210
 C            3.46077757       -2.15498275        0.83258111
 C            3.12781249       -0.26011120       -2.01674449
 C            2.97366105       -1.62292755       -1.53111899
 C            1.97081847        0.47515603       -2.27783188
 C            2.70638157        2.21782723       -0.74341973
 C            1.72581370        1.67600522       -1.58628018
 C            2.91011994        1.67818606        1.48535372
 C            2.31542822        2.64408866        0.58631848
 C            2.51782021       -0.57303480        2.28833709
 C            2.07756911        0.73583253        2.10132707
 C            2.04711299       -2.43724878        0.98339829
 C            1.57195465       -1.64698282        2.10130691
 C            1.67669235       -2.11885017       -1.39564953
 C            1.21358124       -2.54854035       -0.13676131
 C            0.89168152       -0.25555734       -2.75677964
 C            0.75469803       -1.63488166       -2.31489376
 C           -0.42884163        0.33318458       -2.77817115
 C            0.40996903        2.14759414       -1.43942956
 C           -0.64967197        1.53514816       -2.12374258
 C            0.99468735        2.98150523        0.78445050
 C            0.12941049        3.00487254       -0.37388956
 C            0.70540050        1.00841410        2.20025306
 C            0.25137886        2.26080013        1.80217595
 C            0.22207365       -1.36176880        2.12299101
 C           -0.21293610       -0.04705320        2.31180738
 C           -0.16873028       -2.57874229        0.11422904
 C           -0.59497735       -2.20786100        1.39725773
 C           -0.65236947       -1.90389853       -2.12955029
 C           -1.38792751       -0.74952227       -2.61943804
 C           -1.07090114       -2.50917060       -0.95724428
 C           -2.63776858       -0.47610634       -2.07387983
 C           -1.97055925        1.88565325       -1.83156356
 C           -3.00721179        0.86185538       -1.90467925
 C           -1.21167978        3.05706058        0.15932943
 C           -1.15049408        2.44163443        1.48115181
 C           -2.25976401        2.72008268       -0.67434306
 C           -1.59755764        0.19792295        2.24085025
 C           -2.06925943        1.44766560        1.79980849
 C           -1.94362045       -2.16285811        1.69044956
 C           -2.44904003       -0.91625742        2.23638311
 C           -2.43874931       -2.50620705       -0.69670003
 C           -3.26222384       -1.48563684       -1.33404115
 C           -2.87117227       -2.60276348        0.67881840
 C           -3.83216121       -0.79213518        1.81650038
 C           -4.36130315       -1.17539794       -0.43249371
 C           -4.09192386       -1.83245598        0.83360371
 C           -4.04653716        1.23271719       -0.95747690
 C           -3.46752007        2.20963468       -0.05588702
 C           -3.34546214        1.57221102        1.24170651
 C           -4.65957343        0.20829167       -0.13739290
 C           -4.26893643        0.45785062        1.24637710




