%chk=001025.chk
%mem=8GB
%Nproc=16
#p B3LYP/6-31G* opt pop=NPA

Template file

0 1
 C            3.90896719       -1.50074588        0.49683448
 C            4.10331396       -0.06676301        0.54389741
 C            3.94981708        0.43930950       -0.80858141
 C            3.40985561       -1.83540163       -0.83122696
 C            3.30103029       -0.60280493       -1.58631677
 C            2.22452005       -2.65552603       -0.66573008
 C            3.01173039       -2.10108133        1.46179488
 C            2.14584795       -3.01005747        0.73326353
 C            2.15163654       -1.23970859        2.25978478
 C            3.23486116        0.73197831        1.39021693
 C            2.15383930        0.13240885        2.04485953
 C            3.30823303        1.74160673       -0.71618348
 C            3.03508321        1.98961704        0.69409775
 C            2.34742942        2.07340253       -1.66440247
 C            2.10473250       -0.30856380       -2.23290513
 C            1.81007920        1.02459813       -2.51767946
 C            1.04902854       -2.28780979       -1.31270927
 C            1.07931666       -1.25875827       -2.26333738
 C           -0.17851263       -2.72527442       -0.79402846
 C            0.84593849       -2.96013831        1.36446200
 C            0.88398256       -1.92161084        2.38541264
 C           -0.29236302       -3.03392819        0.56998659
 C           -0.27909146       -1.18936139        2.59989236
 C            0.98525011        0.86842041        2.26531123
 C           -0.24881921        0.21120193        2.45656837
 C            1.94763623        2.77004346        1.05309426
 C            1.02613112        2.24466403        2.04355107
 C            1.24398395        2.94564382       -1.29359929
 C            1.13963613        3.39475465        0.01679647
 C            0.45515457        1.40340410       -2.88118427
 C            0.05125798        2.48095379       -1.99326951
 C           -0.06724991       -0.97768210       -3.00057299
 C           -0.45738778        0.40972325       -3.19030985
 C           -1.32928164       -2.57782384       -1.56527346
 C           -1.27563866       -1.73899506       -2.74591992
 C           -2.60514462       -2.33307022       -0.91418177
 C           -1.49594763       -2.78441775        1.22165635
 C           -1.46498593       -1.87123978        2.35123051
 C           -2.70047121       -2.50858693        0.46033796
 C           -2.71718214       -1.16044580        2.38693895
 C           -3.51631853       -1.60290394        1.25246124
 C           -1.45568145        0.94510088        2.43223774
 C           -2.68068219        0.28169798        2.37351554
 C           -0.20352262        2.98404223        1.89490440
 C           -0.17953702        3.61136310        0.58014439
 C           -1.45193821        2.27102654        2.00884388
 C           -1.17128163        2.40853774       -1.32150320
 C           -1.34500988        3.13290673       -0.14337401
 C           -2.26515260        2.64071850        0.86063939
 C           -1.82153087        0.54077513       -2.71438468
 C           -2.38280440       -0.79789200       -2.67595789
 C           -3.21779314       -1.17086110       -1.55123515
 C           -2.10980774        1.43269053       -1.68057674
 C           -4.07803689       -0.42498536        0.62120798
 C           -3.66109865        0.72954570        1.39749603
 C           -3.27626306        1.77909748        0.47103281
 C           -3.76638350       -0.15968640       -0.77080284
 C           -3.21337501        1.18689103       -0.85722500




