%chk=000727.chk
%mem=8GB
%Nproc=16
#p B3LYP/6-31G* opt pop=NPA

Template file

0 1
 C            3.68239358        2.07780048       -0.07593936
 C            2.98418515        2.16332282       -1.34294142
 C            2.80911277        0.81514264       -1.86105028
 C            3.96450587        0.67793530        0.17552164
 C            3.44791706       -0.10427160       -0.93769575
 C            3.48267687        0.36604482        1.50759101
 C            2.76624511        2.53086159        0.95668757
 C            2.56984854        1.43465730        1.88706878
 C            1.80160476        2.97766366       -1.13759548
 C            1.59821702        3.09326214        0.30004837
 C            0.70043438        2.72245078       -1.93922029
 C            1.58187626        0.47435580       -2.41685520
 C            0.68411475        1.49825930       -2.72468785
 C            1.11602427       -0.83788479       -2.30427109
 C            2.83527894       -1.32113384       -0.65245255
 C            1.73358842       -1.73214550       -1.41703357
 C            3.10480468       -0.94277215        1.75474157
 C            3.02927176       -1.85230809        0.62565764
 C            1.90605843       -1.18754893        2.53420331
 C            1.26761695        1.12213284        2.26930010
 C            0.93809771       -0.19153556        2.61642869
 C            0.33651053        2.81881944        0.82576786
 C            0.24248856        2.02279032        1.97637549
 C           -0.62907889        2.87736366       -1.37612680
 C           -0.78344994        2.98297806        0.00188968
 C           -0.70529222        1.18135299       -3.00014868
 C           -1.52607208        2.00412479       -2.11722042
 C           -0.09349633       -1.18243712       -2.91469973
 C           -1.05604889       -0.13800058       -3.23013333
 C           -0.83637567       -2.34526778       -2.45519509
 C            1.12840638       -2.96307056       -1.15239195
 C           -0.26930397       -3.15321142       -1.48412955
 C            2.24473159       -2.98608522        1.06997961
 C            1.48632044       -2.54613541        2.23369406
 C            1.31887335       -3.59053219        0.14061078
 C           -0.97660775       -3.32954788       -0.22220721
 C            0.08220509       -2.79759452        1.96405982
 C            0.01677800       -3.63889072        0.78735298
 C           -0.40718106       -0.55660401        2.68378061
 C           -0.82366034       -1.74902720        2.08102765
 C           -1.00398792        1.80055278        2.54969773
 C           -1.34376356        0.43969480        2.92973882
 C           -2.05350931        2.78308207        0.53044241
 C           -2.16697396        2.38660682        1.91811985
 C           -2.63070503        1.45773227       -1.46091608
 C           -3.01736816        2.00334744       -0.23654006
 C           -2.36436972       -0.59178588       -2.80459046
 C           -2.22210099       -1.94283699       -2.28911740
 C           -3.09211937        0.18728996       -1.81661481
 C           -2.01817876       -2.45919537        0.09291246
 C           -1.99410092       -1.76826919        1.31145178
 C           -2.79457490       -1.96907032       -0.95460040
 C           -3.54218450       -0.73694211       -0.78228030
 C           -2.72450946        0.20200309        2.55604995
 C           -3.26510895        1.44399837        2.03379050
 C           -3.76192461        1.17672717        0.69709289
 C           -3.00187577       -0.84923244        1.59563747
 C           -3.75626420       -0.25901614        0.49993403




