%chk=000541.chk
%mem=8GB
%Nproc=48
#p B3LYP/6-31G* opt pop=NPA

Template file

0 1
 C            3.83817702       -1.88936842       -0.23312616
 C            4.14998543       -0.49293888       -0.00500677
 C            3.63592412       -0.12902944        1.30536295
 C            3.01115416       -2.33971352        0.87331503
 C            2.76556695       -1.20923087        1.74183026
 C            1.86312744       -3.01037562        0.30666223
 C            3.03105985       -1.96587844       -1.43935064
 C            1.86650547       -2.75495181       -1.12751263
 C            3.69189037        0.25762332       -1.16180622
 C            2.82259645       -0.62253923       -1.92893672
 C            3.30344743        1.57504849       -0.96950313
 C            3.22728155        1.18066672        1.50484342
 C            3.30317584        2.10680883        0.38526001
 C            1.96633104        1.43086377        2.18291708
 C            1.44812602       -0.93186570        2.10063327
 C            1.07302607        0.38231844        2.40504853
 C            0.63910610       -2.92128807        0.96330753
 C            0.46584834       -1.91740946        1.92901420
 C           -0.46724176       -3.34403551        0.23171758
 C            0.65085643       -2.43065868       -1.71487419
 C           -0.44097860       -3.11741974       -1.20242282
 C            1.52650166       -0.20525880       -2.23266382
 C            0.45861519       -1.12697607       -2.21697048
 C            2.09822326        2.05582053       -1.62311320
 C            1.27084980        1.16686216       -2.30638072
 C            2.19587727        3.03950048        0.50282530
 C            1.45742521        2.70522050        1.70237557
 C            1.48593314        3.05671025       -0.76237650
 C            0.08802211        2.91100962        1.70263292
 C           -0.26430475        0.67751630        2.67638142
 C           -0.76253596        1.94686332        2.37606073
 C           -0.79696322       -1.70371329        2.47747435
 C           -1.15587624       -0.36415818        2.90779680
 C           -1.80809656       -3.06047500        0.70571675
 C           -1.96899477       -2.29979892        1.85341215
 C           -1.76920255       -2.75625095       -1.62724412
 C           -2.63661572       -2.78627025       -0.45935779
 C           -0.83274496       -0.69436519       -2.57050862
 C           -1.94806615       -1.48341684       -2.28265768
 C            0.00219512        1.60873823       -2.65004137
 C           -1.04356705        0.64052582       -2.89989507
 C            0.09770895        3.16692919       -0.76322750
 C           -0.58041200        3.27589254        0.45786790
 C           -0.57934881        2.70460532       -1.88893880
 C           -2.09621164        2.08681938        1.81166413
 C           -1.97127907        2.84857035        0.57714461
 C           -2.56835850       -0.16460872        2.62583128
 C           -3.05506154       -1.33556421        1.91905672
 C           -2.97464981        1.01377379        1.88101857
 C           -3.46156460       -1.58882325       -0.48976299
 C           -3.13713303       -0.86739330       -1.71081849
 C           -3.68896326       -0.88703044        0.68901987
 C           -3.66903839        0.56808352        0.68117170
 C           -2.30889593        1.26638912       -2.54558687
 C           -2.01487339        2.50361072       -1.84221556
 C           -2.67589890        2.45616905       -0.55392235
 C           -3.26246601        0.51419129       -1.75124531
 C           -3.49519463        1.25367571       -0.51789634




