%chk=001026.chk
%mem=8GB
%Nproc=16
#p B3LYP/6-31G* opt pop=NPA

Template file

0 1
 C           -4.25097317       -0.18472429       -0.46432928
 C           -3.73340357        0.85901916       -1.32457833
 C           -3.40586851        1.99902250       -0.48451020
 C           -4.00828507        0.21663278        0.91297904
 C           -3.47317434        1.56926180        0.89832682
 C           -3.23777747       -0.83903458        1.55265815
 C           -3.73459454       -1.52724127       -0.62646047
 C           -3.26427800       -1.98627938        0.67241044
 C           -2.64982596       -1.75679215       -1.56339306
 C           -2.57327494        0.58232280       -2.16043123
 C           -1.97903106       -0.67297049       -2.13937241
 C           -2.16562431        2.56288440       -0.98225662
 C           -1.72577112        1.75189282       -2.10977632
 C           -1.20432281        3.02909167       -0.08715975
 C           -2.41734483        1.87839482        1.74579953
 C           -1.32505663        2.72142068        1.27175943
 C           -2.04885249       -0.51063229        2.19337609
 C           -1.82319591        0.81946225        2.54386116
 C           -0.97927767       -1.41281026        2.19212854
 C           -2.03027697       -2.71734034        0.44770697
 C           -1.87019814       -2.83559871       -0.99132652
 C           -0.90708342       -2.42451822        1.21999424
 C           -0.59866957       -3.04754493       -1.48785711
 C           -0.61922218       -0.79415175       -2.44033230
 C           -0.06485552       -2.07330840       -2.42127361
 C           -0.35862431        1.62620052       -2.32520222
 C            0.21337284        0.34429732       -2.42780635
 C            0.06111070        3.29547138       -0.60172245
 C            0.41907182        2.68257979       -1.86943471
 C            1.22348718        3.16189622        0.25773659
 C           -0.13614897        2.36395253        2.04038685
 C           -0.48593191        1.25123438        2.90857962
 C            1.11210392        2.40675118        1.42291488
 C            0.14604532       -1.10383973        2.95236758
 C            0.46910401        0.29257206        3.19354805
 C            1.39075770       -1.79972574        2.69696506
 C            0.33831603       -2.88491172        0.77258177
 C            0.46971498       -3.31909037       -0.54564829
 C            1.48760895       -2.62857809        1.51549007
 C            1.37071658       -2.23684000       -2.41110589
 C            1.70824757       -3.05899785       -1.25622850
 C            1.61739741        0.20278044       -2.47084874
 C            2.19836729       -1.05787882       -2.36487966
 C            1.85691415        2.58143571       -1.91579067
 C            2.36690242        2.99960145       -0.61739918
 C            2.44224086        1.29884357       -2.22265342
 C            3.40785859        2.07475333       -0.23570841
 C            3.57549802        1.13019322       -1.32821514
 C            2.09697210        1.46395788        1.76538709
 C            1.83049060        0.50508980        2.74217632
 C            2.45087360       -0.80496778        2.63442719
 C            3.23943078        1.30258289        0.97704134
 C            2.72671021       -2.28179408        0.83084379
 C            2.80216366       -2.41384254       -0.55148874
 C            3.22722917       -1.28270209       -1.35990887
 C            3.81303760       -0.18148818       -0.74870675
 C            3.27645788       -1.09769640        1.47536846
 C            3.73274146       -0.03829891        0.69899016




