%chk=000157.chk
%mem=8GB
%Nproc=48
#p B3LYP/6-31G* opt pop=NPA

Template file

0 1
 C            4.56026951       -0.03111653        1.03679070
 C            4.26683220       -1.44859569        0.95568648
 C            3.87152952       -1.74619811       -0.41138680
 C            4.35297436        0.54240310       -0.28276395
 C            3.94948900       -0.51978046       -1.18247458
 C            3.47817130        1.68849681       -0.12698539
 C            3.58647891        0.57240196        1.93229101
 C            3.04380382        1.72835048        1.26388757
 C            3.11702498       -1.70761625        1.80321837
 C            2.65625458       -0.44870231        2.35649938
 C            2.60467806       -2.45749746       -0.35924351
 C            2.17388513       -2.48136459        1.02677316
 C            1.63786715       -2.21083648       -1.33614309
 C            2.94838761       -0.25959671       -2.10671983
 C            1.89729109       -1.24530054       -2.31468242
 C            2.53821162        1.98080441       -1.11775441
 C            2.31787727        1.05715485       -2.14571405
 C            1.51461838        2.86457306       -0.77861062
 C            1.72627548        2.08638354        1.50614810
 C            1.21182700        3.02857048        0.63192486
 C            1.29085245       -0.17129690        2.29971270
 C            0.84879912        1.13690608        2.06830515
 C            0.82423420       -2.29477599        1.26109607
 C            0.40948784       -1.22436836        2.06193052
 C            0.30764518       -2.54828235       -1.05200335
 C           -0.05063508       -2.74793728        0.28671851
 C           -0.67579986       -2.23328089       -1.99083819
 C            0.79107810       -0.54444862       -2.94518190
 C            0.97240836        0.87432629       -2.68235040
 C           -0.47797736       -1.08332836       -2.85269257
 C            0.23690547        2.78647624       -1.46699534
 C           -0.08033893        1.63036063       -2.16848815
 C           -0.17118753        3.40785185        0.74919730
 C           -0.74565150        3.38050590       -0.58843055
 C           -0.53475997        1.38122671        2.06952400
 C           -1.02145160        2.59888435        1.58964063
 C           -0.96088885       -1.00481089        2.19782065
 C           -1.43427668        0.31655533        2.23321945
 C           -1.38520173       -2.83942849        0.65223847
 C           -1.80355746       -2.03906162        1.78416396
 C           -2.07842885       -2.24633087       -1.60903691
 C           -2.42184415       -2.72698242       -0.35388612
 C           -1.59761336       -0.19104422       -2.62318425
 C           -1.36727787        1.07225104       -2.07785888
 C           -2.67633508       -1.00993116       -2.10697079
 C           -2.04268653        2.75443692       -0.47365435
 C           -2.31901940        2.63136272        0.94992650
 C           -2.37162442        1.69090024       -1.31179414
 C           -2.80936273        0.57831580        2.14409264
 C           -3.26354971        1.70478295        1.34455869
 C           -3.22883780       -1.82804036        1.66176783
 C           -3.61063489       -2.21733194        0.30963366
 C           -3.74906138       -0.50582969        1.91189629
 C           -3.69758839       -0.39648066       -1.39755182
 C           -3.55164669        1.00039547       -1.02055319
 C           -4.11766811        1.15597070        0.31023624
 C           -4.31585693       -1.10097551       -0.28613101
 C           -4.57439483       -0.14007616        0.77118169




