%chk=000531.chk
%mem=8GB
%Nproc=48
#p B3LYP/6-31G* opt pop=NPA

Template file

0 1
 C            4.28830404       -0.26687455        0.93856537
 C            4.17808223        0.67788257       -0.15637626
 C            3.68225796       -0.03477424       -1.32460629
 C            3.80990100       -1.55006522        0.46175191
 C            3.35286947       -1.38723387       -0.90941707
 C            2.86043095       -2.05144183        1.43732107
 C            3.38328075        0.16884403        1.98830403
 C            2.45396880       -0.91559716        2.25171356
 C            3.43560945        1.82926243        0.32661581
 C            2.84265826        1.46165306        1.60498686
 C            2.67076603        2.54603703       -0.58331399
 C            2.83338477        0.63026757       -2.19472348
 C            2.52673937        2.02816951       -1.93579424
 C            1.60335961       -0.01820312       -2.61941875
 C            2.12917769       -1.95782473       -1.26268317
 C            1.22089114       -1.23567166       -2.05640028
 C            1.87449230       -2.90813963        0.97984371
 C            1.66436138       -2.99595297       -0.45666725
 C            0.55068058       -2.80857297        1.56050641
 C            1.09892332       -0.61063401        2.36995091
 C            0.13727258       -1.58730959        2.08484640
 C            1.48931598        1.70999196        1.82016031
 C            0.71378505        0.72666394        2.45031734
 C            1.37317252        3.05369721       -0.17030217
 C            0.86424489        2.72193500        1.08288474
 C            1.16265089        2.27251926       -2.36837616
 C            0.59641627        1.01408415       -2.80349091
 C            0.47908831        2.99597497       -1.31668846
 C           -0.71378505        0.72666394       -2.45031734
 C           -0.13727258       -1.58730959       -2.08484640
 C           -1.09892332       -0.61063401       -2.36995091
 C            0.32668133       -3.50868715       -0.65168236
 C           -0.32668133       -3.50868715        0.65168236
 C           -0.55068058       -2.80857297       -1.56050641
 C           -1.66436138       -2.99595297        0.45666725
 C           -1.87449230       -2.90813963       -0.97984371
 C           -1.22089114       -1.23567166        2.05640028
 C           -2.12917769       -1.95782473        1.26268317
 C           -0.59641627        1.01408415        2.80349091
 C           -1.60335961       -0.01820312        2.61941875
 C           -0.47908831        2.99597497        1.31668846
 C           -1.16265089        2.27251926        2.36837616
 C           -0.86424489        2.72193500       -1.08288474
 C           -1.48931598        1.70999196       -1.82016031
 C           -1.37317252        3.05369721        0.17030217
 C           -2.84265826        1.46165306       -1.60498686
 C           -2.45396880       -0.91559716       -2.25171356
 C           -2.86043095       -2.05144183       -1.43732107
 C           -3.38328075        0.16884403       -1.98830403
 C           -3.35286947       -1.38723387        0.90941707
 C           -3.80990100       -1.55006522       -0.46175191
 C           -4.28830404       -0.26687455       -0.93856537
 C           -2.83338477        0.63026757        2.19472348
 C           -2.52673937        2.02816951        1.93579424
 C           -2.67076603        2.54603703        0.58331399
 C           -3.43560945        1.82926243       -0.32661581
 C           -3.68225796       -0.03477424        1.32460629
 C           -4.17808223        0.67788257        0.15637626




