%chk=000574.chk
%mem=8GB
%Nproc=48
#p B3LYP/6-31G* opt pop=NPA

Template file

0 1
 C            4.37528214       -0.39104228       -0.36975660
 C            3.66405634       -0.91561130       -1.52151597
 C            2.83773940       -2.02308371       -1.07750363
 C            3.89550961       -1.09440994        0.80661862
 C            2.96571844       -2.12087876        0.37007462
 C            3.43790968       -0.10717320        1.76387400
 C            4.00799409        1.00569227       -0.22559356
 C            3.52719802        1.20264646        1.13007601
 C            3.02136623        0.19354153       -2.19588682
 C            3.13216582        1.35902727       -1.33236354
 C            1.81869466       -0.04549374       -2.83844716
 C            1.58109897       -2.20511446       -1.65154118
 C            1.14942664       -1.32752788       -2.64848734
 C            0.64020498       -2.94368145       -0.94141201
 C            1.82447510       -2.37844404        1.12694719
 C            0.76395545       -3.02973757        0.50627010
 C            2.33599195       -0.41699313        2.55074268
 C            1.58492208       -1.63911366        2.28661053
 C            1.38133346        0.62262502        2.90381555
 C            2.51796870        2.13434873        1.33490287
 C            1.47652017        1.87379753        2.31748468
 C            2.00192711        2.13609542       -1.07467582
 C            1.87589886        2.73867051        0.17805642
 C            0.79484751        0.98259758       -2.81913519
 C            0.88421128        2.03522567       -1.91228172
 C           -0.27426917       -1.10645023       -2.85926574
 C           -0.48562462        0.32495925       -3.02138105
 C           -0.77450677       -2.83136531       -1.26180284
 C           -1.21093203       -1.85169039       -2.15305677
 C           -0.57432114       -2.95650995        1.07320025
 C           -1.51421146       -3.08581520       -0.03289421
 C            0.21942905       -1.41500912        2.73703159
 C            0.07695836        0.00044225        3.04158850
 C           -0.83886104       -2.07486956        2.12159072
 C           -1.07550558        0.66509257        2.62454245
 C            0.26667179        2.53881041        1.86354289
 C            0.58304486        3.22412062        0.61705355
 C           -0.97846617        1.92323562        2.01199484
 C           -0.27301252        2.75656266       -1.62087572
 C           -0.41769091        3.39797969       -0.32300522
 C           -1.64074274        0.90706135       -2.50655016
 C           -1.56904621        2.20232714       -1.99207632
 C           -2.50498536       -1.35070684       -2.04548223
 C           -2.72038671        0.08283699       -2.17816871
 C           -2.80423551       -2.59487869        0.10272878
 C           -3.38024549       -1.84091497       -0.99487177
 C           -2.11249604       -1.52628870        2.25278791
 C           -2.23716516       -0.09433697        2.48308957
 C           -3.16654477       -1.92685327        1.33798706
 C           -3.67155496        0.48714382       -1.15023836
 C           -4.09581903       -0.70452013       -0.43782677
 C           -3.34372867        0.39428425        1.67850649
 C           -3.94419728       -0.74474016        1.00360392
 C           -2.05770735        2.43627577        1.29146853
 C           -1.79374979        3.22897504        0.10381018
 C           -2.53243003        2.63473444       -0.99575898
 C           -3.20437214        1.59648368        1.00051513
 C           -3.44571210        1.65766108       -0.43866024




