%chk=000060.chk
%mem=8GB
%Nproc=16
#p B3LYP/6-31G* opt pop=NPA

Template file

0 1
 C            4.81947263       -0.86304926       -0.09218108
 C            4.32015924       -1.36145654        1.17588775
 C            3.26955315       -2.31747940        0.88654045
 C            4.03439329       -1.47482530       -1.15404439
 C            3.00067776       -2.28294250       -0.53647819
 C            3.63378105       -0.41981438       -2.05530016
 C            4.55845096        0.56388637       -0.13749156
 C            4.01022076        0.84881269       -1.44551331
 C            3.69903181       -0.25339390        1.88327474
 C            3.76781592        0.91766297        1.03203997
 C            2.16595253       -2.02004395        1.77397239
 C            2.38951493       -0.69742687        2.33098529
 C            0.88418044       -2.28868898        1.32970846
 C            1.66950167       -2.14626149       -0.93381211
 C            0.68176351       -2.54374603       -0.03130803
 C            2.23447124       -0.32027107       -2.42674954
 C            1.30925441       -1.23168599       -1.93126696
 C            2.85324435        1.71497311       -1.51972670
 C            1.88495564        1.08376418       -2.39714016
 C            2.61002625        1.67657848        0.86844194
 C            2.37090599        2.31019846       -0.36135094
 C            1.32396326        0.20530310        2.29885808
 C            1.54579874        1.47614032        1.76104097
 C           -0.14851077       -1.66644895        2.01143676
 C            0.01751551       -0.31116825        2.31491590
 C           -1.41531016       -2.16725109        1.77387791
 C           -0.63982187       -2.60544159       -0.47723491
 C           -1.60403159       -2.83469831        0.50322075
 C           -0.03906802       -0.91141011       -2.05618579
 C           -0.97757802       -1.82871650       -1.59345126
 C            0.54706475        1.43535257       -2.23433855
 C           -0.42237229        0.42928267       -2.21720870
 C            1.20087135        3.04077100       -0.50755680
 C            0.27774910        2.61839642       -1.55362701
 C            0.50906584        2.39710149        1.77975785
 C            0.41575898        3.32459691        0.67314439
 C           -1.07399395        0.56625735        2.21659117
 C           -0.83729325        1.93490339        2.07793009
 C           -2.56238107       -1.31135056        1.96543006
 C           -2.36520114        0.06703850        1.99432498
 C           -3.00952718       -2.75108172        0.16932294
 C           -3.63300119       -1.89006887        1.16419862
 C           -2.31449107       -1.60007656       -1.91298618
 C           -3.35851057       -2.23973909       -1.13385031
 C           -1.76597809        0.77755931       -2.03855991
 C           -2.72359481       -0.23026143       -2.17028872
 C           -1.07144403        2.88006999       -1.08949310
 C           -0.97296025        3.39447575        0.26730823
 C           -1.76073595        2.74606649        1.29731014
 C           -2.08693494        1.96927369       -1.36558531
 C           -3.35807883        0.92501567        1.51167742
 C           -2.96102515        2.17840119        0.90816699
 C           -3.19363372        2.00540616       -0.51613271
 C           -4.55559795       -1.01573024        0.47173101
 C           -4.43856812       -1.28615273       -0.95381901
 C           -4.04919305       -0.04792366       -1.60559719
 C           -4.42269979        0.41265682        0.66009921
 C           -4.24357822        1.01866026       -0.65291589




