%chk=000009.chk
%mem=8GB
%Nproc=16
#p B3LYP/6-31G* opt pop=NPA

Template file

0 1
 C            4.83000417       -0.78583857       -0.64912372
 C            4.87811698        0.63341208       -0.94078326
 C            4.68862629        1.34164623        0.31264299
 C            4.45838471       -0.94386149        0.74982227
 C            4.32857450        0.36810781        1.33325431
 C            3.30628470       -1.81486700        0.79343800
 C            3.76206044       -1.36259663       -1.44794283
 C            2.98239162       -2.20268336       -0.57138835
 C            3.74786692        0.94566587       -1.80260117
 C            3.06351087       -0.29322988       -2.12551860
 C            3.55166986        2.22436652        0.14462608
 C            2.98039848        2.00119959       -1.16965997
 C            3.03737059        0.75387774        1.88356229
 C            2.67855832        2.02631050        1.28242610
 C            2.24106255       -1.52940244        1.65048250
 C            2.02334763       -0.20119455        2.06376907
 C            1.14453139       -2.36898946        1.51543806
 C            1.63677121       -2.38809218       -0.85543670
 C            0.88837047       -2.90466247        0.18797681
 C            1.67190534       -0.30432281       -2.08675257
 C            1.00400093       -1.48251837       -1.72253242
 C            1.59302400        1.94856123       -1.24975723
 C            0.99587126        0.91176808       -1.96487718
 C            1.32929222        2.26323933        1.10043637
 C            0.86515596        2.49385803       -0.19685387
 C            0.70626437        0.27391951        2.24003577
 C            0.46121176        1.62547141        1.97035988
 C           -0.13493847       -1.97257152        2.05868261
 C           -0.37002806       -0.62704313        2.30324899
 C           -0.53898415       -3.01221227        0.02962521
 C           -1.12663459       -2.74003248        1.32962163
 C           -0.39442447       -1.49546091       -1.81830569
 C           -1.12535250       -2.44981640       -1.09512767
 C           -0.39278497        0.89687587       -2.03213696
 C           -1.03066482       -0.32442255       -2.23988572
 C           -0.51180773        2.62574382       -0.36296768
 C           -1.10258654        1.94012117       -1.43041012
 C           -0.83639951        2.10636169        1.98138590
 C           -1.25656923        2.82554357        0.79725192
 C           -1.69022286       -0.15492810        2.27735380
 C           -1.91973027        1.21392782        2.32310629
 C           -2.44523249       -2.32433428        1.36557940
 C           -2.73849733       -1.01454483        1.92475617
 C           -2.51670425       -2.41575512       -1.12669095
 C           -3.22395644       -2.45598030        0.14440747
 C           -2.40014376       -0.33471381       -2.47918054
 C           -3.18143112       -1.44131995       -1.96888940
 C           -2.48395852        2.00623113       -1.61529610
 C           -3.15715277        0.88241873       -2.24405731
 C           -2.70178396        2.76840010        0.74516396
 C           -3.12238481        1.76675215        1.71508852
 C           -3.32764901        2.45597278       -0.52102816
 C           -3.91180906       -0.49557808        1.22907116
 C           -4.22260323       -1.40435135        0.13553273
 C           -4.30317783       -0.89309586       -1.22103530
 C           -4.31519463        0.54130749       -1.42968974
 C           -4.05615697        0.87610256        1.05365149
 C           -4.31566320        1.42125733       -0.27386854




