%chk=001058.chk
%mem=8GB
%Nproc=16
#p B3LYP/6-31G* opt pop=NPA

Template file

0 1
 C            4.14517678       -0.16889086       -0.33082555
 C            3.67306487       -0.94572661       -1.46173130
 C            3.14115593       -2.19556795       -0.94777034
 C            3.82916472       -0.90891965        0.88188439
 C            3.07846378       -2.09280563        0.49950311
 C            3.24478945        0.01666557        1.83389542
 C            3.66300134        1.18978741       -0.16060743
 C            3.23377117        1.33686216        1.22151668
 C            2.92599596        1.78959989       -1.17768196
 C            2.67411567       -0.37104950       -2.34629486
 C            2.38851035        0.98389706       -2.26994243
 C            1.91965534       -2.49142030       -1.67011867
 C            1.57734495       -1.31844788       -2.46003683
 C            0.90295168       -3.14142577       -0.99086108
 C            1.87613256       -2.38572279        1.14373221
 C            0.91207902       -3.13250059        0.46788118
 C            2.15702126       -0.40019018        2.59001915
 C            1.51112188       -1.66982509        2.28309584
 C            1.11952615        0.55273086        2.95356093
 C            2.22022838        2.23650086        1.53581641
 C            1.15825561        1.84373357        2.45111550
 C            1.93246450        2.79888915       -0.84574020
 C            1.62508812        3.05173074        0.48742620
 C            1.03012113        1.42978001       -2.51531979
 C            0.86098523        2.69498305       -1.82479604
 C            0.25516196       -0.86545488       -2.46594995
 C           -0.01820204        0.50933718       -2.51879932
 C           -0.46524477       -2.90351516       -1.40431555
 C           -0.76533120       -1.76709891       -2.15364717
 C           -0.47556614       -3.11299363        0.91618323
 C           -1.30644487       -3.25094775       -0.27361751
 C            0.10764774       -1.54825177        2.64801393
 C           -0.14609105       -0.15744078        2.99155372
 C           -0.86380531       -2.25335523        1.94480137
 C           -1.31367506        0.44874706        2.53079190
 C           -0.07398770        2.46744250        2.00243720
 C            0.24830316        3.32164179        0.86728104
 C           -1.27200745        1.74936968        2.00848676
 C           -0.42241751        3.09637798       -1.48516292
 C           -0.70775633        3.51951274       -0.12025234
 C           -1.32735390        0.97420458       -2.35180463
 C           -1.54413658        2.28821157       -1.93125176
 C           -2.08948301       -1.35452417       -2.23448050
 C           -2.38157706        0.06429206       -2.29724777
 C           -2.61514255       -2.79263910       -0.25285813
 C           -3.07604281       -1.97641612       -1.36380505
 C           -2.17529883       -1.78470895        1.99006992
 C           -2.40877695       -0.37519928        2.27081857
 C           -3.12169756       -2.20032961        0.97017340
 C           -3.51765079        0.32847759       -1.42141857
 C           -3.93140898       -0.93021588       -0.83108451
 C           -3.48632577        0.08269736        1.40962490
 C           -3.93458873       -1.04871893        0.61405286
 C           -2.34558884        2.23881036        1.26427060
 C           -2.08372186        3.15660115        0.17010616
 C           -2.64742273        2.56800837       -1.03233532
 C           -3.39130253        1.33591562        0.82097024
 C           -3.50324980        1.46949502       -0.62932533




