%chk=000426.chk
%mem=8GB
%Nproc=48
#p B3LYP/6-31G* opt pop=NPA

Template file

0 1
 C            4.31872189        0.61042046        0.59403542
 C            4.01925234       -0.79516206        0.77868102
 C            3.87320488       -1.37754303       -0.53647714
 C            4.03124951        0.93914851       -0.79441433
 C            3.73112122       -0.29068783       -1.49248240
 C            3.02838152        1.97955868       -0.79190027
 C            3.39978672        1.36968968        1.42410803
 C            2.80093202        2.38281848        0.58677498
 C            2.89952547       -0.90254089        1.70130789
 C            2.50642554        0.44448261        2.08559586
 C            1.89801691       -1.83611518        1.44802579
 C            2.75936098       -2.27120593       -0.74414960
 C            2.03149629       -2.70840128        0.35390383
 C            2.42847979       -0.43325885       -2.12911668
 C            1.99873220       -1.79202654       -1.88530824
 C            1.91293662        1.87000436       -1.62144330
 C            1.49479852        0.59378944       -2.03083893
 C            0.95615571        2.86182179       -1.46104744
 C            1.52179999        2.82604843        0.89351715
 C            0.86497252        3.47197825       -0.14653669
 C            1.15222149        0.76806510        2.12492657
 C            0.75295092        2.06939053        1.79558426
 C            0.62465510       -1.58485090        1.96940975
 C            0.20456573       -0.26180063        2.14258596
 C           -0.31568903       -2.60639823        1.94597932
 C            0.95849330       -3.52994774        0.04588137
 C           -0.07345942       -3.70957570        1.04133957
 C            0.64358355       -2.10343891       -1.90686334
 C            0.28653568       -3.26190564       -1.21757201
 C            0.12709666        0.27896809       -2.06903203
 C           -0.29982208       -1.06597650       -2.02401286
 C           -0.39859490        2.62135923       -1.90414470
 C           -0.80863085        1.31659829       -2.15213594
 C           -0.49307774        3.92435248        0.04493262
 C           -1.25587932        3.49189410       -1.11534812
 C           -0.57233662        2.43030147        2.03400030
 C           -1.18781282        3.47399700        1.22889488
 C           -1.16217178        0.04689267        2.17543022
 C           -1.56119664        1.38166065        2.22708739
 C           -1.72756869       -2.27328679        1.87256393
 C           -2.11210362       -0.93661985        1.88367483
 C           -1.30309558       -3.99661688        0.32960082
 C           -1.10868604       -3.58934556       -1.05346389
 C           -2.33688861       -3.14802142        0.88542227
 C           -1.67215494       -1.36644221       -1.93177703
 C           -2.08599087       -2.56811521       -1.34958131
 C           -3.01887641       -2.52691749       -0.22946927
 C           -2.16876113        1.03307115       -2.10255204
 C           -2.60980457       -0.34192382       -2.00021032
 C           -2.52370694        2.97327603       -0.64342791
 C           -2.49737675        3.00748072        0.81355122
 C           -2.78615868        1.78894973        1.55256546
 C           -3.04656433        1.85023380       -1.26813169
 C           -3.28209319       -0.58170351        1.20498465
 C           -3.67000920       -1.33156434        0.01588605
 C           -3.72504691       -0.37456388       -1.06868361
 C           -3.57014519        0.81802803        0.94599681
 C           -3.85175022        0.94167704       -0.47612712




