%chk=001047.chk
%mem=8GB
%Nproc=16
#p B3LYP/6-31G* opt pop=NPA

Template file

0 1
 C            3.58920569        2.10003099        0.21219982
 C            3.80446224        1.16299277       -0.87008686
 C            2.87687002        1.49417258       -1.94307295
 C            2.50164994        2.98486709       -0.17444944
 C            1.99933431        2.54513018       -1.46472722
 C            1.56789182        3.06411026        0.93665215
 C            3.29081468        1.57962057        1.52946391
 C            2.09922770        2.25455150        2.01698729
 C            3.08612065        0.15161723        1.70050888
 C            3.67713961       -0.26319899       -0.61741535
 C            3.33951791       -0.73953685        0.65620929
 C            2.28256057        0.25343982       -2.40897483
 C            3.02657441       -0.82756193       -1.79112169
 C            0.89533161        0.16355156       -2.49378035
 C            0.62552703        2.39467418       -1.61709070
 C            0.13488378        1.32735671       -2.37505449
 C            0.20704736        2.98065050        0.66546126
 C           -0.20704736        2.98065050       -0.66546126
 C           -0.62552703        2.39467418        1.61709070
 C            1.23012813        1.25678224        2.61913299
 C            1.88941106       -0.03140326        2.50839997
 C           -0.13488378        1.32735671        2.37505449
 C            1.12075613       -1.17527641        2.31601299
 C            2.82908483       -2.02984139        0.77009555
 C            1.71653877       -2.26438669        1.68019054
 C            2.42909631       -2.07153510       -1.68924998
 C            2.57281308       -2.79151249       -0.43955230
 C            0.27466285       -1.08712452       -2.37968140
 C            1.04629370       -2.22050703       -2.11672494
 C           -1.12075613       -1.17527641       -2.31601299
 C           -1.23012813        1.25678224       -2.61913299
 C           -1.88941106       -0.03140326       -2.50839997
 C           -1.56789182        3.06411026       -0.93665215
 C           -2.09922770        2.25455150       -2.01698729
 C           -1.99933431        2.54513018        1.46472722
 C           -2.50164994        2.98486709        0.17444944
 C           -2.87687002        1.49417258        1.94307295
 C           -0.89533161        0.16355156        2.49378035
 C           -0.27466285       -1.08712452        2.37968140
 C           -2.28256057        0.25343982        2.40897483
 C           -1.04629370       -2.22050703        2.11672494
 C            0.89438355       -3.32432853        1.11847047
 C            1.36715250       -3.57332491       -0.23414265
 C            0.47269137       -3.31401009       -1.35102271
 C           -0.47269137       -3.31401009        1.35102271
 C           -1.71653877       -2.26438669       -1.68019054
 C           -0.89438355       -3.32432853       -1.11847047
 C           -1.36715250       -3.57332491        0.23414265
 C           -3.02657441       -0.82756193        1.79112169
 C           -2.42909631       -2.07153510        1.68924998
 C           -2.82908483       -2.02984139       -0.77009555
 C           -2.57281308       -2.79151249        0.43955230
 C           -3.08612065        0.15161723       -1.70050888
 C           -3.29081468        1.57962057       -1.52946391
 C           -3.58920569        2.10003099       -0.21219982
 C           -3.80446224        1.16299277        0.87008686
 C           -3.33951791       -0.73953685       -0.65620929
 C           -3.67713961       -0.26319899        0.61741535




