%chk=001098.chk
%mem=8GB
%Nproc=16
#p B3LYP/6-31G* opt pop=NPA

Template file

0 1
 C            3.67656658       -1.09234058        1.31719319
 C            3.69422260       -1.80909628        0.05710279
 C            2.72953961       -2.88777162        0.15394061
 C            2.57129237       -1.60951421        2.10871775
 C            1.96976998       -2.70601410        1.38091728
 C            1.73360081       -0.49477546        2.48090073
 C            3.56262800        0.35302931        1.28216131
 C            2.39603569        0.73037950        2.07312730
 C            3.79493733        1.00852618        0.08026062
 C            3.41234288       -1.07689687       -1.16764300
 C            3.54899620        0.30235661       -1.17502253
 C            1.99425491       -2.93408616       -1.09773528
 C            2.21487308       -1.65651631       -1.75570438
 C            0.70159850       -3.42122185       -1.05365783
 C            0.58223252       -2.80189713        1.30026422
 C            0.08550513       -3.57082038        0.25373342
 C            0.36669461       -0.58756955        2.29720991
 C           -0.22129188       -1.77321379        1.82779351
 C           -0.36669461        0.58756955        2.29720991
 C            1.62028145        1.82581577        1.67685245
 C            0.22129188        1.77321379        1.82779351
 C            3.25614961        2.34412348       -0.07648828
 C            2.19416736        2.76587109        0.81785504
 C            2.56722251        1.08211813       -1.90186275
 C            2.72566061        2.43849833       -1.42697807
 C            1.11947984       -0.83548430       -2.05754616
 C            1.28674769        0.55210703       -2.09451099
 C           -0.30212018       -2.76110280       -1.85900290
 C           -0.16282373       -1.39174595       -2.10596732
 C           -1.34036828       -3.62666536        0.03171383
 C           -1.55974667       -3.28341049       -1.36762448
 C           -1.62028145       -1.82581577        1.67685245
 C           -2.19416736       -2.76587109        0.81785504
 C           -1.73360081        0.49477546        2.48090073
 C           -2.39603569       -0.73037950        2.07312730
 C           -2.57129237        1.60951421        2.10871775
 C           -0.58223252        2.80189713        1.30026422
 C           -1.96976998        2.70601410        1.38091728
 C            1.34036828        3.62666536        0.03171383
 C            1.55974667        3.28341049       -1.36762448
 C           -0.08550513        3.57082038        0.25373342
 C            0.16282373        1.39174595       -2.10596732
 C            0.30212018        2.76110280       -1.85900290
 C           -0.70159850        3.42122185       -1.05365783
 C           -1.28674769       -0.55210703       -2.09451099
 C           -1.11947984        0.83548430       -2.05754616
 C           -2.72566061       -2.43849833       -1.42697807
 C           -3.25614961       -2.34412348       -0.07648828
 C           -2.56722251       -1.08211813       -1.90186275
 C           -3.56262800       -0.35302931        1.28216131
 C           -3.67656658        1.09234058        1.31719319
 C           -3.79493733       -1.00852618        0.08026062
 C           -3.54899620       -0.30235661       -1.17502253
 C           -2.72953961        2.88777162        0.15394061
 C           -1.99425491        2.93408616       -1.09773528
 C           -2.21487308        1.65651631       -1.75570438
 C           -3.69422260        1.80909628        0.05710279
 C           -3.41234288        1.07689687       -1.16764300




