%chk=000467.chk
%mem=8GB
%Nproc=48
#p B3LYP/6-31G* opt pop=NPA

Template file

0 1
 C            4.44094577        0.53829319       -0.23521782
 C            3.95709283        0.84593915        1.09947257
 C            3.68829190       -0.40809075        1.76030179
 C            4.12883805       -0.85625573       -0.50005459
 C            3.79104508       -1.46752966        0.76281195
 C            3.15173834       -0.89430079       -1.57191356
 C            3.68007514        1.34134147       -1.17473823
 C            3.07894626        0.44274361       -2.13911599
 C            2.87566778        1.80224567        0.97104765
 C            2.79994315        2.21358183       -0.41710764
 C            1.68010391        1.60832025        1.65649553
 C            2.41280028       -0.57963000        2.42994364
 C            1.45783363        0.43851309        2.40577829
 C            2.57330548       -2.24751686        0.85112875
 C            1.98329754       -1.93038207        2.13482515
 C            1.97284767       -1.63020160       -1.42574368
 C            1.72734495       -2.36830919       -0.25261723
 C            0.92829632       -1.38726399       -2.32360114
 C            1.89013000        0.84126237       -2.72875099
 C            0.85541378       -0.15081830       -2.96226080
 C            1.54343847        2.50457255       -0.94111648
 C            1.21991100        2.02653778       -2.21461729
 C            0.58639939        2.37868887        1.27021695
 C            0.50673851        2.82279466       -0.06033870
 C           -0.54450746        2.33932956        2.07703077
 C            0.15361272        0.12080823        2.80608141
 C           -0.82315012        1.11196037        2.79199263
 C            0.65103122       -2.24708133        2.32809452
 C           -0.24901141       -1.21545359        2.82228184
 C            0.45572498       -2.90461228       -0.03627024
 C           -0.05473586       -2.94081670        1.26458393
 C           -0.22786638       -2.15417704       -2.25150809
 C           -0.41229685       -3.03041706       -1.11355876
 C           -1.50663105       -1.51167097       -2.51173052
 C           -0.42150590        0.54891641       -3.00161581
 C           -0.17705322        1.92833408       -2.61157538
 C           -1.56251468       -0.11815727       -2.55785654
 C           -0.71957517        3.19689983       -0.60944020
 C           -1.13042784        2.59374271       -1.86296970
 C           -1.80366705        2.87925536        1.60479432
 C           -1.89791676        3.30202586        0.22771868
 C           -2.20542847        0.74877405        2.51049219
 C           -2.83100285        1.87750918        1.84039294
 C           -1.59166695       -1.56389806        2.37768334
 C           -1.47305258       -2.71966418        1.49653864
 C           -2.49923947       -0.54598147        2.09014248
 C           -1.84373805       -3.15152512       -0.87777935
 C           -2.52362619       -2.26789775       -1.81172642
 C           -2.36636481       -2.88459816        0.44962875
 C           -3.48319435       -0.74349183        1.11980559
 C           -3.54264530       -1.54871450       -1.08516513
 C           -3.46957992       -1.95315206        0.31218237
 C           -2.55448279        0.58358053       -1.85049363
 C           -2.41020562        1.95296545       -1.62707322
 C           -2.95664907        2.53243527       -0.40847583
 C           -3.53652379        1.65164635        0.59152881
 C           -3.52764460       -0.09974246       -1.11704687
 C           -3.84490957        0.34833305        0.22848432




