%chk=000892.chk
%mem=8GB
%Nproc=16
#p B3LYP/6-31G* opt pop=NPA

Template file

0 1
 C            4.09518346        0.36364406        0.63188795
 C            3.56445145       -0.51534592        1.64974599
 C            3.38313598       -1.81905957        1.04004288
 C            4.09518346       -0.36364406       -0.63188795
 C            3.43204748       -1.62781893       -0.39730540
 C            3.56445145        0.51534592       -1.64974599
 C            3.43204748        1.62781893        0.39730540
 C            3.38313598        1.81905957       -1.04004288
 C            2.30914420        1.98604902        1.14285416
 C            2.31155310       -0.16267448        2.28732555
 C            1.67459270        1.03477252        1.96501350
 C            2.18282713       -2.40906510        1.60437224
 C            1.51237873       -1.37419580        2.37988627
 C            1.41198188       -3.21090104        0.77733057
 C            2.30914420       -1.98604902       -1.14285416
 C            1.57025186       -3.06558698       -0.66408145
 C            2.31155310        0.16267448       -2.28732555
 C            1.67459270       -1.03477252       -1.96501350
 C            2.18282713        2.40906510       -1.60437224
 C            1.51237873        1.37419580       -2.37988627
 C            1.57025186        3.06558698        0.66408145
 C            1.41198188        3.21090104       -0.77733057
 C            0.29956351        3.38654790        1.28000858
 C            0.30946617        1.15061776        2.24841124
 C           -0.32372514        2.38267130        2.10888672
 C            0.12413057       -1.26412696        2.31762117
 C           -0.45697552        0.00011096        2.46399913
 C           -0.01054710       -3.30426631        1.03391801
 C           -0.63357777       -2.32980432        1.80955995
 C            0.29956351       -3.38654790       -1.28000858
 C           -0.63535401       -3.70532287       -0.21321148
 C            0.30946617       -1.15061776       -2.24841124
 C           -0.32372514       -2.38267130       -2.10888672
 C            0.12413057        1.26412696       -2.31762117
 C           -0.45697552       -0.00011096       -2.46399913
 C           -0.01054710        3.30426631       -1.03391801
 C           -0.63535401        3.70532287        0.21321148
 C           -0.63357777        2.32980432       -1.80955995
 C           -1.74872170        2.42630425        1.82935631
 C           -1.92028141        3.12372296        0.56200045
 C           -1.83887283        0.11047182        2.59650370
 C           -2.51059304        1.29920973        2.10085766
 C           -2.01790450       -2.20425146        1.70898695
 C           -2.66429837       -1.02714032        2.25209246
 C           -1.92028141       -3.12372296       -0.56200045
 C           -1.74872170       -2.42630425       -1.82935631
 C           -2.66947601       -2.52871585        0.44641313
 C           -1.83887283       -0.11047182       -2.59650370
 C           -2.51059304       -1.29920973       -2.10085766
 C           -2.01790450        2.20425146       -1.70898695
 C           -2.66947601        2.52871585       -0.44641313
 C           -2.66429837        1.02714032       -2.25209246
 C           -3.52083864        0.86207476        1.14800362
 C           -3.66205004       -0.57850676        1.29227982
 C           -3.56749215       -1.43366961        0.11940807
 C           -3.52083864       -0.86207476       -1.14800362
 C           -3.56749215        1.43366961       -0.11940807
 C           -3.66205004        0.57850676       -1.29227982




