%chk=000501.chk
%mem=8GB
%Nproc=48
#p B3LYP/6-31G* opt pop=NPA

Template file

0 1
 C            3.99833159       -1.67730718       -0.00000000
 C            3.88785537       -0.82596110        1.17221873
 C            4.04179981        0.53912125        0.72843326
 C            3.88785537       -0.82596110       -1.17221873
 C            4.04179981        0.53912125       -0.72843326
 C            2.67095837       -1.18971015       -1.87722215
 C            2.85680978       -2.57117733       -0.00000000
 C            2.12940869       -2.37678877       -1.23900358
 C            2.67095837       -1.18971015        1.87722215
 C            2.12940869       -2.37678877        1.23900358
 C            1.78077418       -0.19909428        2.29571013
 C            3.06182579        1.51334929        1.16160838
 C            2.08117467        1.15953227        2.08091048
 C            3.06182579        1.51334929       -1.16160838
 C            2.66300056        2.28818932        0.00000000
 C            1.78077418       -0.19909428       -2.29571013
 C            2.08117467        1.15953227       -2.08091048
 C            0.46937039       -0.58515491       -2.60092200
 C            0.74945009       -2.52357798       -1.20070780
 C           -0.02129595       -1.79996224       -2.10896612
 C            0.74945009       -2.52357798        1.20070780
 C            0.16203665       -2.92693604       -0.00000000
 C            0.46937039       -0.58515491        2.60092200
 C           -0.02129595       -1.79996224        2.10896612
 C           -0.40842123        0.33988989        3.15955359
 C            1.09968776        2.11455889        2.31221382
 C           -0.09224872        1.74485267        3.04423770
 C            1.40648137        2.89910081        0.00000000
 C            0.70401745        2.97724169        1.20614032
 C            1.09968776        2.11455889       -2.31221382
 C            0.70401745        2.97724169       -1.20614032
 C           -0.40842123        0.33988989       -3.15955359
 C           -0.09224872        1.74485267       -3.04423770
 C           -1.83660999        0.20135900       -2.93449356
 C           -1.38355626       -2.08314802       -2.19262244
 C           -2.32457625       -1.01325362       -2.47640056
 C           -1.18842190       -3.25764721       -0.00000000
 C           -1.97965339       -2.93009783       -1.17305883
 C           -1.38355626       -2.08314802        2.19262244
 C           -1.97965339       -2.93009783        1.17305883
 C           -1.83660999        0.20135900        2.93449356
 C           -2.32457625       -1.01325362        2.47640056
 C           -1.22504705        2.40346663        2.41441832
 C           -0.75013248        3.03459234        1.19530614
 C           -2.30707869        1.44154771        2.33319753
 C           -0.75013248        3.03459234       -1.19530614
 C           -1.22504705        2.40346663       -2.41441832
 C           -2.30707869        1.44154771       -2.33319753
 C           -1.43102228        2.82836311        0.00000000
 C           -3.07590170        1.39691923        1.17726691
 C           -3.07590170        1.39691923       -1.17726691
 C           -2.65077437        2.14383783        0.00000000
 C           -3.34019605       -1.03571488       -1.43499948
 C           -3.21005814       -2.29611231       -0.72540252
 C           -3.21005814       -2.29611231        0.72540252
 C           -3.34019605       -1.03571488        1.43499948
 C           -3.62976736        0.12893357       -0.72941005
 C           -3.62976736        0.12893357        0.72941005




