%chk=000980.chk
%mem=8GB
%Nproc=16
#p B3LYP/6-31G* opt pop=NPA

Template file

0 1
 C            4.28246132       -0.08744594        0.26416430
 C            3.74696460       -1.08363969        1.16909482
 C            3.32190922       -2.20321998        0.35512703
 C            3.86299369       -0.45158828       -1.08490985
 C            3.16119387       -1.70920881       -1.00080442
 C            3.17458055        0.68343520       -1.65225724
 C            3.91214333        1.29552145        0.47398883
 C            3.48460091        1.82411755       -0.80843343
 C            2.85510815        1.60278003        1.41993478
 C            2.62468185       -0.73088615        2.02347385
 C            2.11749003        0.56810230        2.00619709
 C            2.16272797       -2.79613458        0.99580720
 C            1.69700334       -1.85074045        2.00283495
 C            1.21820231       -3.38515575        0.17136577
 C            1.91117825       -1.84774326       -1.59588199
 C            1.19234458       -2.97948444       -1.22662178
 C            1.87120077        0.53805199       -2.12510150
 C            1.21502706       -0.70395193       -2.04014553
 C            1.12402720        1.69897828       -2.30395820
 C            2.43396545        2.79287349       -0.55000667
 C            2.15692713        2.75781933        0.88097937
 C            1.36958156        2.84617362       -1.43871342
 C            0.87214078        3.02271661        1.33384460
 C            0.77425645        0.77966049        2.32419006
 C            0.24948597        2.06887217        2.23165684
 C            0.33172454       -1.59550825        2.11657994
 C           -0.08930526       -0.31071928        2.47821695
 C           -0.16051596       -3.41480907        0.61167561
 C           -0.58582627       -2.51118670        1.58172338
 C           -0.15631851       -3.15337236       -1.70868638
 C           -0.96801104       -3.58712165       -0.58178598
 C           -0.15652986       -0.79039980       -2.35944263
 C           -0.81747951       -2.01791715       -2.30342254
 C           -0.30243031        1.61243719       -2.52694547
 C           -0.91985402        0.36906574       -2.53531169
 C            0.08010925        3.32720586       -0.97463059
 C           -0.15186077        3.44930303        0.39120009
 C           -0.93167766        2.72220838       -1.82259309
 C           -1.18687707        2.26028535        2.13466474
 C           -1.44169721        3.05501048        0.94117658
 C           -1.43169236       -0.08488274        2.77259853
 C           -2.02479170        1.20236197        2.45389603
 C           -1.95200166       -2.26199096        1.69039897
 C           -2.40181995       -1.10631108        2.43858734
 C           -2.24138825       -2.89432486       -0.66342579
 C           -2.19870067       -2.05988149       -1.85573066
 C           -2.79331161       -2.38401737        0.50621855
 C           -2.30880507        0.31353147       -2.40817865
 C           -2.94061741       -0.89002402       -1.89881956
 C           -2.22614660        2.56858255       -1.34326194
 C           -2.48108383        2.70452192        0.08457167
 C           -3.00808296        1.44618752       -1.82750950
 C           -3.21661538        0.95555092        1.65646436
 C           -3.47749443       -0.47517002        1.68928172
 C           -3.64177600       -1.20569395        0.44208516
 C           -3.75502873       -0.50452254       -0.75382731
 C           -3.41915893        1.66271553        0.47555285
 C           -3.81713115        0.94898211       -0.72714618




