%chk=000922.chk
%mem=8GB
%Nproc=16
#p B3LYP/6-31G* opt pop=NPA

Template file

0 1
 C            3.71716868        0.99866229        1.35087613
 C            3.87536865       -0.41709902        1.11564825
 C            3.99607913       -0.61159425       -0.32192661
 C            3.78533979        1.66310709        0.05799750
 C            3.60688298        0.63869780       -0.94989879
 C            2.85363788        2.76577373        0.09540726
 C            2.50585359        1.46184016        1.99600350
 C            2.20893518        2.74355125        1.40001347
 C            1.44895746        0.57708658        2.21340689
 C            2.83613171       -1.31541312        1.57120731
 C            1.64405881       -0.81026814        2.09692234
 C            3.26512633       -1.82211880       -0.65870185
 C            2.76693835       -2.38000416        0.59079207
 C            2.43650630       -1.80975002       -1.77413954
 C            2.47962544        0.65701786       -1.77427014
 C            2.08753219       -0.53473582       -2.38651859
 C            1.79757291        2.81860780       -0.89530812
 C            1.63093804        1.77676003       -1.80512551
 C            0.81876688        3.08873281        1.19827211
 C            0.62737672        3.34952717       -0.21986678
 C            0.15342005        1.09025717        2.36020717
 C           -0.16409730        2.36310407        1.85904839
 C           -0.86147570        0.23867154        2.78562364
 C            0.55100568       -1.67677353        2.20081295
 C           -0.67004153       -1.19404220        2.66598457
 C            1.63262242       -3.17653315        0.57802675
 C            0.60269953       -2.92187008        1.57030333
 C            1.24956425       -2.65041327       -1.79120949
 C            0.95001327       -3.43221902       -0.68209278
 C            0.75551714       -0.66550963       -2.94740086
 C            0.18543269       -1.90795239       -2.45487732
 C            0.42254667        1.71649454       -2.49611351
 C           -0.04917880        0.45404722       -3.04102447
 C           -0.63679368        3.12109720       -0.76000392
 C           -0.73409693        2.43887585       -1.97705294
 C           -1.47486500        2.64481193        1.48785758
 C           -1.71318999        3.09719436        0.12620948
 C           -2.24600215        0.53442818        2.45605745
 C           -2.55316219        1.74830337        1.85784746
 C           -1.91721283       -1.77638979        2.18275010
 C           -2.87086720       -0.69697559        1.98837406
 C           -0.61871464       -3.51698094        1.06205306
 C           -0.44263715       -3.70085213       -0.37078287
 C           -1.87507124       -2.82103904        1.26761173
 C           -1.10836362       -1.92041134       -1.93038614
 C           -1.47397252       -2.92356033       -1.03284402
 C           -2.49598215       -2.65197714       -0.03851441
 C           -1.46262532        0.33676397       -2.73028046
 C           -1.91855651        1.64662477       -2.29072015
 C           -1.94674642       -0.81443255       -2.10709607
 C           -2.99468591        2.56844944       -0.30140798
 C           -3.55417085        1.80727279        0.80537084
 C           -3.04846831        1.74141969       -1.48992790
 C           -3.67329100       -0.69134963        0.85004894
 C           -3.35893671       -1.58769193       -0.25078516
 C           -3.16373693       -0.76089181       -1.42840567
 C           -4.09050090        0.57239043        0.26824325
 C           -3.77417526        0.52927772       -1.15229554




