%chk=000680.chk
%mem=8GB
%Nproc=48
#p B3LYP/6-31G* opt pop=NPA

Template file

0 1
 C            4.30068994        0.57541465        0.66002869
 C            4.05701227        0.29689172       -0.74484006
 C            3.46821061       -1.03032853       -0.83759071
 C            3.77505087       -0.54072049        1.42210915
 C            3.51952812       -1.62233686        0.49129517
 C            2.66453585       -0.06481305        2.23370659
 C            3.52661409        1.74869576        1.01206895
 C            2.52879661        1.36017379        1.99797973
 C            3.33184779        1.42503893       -1.30286311
 C            3.07148148        2.36643327       -0.22026571
 C            2.34485947        1.17353089       -2.24824490
 C            2.33265490       -1.21754494       -1.62909156
 C            1.93609458       -0.20025723       -2.50063753
 C            1.45907981       -2.27387601       -1.34411760
 C            2.53917961       -2.53407884        0.83785618
 C            1.67185444       -3.04583081       -0.20302663
 C            1.52393900       -0.86259426        2.31549917
 C            1.66178336       -2.20015838        1.94840356
 C            0.25427715       -0.25896071        2.29094968
 C            1.25748659        1.90617616        1.89877506
 C            0.15608098        1.14059996        2.28376556
 C            1.86526108        3.05275656       -0.18530265
 C            1.06485473        2.97465423        1.02504148
 C            1.14825873        2.00142249       -2.28780503
 C            0.94092293        2.95630795       -1.30509190
 C            0.57221046       -0.15865053       -2.99612077
 C            0.03696959        1.16246629       -2.70851161
 C            0.24599500       -2.38102435       -2.02819693
 C           -0.23970493       -1.26363553       -2.82070353
 C           -0.90742704       -3.00093753       -1.38484792
 C            0.53608229       -3.63242730        0.48598530
 C            0.48745508       -3.02914737        1.81192716
 C           -0.78609855       -3.50938833       -0.09787576
 C           -0.90892558       -1.04603688        2.19162151
 C           -0.81103908       -2.41631550        1.95693211
 C           -1.66572854       -3.01461373        0.94965222
 C           -2.15250584       -0.43788688        2.00336983
 C           -1.09823734        1.74909408        2.30449646
 C           -2.29046096        0.92546689        2.24121642
 C           -0.28376086        3.35230278        0.66155185
 C           -0.39944816        3.14864234       -0.77638327
 C           -1.32428259        2.92175088        1.46773361
 C           -1.20742531        1.28301593       -2.08547923
 C           -1.46591920        2.39215160       -1.26354447
 C           -1.63906001       -1.06389431       -2.49162723
 C           -2.08596710       -2.22381969       -1.73520761
 C           -2.10295059        0.20422880       -2.13988183
 C           -2.82761272       -2.34345100        0.60353456
 C           -3.16649526       -1.14081074        1.34251398
 C           -3.10229853       -2.06382289       -0.80056004
 C           -3.36266619        0.30420397       -1.55638379
 C           -4.12983951       -0.42843924        0.52399792
 C           -3.89643750       -0.84607868       -0.84745049
 C           -3.30659128        1.68749826        1.53116698
 C           -2.62670739        2.76968619        0.85006189
 C           -2.67262907        2.48140548       -0.57279925
 C           -4.12775833        1.01823576        0.54307134
 C           -3.69108992        1.47363495       -0.77186100




