%chk=000106.chk
%mem=8GB
%Nproc=48
#p B3LYP/6-31G* opt pop=NPA

Template file

0 1
 C            4.60006307        1.08397418        0.17230504
 C            4.63429292        0.13846476       -0.92759428
 C            4.23089104       -1.14679519       -0.40066746
 C            4.00768677        0.41932412        1.32444162
 C            3.76085829       -0.95646315        0.96398527
 C            2.88953312        1.22207648        1.76826105
 C            3.69883782        2.15099752       -0.20599211
 C            2.85888245        2.42222671        0.94430502
 C            3.62259374        0.53226852       -1.89771311
 C            3.03710332        1.77342751       -1.44647911
 C            3.29889282       -1.71847532       -1.35202688
 C            2.74654778       -0.60235051       -2.10839090
 C            2.41009338       -2.65351304       -0.85916242
 C            2.55267469       -1.55449852        1.31350602
 C            2.20760077       -2.68492129        0.58124819
 C            1.68119232        0.60047797        2.08472969
 C            1.52661806       -0.78789864        1.90504238
 C            0.55038813        1.40954591        2.21947196
 C            1.62234284        2.98844941        0.69219172
 C            0.51369088        2.62864410        1.55413994
 C            1.65724940        1.94036807       -1.51368383
 C            1.10767361        2.89027518       -0.66383811
 C            1.36245034       -0.40477284       -2.10871913
 C            0.83717654        0.88986396       -1.96318449
 C            1.08077542       -2.69300244       -1.42600175
 C            0.52807092       -1.51391843       -1.92965291
 C            0.92936194       -3.31277257        0.81063661
 C            0.30641110       -3.47697851       -0.49370783
 C            0.27800496       -1.38160076        2.17313574
 C           -0.02729874       -2.63762063        1.65844532
 C           -0.64872101        0.84516717        2.62518882
 C           -0.77843694       -0.59809157        2.62754500
 C           -1.90917231        1.41336892        2.15620177
 C           -0.68759074        2.99223372        0.82735380
 C           -0.32606324        2.99785101       -0.58014052
 C           -1.90310186        2.41089309        1.17429673
 C           -0.55660336        1.06276351       -1.96618674
 C           -1.10478686        2.24592299       -1.43984978
 C           -0.86031422       -1.33495317       -1.89406763
 C           -1.37722509       -0.05959130       -2.15319089
 C           -1.08565808       -3.14839531       -0.34591309
 C           -1.33119445       -2.85474309        1.05443568
 C           -1.67015699       -2.30652161       -1.27445089
 C           -2.14581751       -0.92837747        2.23283276
 C           -2.88075256        0.32664943        2.10177401
 C           -2.38073768       -1.98608162        1.34745829
 C           -3.96196339        0.41026838        1.23318893
 C           -2.89339416        2.40442520        0.19208968
 C           -2.46914683        2.30855274       -1.19900752
 C           -4.05965214        1.56081447        0.35674953
 C           -2.75770974        0.10690614       -2.27190820
 C           -3.33557885        1.36767076       -1.86316424
 C           -4.44742316        1.09818662       -0.96575139
 C           -2.99688622       -2.00436888       -1.01974610
 C           -3.37957930       -1.85643102        0.37873435
 C           -4.32500571       -0.76092777        0.46124948
 C           -3.61892871       -0.93944573       -1.76542778
 C           -4.61905860       -0.33854816       -0.89932531




