%chk=000616.chk
%mem=8GB
%Nproc=48
#p B3LYP/6-31G* opt pop=NPA

Template file

0 1
 C            3.41942491       -2.47671746       -0.12132763
 C            3.91011942       -1.11361089       -0.07794646
 C            3.45623663       -0.50749197        1.16089366
 C            2.59617144       -2.68893246        1.05697822
 C            2.58203375       -1.46682054        1.82500794
 C            1.33074254       -3.21862566        0.61343901
 C            2.55631433       -2.59059902       -1.28493577
 C            1.31013748       -3.15924754       -0.84112144
 C            3.53852322       -0.47455142       -1.32320326
 C            2.51181245       -1.30328768       -1.93837686
 C            3.34814100        0.89520499       -1.30506841
 C            3.09476081        0.83940070        1.14938864
 C            3.30338926        1.57944849       -0.01851246
 C            2.17728819        1.28551644        2.10266613
 C            1.37893303       -1.01754503        2.35977623
 C            1.32112428        0.31352297        2.76414525
 C            0.16666452       -2.85292479        1.28413209
 C            0.18873918       -1.73514683        2.13880593
 C           -1.02468572       -3.19487489        0.64451917
 C            0.12766732       -2.74599576       -1.43615477
 C           -1.01884678       -3.20618551       -0.80791011
 C            1.27021528       -0.73885948       -2.24076347
 C            0.08757268       -1.49192067       -2.07991889
 C            2.27439555        1.45252988       -2.10155469
 C            1.20405119        0.63918028       -2.47182040
 C            2.58522493        2.82584404       -0.22967209
 C            2.00432026        2.77383960       -1.56329093
 C            1.38987354        2.49131374        1.87754925
 C            1.53765531        3.20601374        0.69634078
 C            0.04321976        0.94599684        3.03462878
 C            0.06189701        2.26937939        2.42929608
 C           -1.01481236       -1.22457813        2.63319839
 C           -1.11124607        0.18004509        2.99380053
 C           -2.28516394       -2.62019555        1.07391253
 C           -2.27523199       -1.60309955        2.01642318
 C           -2.30486775       -2.75395440       -1.26977556
 C           -3.13652603       -2.51564886       -0.10003111
 C           -1.15388452       -0.91474429       -2.40983040
 C           -2.34587545       -1.56893950       -2.09213785
 C           -0.01513253        1.23372422       -2.76900703
 C           -1.22031055        0.43232119       -2.75669970
 C            0.62696304        3.21993834       -1.47373173
 C            0.36305496        3.56539746       -0.08440374
 C           -0.33833489        2.53846806       -2.20399249
 C           -1.05818910        2.73942197        1.75169327
 C           -0.90764857        3.36600028        0.44662530
 C           -2.31855272        0.71982650        2.38613790
 C           -3.05531665       -0.38854365        1.80162076
 C           -2.27811577        1.94716832        1.73159425
 C           -3.87764283       -1.29175063       -0.33443019
 C           -3.48309386       -0.78461411       -1.63967157
 C           -3.76029248       -0.20095167        0.61523254
 C           -2.29799646        1.26037257       -2.22942264
 C           -1.70265773        2.47908948       -1.70954936
 C           -1.98203566        2.88153187       -0.40755146
 C           -2.88446329        2.09046742        0.41576193
 C           -3.33588792        0.65465625       -1.53476134
 C           -3.57985568        1.02473784       -0.14699396




