%chk=000554.chk
%mem=8GB
%Nproc=48
#p B3LYP/6-31G* opt pop=NPA

Template file

0 1
 C            4.34690616        0.88493179        0.01762809
 C            4.00042362        0.00165217        1.11613214
 C            3.57283439       -1.26701225        0.55268580
 C            3.97775186        0.21551239       -1.21718216
 C            3.68306046       -1.16620529       -0.89951592
 C            2.94589414        1.00515200       -1.86654931
 C            3.52415406        2.07456656        0.13278027
 C            2.82350866        2.25187383       -1.12465285
 C            3.09035786        0.71201378        1.99340448
 C            2.73446627        1.96722334        1.34862529
 C            2.10055629       -0.01152236        2.63525963
 C            2.47810631       -1.92808290        1.11625086
 C            1.86186192       -1.39792556        2.25040646
 C            1.80786463       -2.88843284        0.36322513
 C            2.74714079       -1.82480401       -1.68089169
 C            2.00376185       -2.90934384       -1.07509357
 C            1.79657818        0.36041095       -2.33527366
 C            1.80008872       -1.03043514       -2.45801952
 C            0.58070066        1.05253498       -2.37221711
 C            1.59056140        2.87770964       -1.08972880
 C            0.54274786        2.38264352       -1.95556784
 C            1.39912236        2.37426397        1.31118040
 C            0.96333016        3.10547458        0.20331629
 C            0.80707063        0.60720491        2.85061706
 C            0.46165229        1.75996504        2.15129783
 C            0.46162714       -1.69255630        2.52446507
 C           -0.16771897       -0.46173809        2.98535972
 C            0.40031176       -3.16068453        0.61661410
 C           -0.25020140       -2.55558049        1.69347828
 C            0.69699061       -2.95326438       -1.70325365
 C            0.53555897       -1.74606346       -2.48344155
 C           -0.27943631       -3.22634560       -0.67136200
 C           -0.62194878        0.35288198       -2.52565572
 C           -0.64546998       -1.03110867       -2.34500564
 C           -1.82230772        1.06095551       -2.51896760
 C           -0.69831731        2.93236690       -1.44098607
 C           -0.45880767        3.27646067       -0.04464862
 C           -1.88874863        2.32153401       -1.80208573
 C           -0.88790933        2.09244739        2.05425030
 C           -1.36390517        2.87651104        0.92667966
 C           -1.49874202       -0.21923191        2.66451303
 C           -1.89539874        1.08445475        2.35748097
 C           -1.64043705       -2.44687622        1.65058691
 C           -2.28379512       -1.29733023        2.26801553
 C           -1.53855411       -2.65129018       -0.77249801
 C           -1.74421341       -1.63593338       -1.71960682
 C           -2.31037966       -2.66664995        0.38212720
 C           -3.06310710        0.35172133       -2.26242644
 C           -2.99478770       -1.02766416       -1.82078149
 C           -2.95482029        2.19900276       -0.82309428
 C           -2.66345174        2.35637805        0.52934947
 C           -3.04137780        1.32748910        1.49034243
 C           -3.80249226        1.10318165       -1.25693513
 C           -3.53838315       -1.06752719        1.56923057
 C           -3.57241618       -1.95664546        0.41746471
 C           -3.95289675       -1.17527326       -0.73927035
 C           -3.85695448        0.26893825        1.10628409
 C           -4.29801118        0.15807080       -0.27434022




