%chk=000206.chk
%mem=8GB
%Nproc=48
#p B3LYP/6-31G* opt pop=NPA

Template file

0 1
 C            4.79874114       -0.41721119       -0.60197068
 C            4.43404846        0.98635145       -0.59773459
 C            4.14223057        1.36232143        0.77267711
 C            4.53691580       -0.94585981        0.72860426
 C            4.07036456        0.14351467        1.56159719
 C            3.68854372       -2.10556007        0.57452722
 C            3.91159633       -1.10030356       -1.52949174
 C            3.38958447       -2.25649939       -0.84471303
 C            3.40241348        1.18292886       -1.60261203
 C            2.96824051       -0.12893990       -2.05536940
 C            2.43481221        2.14991863       -1.38097352
 C            2.93365201        2.12173066        1.03038031
 C            2.27037554        2.70674459       -0.04011562
 C            2.73890603        0.07794207        2.15075444
 C            2.14435277        1.39229388        2.01348659
 C            2.41776673       -2.15956273        1.28062085
 C            1.93171689       -1.04471330        1.96911427
 C            1.97098616       -2.52616264       -0.94514510
 C            1.51504241       -2.85275943        0.38780787
 C            1.59839400       -0.42519555       -2.08164119
 C            1.14752213       -1.70409849       -1.71584187
 C            1.10152637        1.92658598       -1.91021635
 C            0.67945960        0.62917006       -2.18286259
 C            0.86298028        3.01203543        0.11984344
 C            0.22000058        2.79593849       -1.16476711
 C            0.75711394        1.50065814        1.96924113
 C            0.19994365        2.56643040        1.25946111
 C            0.54588160       -0.91310581        2.10962384
 C           -0.02474164        0.36460727        2.21690036
 C            0.15881574       -2.73289714        0.61320589
 C           -0.25676274       -1.98305475        1.70864382
 C           -0.22573186       -1.91632295       -1.58383484
 C           -0.65277530       -2.70509545       -0.51067968
 C           -0.69079760        0.35948939       -2.16539443
 C           -1.10390828       -0.97216270       -2.10808733
 C           -1.13716715        2.51608657       -1.15140422
 C           -1.59198654        1.39095943       -1.84858022
 C           -1.17889859        2.71683706        1.26957404
 C           -1.82876695        2.91563324       -0.01210390
 C           -1.41757336        0.49894774        2.26653347
 C           -1.98165746        1.73862542        1.97482859
 C           -1.62313066       -1.92898330        1.95983123
 C           -2.22214292       -0.64177369        2.26298705
 C           -2.01121547       -2.89193552       -0.30324928
 C           -2.51143667       -2.61848950        1.03253679
 C           -2.46055213       -1.28035288       -2.14052007
 C           -2.94475440       -2.32111894       -1.25421397
 C           -2.96472530        1.14707275       -1.90209399
 C           -3.43276353       -0.20639772       -2.12237596
 C           -3.21740299        2.54249027        0.14635617
 C           -3.31864451        1.81185712        1.40272816
 C           -3.82671838        1.73648994       -0.88973232
 C           -3.54749786       -0.60908465        1.64961380
 C           -3.73158184       -1.84453747        0.90547877
 C           -4.07126404       -1.78836602       -0.50630924
 C           -4.42075727       -0.51085197       -1.09426168
 C           -4.04511073        0.58577381        1.14149307
 C           -4.53146158        0.65196175       -0.23215488




