%chk=000327.chk
%mem=8GB
%Nproc=48
#p B3LYP/6-31G* opt pop=NPA

Template file

0 1
 C            4.31055478       -1.42594502        0.60860605
 C            4.26297053       -0.09901787        1.19070560
 C            4.49455947        0.83797857        0.11166353
 C            4.13193131       -1.27480950       -0.82749634
 C            4.24674250        0.13203759       -1.13883250
 C            2.90717514       -1.95930931       -1.18588359
 C            3.17027221       -2.16830448        1.11419217
 C            2.46352248       -2.71488403       -0.02493721
 C            3.03234060        0.00637135        1.96498980
 C            2.41979311       -1.30848358        2.00640441
 C            2.20967627        1.12133475        1.81823612
 C            3.70300874        2.04671550        0.08288335
 C            2.64695030        2.21641289        1.06459540
 C            3.13128748        0.79275602       -1.79604945
 C            3.05817090        2.11571932       -1.21946367
 C            1.93885491       -1.30908800       -1.95160631
 C            1.94308614        0.09273951       -2.02285094
 C            0.73646063       -1.98625775       -2.11105430
 C            1.09685243       -2.93052835        0.10302392
 C            0.35764113       -2.93137209       -1.07457457
 C            1.03463584       -1.40244611        1.95911404
 C            0.46934786       -2.47570479        1.26742086
 C            0.84775385        1.00586516        2.11895090
 C            0.25643516       -0.26273836        2.18927134
 C            0.04155248        2.12883361        1.96906788
 C            1.65873361        3.04122088        0.40227828
 C            1.75017802        2.69612775       -1.00508733
 C            0.39392297        3.11036037        0.95605864
 C            0.72753024        0.79800412       -2.09389051
 C            0.63821523        2.10996715       -1.59752830
 C           -0.45615782       -1.25784026       -2.49076363
 C           -0.43888920        0.13033969       -2.48875175
 C           -1.08972232       -2.96093609       -0.99694088
 C           -1.60050527       -1.95652856       -1.92126873
 C           -0.89343943       -2.69515310        1.41834188
 C           -1.67310991       -3.08613987        0.25308429
 C           -1.13918272       -0.40204239        2.23522398
 C           -1.66857969       -1.68990798        2.11945380
 C           -1.40156388        1.97797235        1.93133317
 C           -1.97187184        0.72337334        2.11337275
 C           -0.73872255        3.16528970        0.05146690
 C           -0.60755962        2.60442514       -1.22002117
 C           -1.89542614        2.83241341        0.85880203
 C           -1.66071237        0.80055939       -2.46897644
 C           -1.73570326        2.11452298       -1.86028601
 C           -2.74527684       -1.22976006       -1.59638666
 C           -2.86404544        0.07062160       -2.09064316
 C           -3.01822587       -2.58087046        0.44035562
 C           -3.04618711       -1.88562433        1.71778735
 C           -3.56438758       -1.67139186       -0.55036267
 C           -3.32803940        0.58150408        1.80537549
 C           -3.89344091       -0.72785210        1.56088283
 C           -4.38632221       -0.72976477        0.19110170
 C           -3.07778041        2.49288508        0.21898709
 C           -3.03277230        2.23687366       -1.21075509
 C           -3.77758360        1.01737480       -1.47177024
 C           -3.91765543        1.47391419        0.82147136
 C           -4.45729323        0.64818714       -0.24832105




