%chk=000506.chk
%mem=8GB
%Nproc=48
#p B3LYP/6-31G* opt pop=NPA

Template file

0 1
 C            3.68725541       -2.32865847       -0.19871131
 C            4.14303745       -1.01470011       -0.60123557
 C            4.11423046       -0.16805505        0.57697447
 C            3.12647479       -2.20507568        1.13858650
 C            3.23793400       -0.82385221        1.53997391
 C            1.81219651       -2.79122539        1.10901573
 C            2.60349482       -2.70415763       -1.08770174
 C            1.54520062       -3.21401629       -0.25675678
 C            3.36823626       -0.60729988       -1.76179785
 C            2.29171607       -1.57180961       -1.92945044
 C            3.09143814        0.74077369       -1.91618179
 C            3.98275204        1.19869852        0.38909179
 C            3.63490806        1.67936305       -0.94238732
 C            3.18419636        1.94466454        1.34391881
 C            2.10752756       -0.14964764        2.01065863
 C            2.19051318        1.22987625        2.13280144
 C            0.76872467       -2.16786527        1.79147608
 C            0.84614921       -0.77836313        2.00954875
 C           -0.47805297       -2.74767305        1.59075390
 C            0.23881421       -3.06370341       -0.68185148
 C           -0.69272011       -3.36704701        0.29332575
 C            0.96486376       -1.13742718       -1.98208595
 C           -0.06185610       -1.99835787       -1.55546372
 C            1.72871983        1.15141461       -2.20935740
 C            0.68819907        0.21811880       -2.18947321
 C            2.68500778        2.76623579       -0.79368989
 C            2.50082672        3.00126254        0.61928136
 C            1.51303460        2.44771935       -1.58933439
 C            0.98228397        2.02056892        2.12297073
 C            1.14515800        3.05430976        1.11414902
 C           -0.33449076        0.00223210        2.05883027
 C           -0.25748919        1.39602509        2.20502142
 C           -1.67356718       -1.99392750        1.88368779
 C           -1.59351712       -0.60658141        1.90965431
 C           -2.08355968       -3.23666048       -0.03509222
 C           -2.72698133       -2.63448867        1.11794603
 C           -1.39814140       -1.58344003       -1.68692243
 C           -2.40722407       -2.40422527       -1.16634507
 C           -0.61790855        0.68273594       -2.02759370
 C           -1.67038157       -0.23562850       -1.96789587
 C            0.24546824        2.71844533       -1.08623537
 C            0.10037272        3.22504232        0.21789029
 C           -0.82008080        2.01894561       -1.65027156
 C           -1.35492194        2.17400246        1.83911688
 C           -1.16295521        3.16681570        0.78863512
 C           -2.72976747        0.16219562        1.60150752
 C           -2.64206394        1.54921765        1.62262983
 C           -3.79970728       -1.81835541        0.60317859
 C           -3.70798186       -1.85258202       -0.85320717
 C           -3.83629009       -0.42254576        0.97238271
 C           -2.98622087        0.23338653       -1.98620697
 C           -4.02834016       -0.52940938       -1.33235537
 C           -4.43127157        0.24396326       -0.17102529
 C           -2.10144007        2.47806273       -1.37959282
 C           -2.30900969        3.09644467       -0.09108480
 C           -3.32279200        2.32259179        0.59309621
 C           -3.23639482        1.61626176       -1.63446904
 C           -4.06360672        1.61740495       -0.43232734




