%chk=000769.chk
%mem=8GB
%Nproc=16
#p B3LYP/6-31G* opt pop=NPA

Template file

0 1
 C            4.28879482        0.40604183        0.43093504
 C            3.79441179       -0.07220133        1.70949339
 C            3.39562301       -1.45738485        1.53491919
 C            4.16552067       -0.68349778       -0.52668405
 C            3.40965281       -1.74338495        0.11058598
 C            3.67128855       -0.13056649       -1.76496853
 C            3.68815871        1.58713725       -0.16580168
 C            3.45159221        1.29426917       -1.56527828
 C            2.73198483        2.30904244        0.53970475
 C            2.69198140        0.62439917        2.34686251
 C            2.27814478        1.85221879        1.84941713
 C            2.15819020       -1.66258076        2.26541643
 C            1.68628965       -0.36111371        2.71512460
 C            1.23727726       -2.55199324        1.74131497
 C            2.24459473       -2.23920336       -0.48066768
 C            1.35420695       -2.93354284        0.34068809
 C            2.45874994       -0.68095002       -2.33428326
 C            1.81912138       -1.76382366       -1.73438103
 C            2.16311561        1.62835946       -2.14960403
 C            1.65222188        0.43319913       -2.80200814
 C            1.57890860        2.86124678       -0.16167511
 C            1.27431182        2.44622717       -1.45797974
 C            0.88265914        2.22478125        1.98216999
 C            0.51258976        3.00984072        0.81658861
 C            0.33065180       -0.03539969        2.60195315
 C           -0.03777565        1.30991448        2.48520149
 C           -0.16919466       -2.32239100        1.99308808
 C           -0.60792677       -1.04640939        2.34337461
 C            0.02199196       -3.26964801       -0.13060081
 C           -0.89610643       -3.06409393        0.98149940
 C            0.54308920       -2.07330056       -2.20084136
 C           -0.35420742       -2.89609907       -1.41027414
 C            0.27460985        0.26391549       -2.92035051
 C           -0.24744510       -1.02536057       -2.83305282
 C           -0.05024283        2.46742653       -1.87854790
 C           -0.55387710        1.35690710       -2.67517164
 C           -0.81660956        2.98949867        0.40709748
 C           -1.10145604        2.86427260       -0.95354612
 C           -1.38208401        1.64089325        2.37169182
 C           -1.76958449        2.59885891        1.34567685
 C           -1.95566629       -0.72437932        2.15938123
 C           -2.37386185        0.58637565        2.37120710
 C           -2.21308386       -2.71105544        0.73137006
 C           -2.79784533       -1.63747592        1.51507172
 C           -1.71345638       -2.44086544       -1.65693656
 C           -1.63968933       -1.22891239       -2.46195486
 C           -2.65835566       -2.52528012       -0.64249599
 C           -1.95138136        1.15403570       -2.32291334
 C           -2.32783767        2.21102514       -1.39393865
 C           -2.44624196       -0.13654442       -2.14788972
 C           -3.11613479        2.26771299        0.91594294
 C           -3.54363857        1.10697333        1.67939333
 C           -3.35462469        1.99002776       -0.48681720
 C           -3.95162455       -1.16995551        0.76652559
 C           -3.74012176       -1.55569644       -0.61884211
 C           -3.59972193       -0.33339848       -1.39038589
 C           -4.28061345        0.24015215        0.78437810
 C           -4.10932383        0.75175579       -0.56818249




