%chk=001179.chk
%mem=8GB
%Nproc=16
#p B3LYP/6-31G* opt pop=NPA

Template file

0 1
 C            3.57182110        1.13390702        1.13854276
 C            3.96591072        0.08910748        0.22478342
 C            3.70192055        0.55231316       -1.13033201
 C            3.12114031        2.27194152        0.35200411
 C            3.11752487        1.87909939       -1.04367746
 C            1.89171608        2.76329440        0.95018749
 C            2.54642263        0.84612726        2.12137640
 C            1.64369575        1.98469773        2.15400791
 C            2.01566905       -0.43720582        2.23859954
 C            3.35460597       -1.21703251        0.36030811
 C            2.44044032       -1.47138838        1.38643289
 C            2.97136381       -0.50154442       -1.81965598
 C            3.05529678       -1.68316577       -0.98354538
 C            1.76927455       -0.19765260       -2.45611919
 C            2.00595345        2.17305087       -1.81973045
 C            1.44248266        1.14112115       -2.67588398
 C            0.81325446        3.10959233        0.14010841
 C            0.89128396        2.91269733       -1.24024043
 C           -0.43724411        3.23566249        0.73760913
 C            0.32927315        1.80023650        2.57534032
 C           -0.65313888        2.63461168        2.04529061
 C            0.84361790       -0.57728300        2.97807587
 C           -0.02979523        0.57619855        3.14668380
 C            0.00877652       -1.75492033        2.82089710
 C            1.71943487       -2.66442853        1.32608362
 C            0.42849467       -2.77488040        1.98214443
 C            2.10957035       -2.68192173       -1.14074981
 C            1.62069462       -3.35388041        0.05039823
 C            0.79803000       -1.19450501       -2.61898120
 C            0.96737149       -2.43839881       -2.00837081
 C           -0.47388309       -0.86254394       -3.08711954
 C            0.06890971        1.51689494       -2.94846245
 C           -0.30528698        2.54789726       -1.98705667
 C           -0.84242316        0.53023420       -3.28046490
 C           -1.64044389        3.01900658       -0.05047378
 C           -1.53322055        2.48366998       -1.33028100
 C           -2.05240399        2.25771391        2.13542517
 C           -2.67109994        2.52517826        0.84700444
 C           -1.40791184        0.10293917        3.08917958
 C           -1.38027967       -1.32229021        2.80131103
 C           -2.39202279        0.90443367        2.52542068
 C           -2.26079438       -1.85878062        1.86788865
 C           -0.50763200       -3.37176892        1.03885502
 C            0.22648190       -3.69696697       -0.16710304
 C           -0.19006200       -3.09893850       -1.42238240
 C           -1.78821051       -2.84994627        0.91453181
 C           -1.62852528       -1.55793461       -2.53818216
 C           -1.43277327       -2.47721748       -1.51106523
 C           -2.28867993       -2.47735608       -0.40310878
 C           -2.22317218        0.69003751       -2.86650085
 C           -2.53258242        1.63356041       -1.80724795
 C           -2.72782890       -0.61309640       -2.46567386
 C           -3.43483144        1.35364415        0.46097761
 C           -3.28032386        0.35649557        1.51047395
 C           -3.20703315       -0.99320176        1.18030672
 C           -3.25787813       -1.40446015       -0.21501351
 C           -3.42393345        0.96111171       -0.87161710
 C           -3.43701724       -0.45376652       -1.21120887




