%chk=000685.chk
%mem=8GB
%Nproc=48
#p B3LYP/6-31G* opt pop=NPA

Template file

0 1
 C            4.32365412        0.65876664       -0.42266512
 C            3.87811508        1.07658593        0.89515372
 C            3.28644706       -0.08089846        1.54714135
 C            4.02336336       -0.75281624       -0.55148179
 C            3.66907932       -1.24632725        0.76645825
 C            3.04950645       -0.92159406       -1.61978276
 C            3.51411727        1.36639603       -1.39391533
 C            2.64876463        0.40134733       -2.05736310
 C            3.06393742        2.26455822        0.72547132
 C            2.89395466        2.48310230       -0.70831613
 C            1.97257363        2.43269283        1.56909453
 C            1.98574116        0.01719594        2.05208709
 C            1.45313125        1.27776740        2.29427863
 C            1.14399475       -1.10125860        2.02624675
 C            2.85063148       -2.35862389        0.81610309
 C            1.71480709       -2.33383670        1.71458441
 C            2.08027208       -1.90044917       -1.45109210
 C            2.30386718       -2.83436489       -0.43880619
 C            0.76470924       -1.63276964       -1.85234310
 C            1.29521993        0.70326903       -2.18992481
 C            0.33835406       -0.30718299       -2.02370514
 C            1.66268571        2.91372178       -1.17873254
 C            0.91494139        2.03464881       -2.06820796
 C            0.83181470        3.20369261        1.10914099
 C            0.70570130        3.48189858       -0.24704641
 C            0.01699917        1.43176160        2.40408235
 C           -0.32676260        2.73172854        1.85036702
 C           -0.25646643       -0.93552754        1.97895255
 C           -0.81375303        0.34239586        2.15470671
 C           -1.10064715       -2.04023303        1.75453671
 C            0.86902551       -3.42755991        1.29027451
 C            1.25324841       -3.75881123       -0.07939495
 C           -0.56054954       -3.24195227        1.30143619
 C           -0.17607696       -2.65552571       -1.78973735
 C            0.05097369       -3.76521726       -0.88111474
 C           -1.05660195       -3.77863851        0.04924847
 C           -1.58365384       -2.32451715       -1.70118704
 C           -2.14834942       -3.07526787       -0.57999801
 C           -1.03635479        0.01430545       -1.98909362
 C           -1.99949399       -1.00858010       -1.89814341
 C           -0.48301415        2.36526732       -1.92620179
 C           -0.59801996        3.36633700       -0.87190877
 C           -1.44175303        1.36275118       -2.00994084
 C           -1.59455876        2.90936808        1.31651870
 C           -1.72885635        3.34744662       -0.06911079
 C           -2.16133358        0.57724657        1.86240064
 C           -2.58328748        1.86861819        1.53035135
 C           -2.45147457       -1.82333663        1.47887318
 C           -3.01610907       -2.40052835        0.25933931
 C           -3.01455757       -0.49796767        1.63927425
 C           -3.30289803       -0.70031860       -1.50499501
 C           -3.84233004       -1.38375349       -0.34646775
 C           -4.08371733       -0.37363111        0.66078234
 C           -2.74008491        1.71047081       -1.64346582
 C           -2.91713966        2.71035103       -0.60586072
 C           -3.58609085        2.05007356        0.49727022
 C           -3.71676648        0.67849362       -1.39674195
 C           -4.23892957        0.87922947       -0.04742958




