%chk=000710.chk
%mem=8GB
%Nproc=16
#p B3LYP/6-31G* opt pop=NPA

Template file

0 1
 C            4.16015516       -1.21792457        0.43433640
 C            3.23299018       -2.33265137        0.39592586
 C            2.29395846       -2.18567401        1.49627741
 C            3.74692771       -0.33922506        1.51194835
 C            2.57618544       -0.92137100        2.15001394
 C            3.64514379        1.00484651        0.97400318
 C            4.01177740       -0.48270433       -0.80891191
 C            3.78547944        0.91212746       -0.47501773
 C            2.69888045       -2.42168271       -0.95003193
 C            3.02341088       -1.17382978       -1.62304645
 C            1.42508911       -2.94324040       -1.09827839
 C            0.96831187       -2.54651797        1.28190530
 C            0.64899340       -3.21445851        0.09962296
 C           -0.04274220       -1.87349232        1.97249811
 C            1.51415880       -0.08966158        2.48899257
 C            0.21954258       -0.61433063        2.53087131
 C            2.68547366        1.85013432        1.51596241
 C            1.69503775        1.29415224        2.42565575
 C            1.99712018        2.80534581        0.66253572
 C            2.94166984        1.65243196       -1.29334053
 C            2.11662076        2.70310321       -0.71908252
 C            2.00832319       -0.43132504       -2.22849032
 C            2.13408511        0.95838116       -2.28621518
 C            0.51377064       -2.32025067       -2.04036539
 C            0.77568500       -1.03502218       -2.50584921
 C           -0.73821118       -3.30597214       -0.31240634
 C           -0.83759619       -2.66695945       -1.62021193
 C           -1.36009849       -2.31524785        1.82487315
 C           -1.72336321       -3.06106418        0.62952380
 C           -2.46926449       -1.43488309        2.15357851
 C           -0.83316329        0.22030107        2.90483556
 C           -2.20192265       -0.14753208        2.59497050
 C            0.54005771        2.17542841        2.39972003
 C            0.69591574        3.06918309        1.26054606
 C           -0.70868681        1.65253596        2.70286790
 C           -0.39629319        3.35130085        0.44681879
 C            0.93828960        2.84586440       -1.56138502
 C            0.97166284        1.78493753       -2.55808403
 C           -0.27408360        3.23004091       -0.99820153
 C           -0.28565880       -0.27188155       -2.98707837
 C           -0.20775703        1.17866583       -2.96286103
 C           -1.88941840       -1.78792699       -1.88077059
 C           -1.65293671       -0.65253913       -2.65776084
 C           -3.00173588       -2.55986184        0.16560340
 C           -3.52222392       -1.65743411        1.17773841
 C           -3.05132940       -1.87161842       -1.11229437
 C           -4.10544480       -0.51811425        0.49388360
 C           -3.88137192       -0.69282948       -0.93354223
 C           -2.83557503        0.99982764        1.95257931
 C           -1.87888095        2.09545232        1.96080634
 C           -1.72126522        2.88471558        0.82580644
 C           -3.66646653        0.81882143        0.85059413
 C           -1.51786243        2.67412837       -1.50832699
 C           -1.48502268        1.68848594       -2.48942847
 C           -2.41082280        0.56973452       -2.42115402
 C           -3.42775864        0.57387527       -1.47543639
 C           -2.44567768        2.55659863       -0.39342141
 C           -3.39208259        1.53680625       -0.38430208




