%chk=000472.chk
%mem=8GB
%Nproc=48
#p B3LYP/6-31G* opt pop=NPA

Template file

0 1
 C            4.37739829        0.89658083       -0.18224080
 C            3.70073050        1.23089617       -1.42415110
 C            3.42316932       -0.00503079       -2.11660162
 C            4.23673181       -0.53525897        0.01997962
 C            3.78985485       -1.10210638       -1.23144399
 C            3.41989363       -0.74272923        1.20484062
 C            3.67100452        1.56247928        0.89627675
 C            3.25797380        0.55216793        1.84933369
 C            2.58883925        2.10323555       -1.10350111
 C            2.64642898        2.41011982        0.31138143
 C            1.33587603        1.87610343       -1.66242479
 C            2.06840385       -0.25229332       -2.57616619
 C            1.07718477        0.70416419       -2.39376646
 C            2.67106320       -2.01814875       -1.20269158
 C            1.74929909       -1.62553581       -2.25376773
 C            2.33459226       -1.62485394        1.15771397
 C            2.13247824       -2.42278609        0.01415546
 C            1.32654802       -1.50163856        2.12819734
 C            2.10380086        0.79162661        2.57577022
 C            1.18946587       -0.30662823        2.82853654
 C            1.43992723        2.56275888        0.98959894
 C            1.28777072        1.94873410        2.23662634
 C            0.25781583        2.56518578       -1.11321107
 C            0.29451085        2.88420935        0.25496733
 C           -0.95335329        2.49593162       -1.79397621
 C           -0.24747091        0.30406716       -2.57554802
 C           -1.23474149        1.28577151       -2.53921145
 C            0.41196021       -1.98598086       -2.10905095
 C           -0.58595307       -1.04752375       -2.40377606
 C            0.99569749       -3.21633205       -0.07161338
 C            0.12460266       -3.02476537       -1.22247114
 C            0.24540215       -2.37566026        2.12962887
 C            0.15799348       -3.37632654        1.09328956
 C           -1.09153807       -1.83705711        2.34670635
 C           -0.14168494        0.25765755        3.00155262
 C           -0.04848537        1.68711152        2.74982077
 C           -1.24450336       -0.46484048        2.54534114
 C           -0.88846477        3.10299429        0.96142262
 C           -1.12324869        2.33741479        2.17046443
 C           -2.17839037        2.93192757       -1.15605200
 C           -2.15454219        3.20165421        0.26182291
 C           -2.62287833        0.92756126       -2.30509781
 C           -3.19275937        1.92152016       -1.40529010
 C           -1.92306729       -1.42040976       -2.25793787
 C           -2.95783269       -0.40644460       -2.13464189
 C           -1.24325996       -3.26107181       -0.79488088
 C           -1.22357704       -3.44846131        0.64799287
 C           -2.01282599       -2.56199731        1.48810524
 C           -2.26555693       -2.51141679       -1.35845270
 C           -3.80848056       -0.77545093       -1.01506682
 C           -3.08640679       -1.88937798        0.92522575
 C           -3.34137765       -2.04825070       -0.49812250
 C           -2.34219500        0.20917306        1.99378968
 C           -2.35784098        1.60338171        1.96825458
 C           -3.08327698        2.28678947        0.91008801
 C           -3.73050820        1.49653306       -0.12082964
 C           -3.29955680       -0.49074462        1.25621662
 C           -3.93264067        0.14137146        0.10488556




