%chk=000419.chk
%mem=8GB
%Nproc=48
#p B3LYP/6-31G* opt pop=NPA

Template file

0 1
 C            4.04764056       -1.33456089        1.04035550
 C            3.25681794       -2.49266795        0.67361882
 C            3.16205969       -2.52225877       -0.76799348
 C            4.24603912       -0.54153008       -0.16210284
 C            3.66521674       -1.25722161       -1.27598996
 C            3.75342637        0.78749303        0.11302930
 C            3.26208639       -0.53790409        1.97031461
 C            3.23703469        0.81151267        1.47117020
 C            2.02053668       -2.44424155        1.43126139
 C            1.99495883       -1.19542548        2.17596249
 C            0.83651839       -2.85322854        0.83039273
 C            1.85235674       -2.72894082       -1.34283387
 C            0.82198238       -3.18898335       -0.53571943
 C            2.59279210       -0.62026420       -2.02786458
 C            1.55147908       -1.61143794       -2.22262418
 C            3.00422541        1.45337364       -0.85039497
 C            2.22249075        0.68804086       -1.73491042
 C            2.50612764        2.68197022       -0.44275181
 C            2.10961395        1.59384445        1.68688363
 C            2.08536835        2.77000465        0.94808513
 C            0.82376991       -0.43517369        2.15510566
 C            0.88209817        0.96118864        1.98742763
 C           -0.34648515       -2.40697115        1.41274730
 C           -0.38150886       -1.10254515        1.93028419
 C           -1.52058838       -3.03467927        1.02392456
 C           -0.41454742       -3.26654555       -1.16166392
 C           -1.58240873       -3.50216709       -0.34109053
 C            0.21640019       -1.21123171       -2.32304638
 C           -0.74384737       -2.19373038       -2.09352843
 C            0.91251665        1.08601197       -2.03162385
 C           -0.11243535        0.13359809       -2.09456745
 C            1.47816243        3.30678123       -1.24083405
 C            0.59349167        2.43424062       -1.98359607
 C            0.92234683        3.61321290        1.01080852
 C            0.67627200        4.10592336       -0.33592405
 C           -0.32255533        1.68578535        1.89442125
 C           -0.30753273        3.03040335        1.49646354
 C           -1.58046614       -0.38831954        1.97445652
 C           -1.55318020        1.01274999        1.91694448
 C           -2.79222602       -2.41848656        1.32909981
 C           -2.79334692       -1.07606441        1.87206545
 C           -2.69134877       -2.81961007       -0.97291399
 C           -2.12044682       -1.81344876       -1.85779264
 C           -3.57048182       -2.39070536        0.09454604
 C           -1.44461988        0.51037515       -1.82217139
 C           -2.43798537       -0.47252328       -1.66214657
 C           -0.76939660        2.82951373       -1.68644792
 C           -0.71196878        3.83614630       -0.63649705
 C           -1.35947193        3.52335478        0.62128147
 C           -1.76162728        1.85934411       -1.58138708
 C           -2.69071711        1.71340576        1.50093290
 C           -2.51759734        2.78199121        0.54633137
 C           -2.82349535        2.16211835       -0.73067524
 C           -3.93569882       -0.42086457        1.27346715
 C           -4.15426869       -1.07274069       -0.00519060
 C           -3.63599810       -0.16244771       -1.01069528
 C           -3.84144855        0.99114879        1.00203542
 C           -3.81612982        1.15338701       -0.44843899




