%chk=001037.chk
%mem=8GB
%Nproc=16
#p B3LYP/6-31G* opt pop=NPA

Template file

0 1
 C            4.09231822       -1.31216824       -0.09191562
 C            3.79626923       -0.76165082       -1.39687147
 C            3.77789564        0.68885389       -1.27769982
 C            4.07991213       -0.21725816        0.86652242
 C            3.92063543        1.02545935        0.12915629
 C            3.11125294       -0.54594123        1.90244759
 C            3.23361855       -2.35617722        0.42633681
 C            2.79393802       -1.94523373        1.75059226
 C            2.04263681       -2.73606595       -0.31848811
 C            2.56975223       -1.15443656       -2.07192046
 C            1.66369260       -2.02078722       -1.44997209
 C            2.61305340        1.17284473       -2.00666619
 C            2.07029082        0.03758311       -2.73214261
 C            1.74445656        2.07330089       -1.38660837
 C            3.09452184        2.00390020        0.66237510
 C            2.16863087        2.69791181       -0.21559973
 C            2.09491013        0.36678816        2.18636325
 C            2.34292810        1.69853244        1.86819471
 C            0.76936885       -0.08041424        2.38327344
 C            1.41735110       -2.34637493        1.88697654
 C            1.03563309       -3.04723330        0.67118572
 C            0.49821606       -1.46067745        2.43614786
 C           -0.30618552       -3.01029939        0.31834146
 C            0.30825815       -1.94617464       -1.78322057
 C           -0.66147722       -2.53161250       -0.95302015
 C            0.74323027        0.06959857       -3.11117471
 C           -0.08558472       -1.07959383       -2.80410481
 C            0.38501642        2.07535148       -1.74039414
 C           -0.04424524        1.23921441       -2.77303553
 C           -0.56235955        2.76874710       -0.96816321
 C            1.19769080        3.32932905        0.64879320
 C            1.27628858        2.66621988        1.94604926
 C           -0.19159164        3.32629157        0.25382081
 C           -0.29504095        0.84493433        2.43056624
 C           -0.05318610        2.20743612        2.27247687
 C           -0.95364358        2.98179300        1.44234274
 C           -1.61964872        0.40241617        2.36430835
 C           -0.82096343       -1.89829007        2.42119632
 C           -1.19410344       -2.83628331        1.37626341
 C           -1.89931868       -0.94361761        2.53538648
 C           -2.60710709       -2.67941596        1.11601643
 C           -3.05897328       -1.52064186        1.87036402
 C           -2.01433266       -2.39485046       -1.28613885
 C           -3.03160202       -2.51902119       -0.25561516
 C           -1.46154916       -0.62579973       -2.87740696
 C           -1.43584926        0.83112872       -2.84409071
 C           -2.43023402       -1.31796712       -2.16890378
 C           -1.92582534        2.56937209       -1.19443812
 C           -2.37457933        1.52196483       -2.09663848
 C           -2.25127855        2.52967560        1.28020361
 C           -2.61388958        1.24483295        1.85654458
 C           -2.82608009        2.57994821       -0.05261752
 C           -3.84691461       -0.68799930        0.98054044
 C           -3.88051393       -1.34032723       -0.32157007
 C           -3.50345360       -0.58888521       -1.50953668
 C           -3.46163116        0.80040205       -1.45036811
 C           -3.68756666        0.69000072        1.04294655
 C           -3.74303771        1.46136701       -0.18741076




