%chk=000906.chk
%mem=8GB
%Nproc=16
#p B3LYP/6-31G* opt pop=NPA

Template file

0 1
 C           -3.75469434        1.63227837       -0.08816212
 C           -4.02459704        0.38301220        0.58753136
 C           -3.98535811       -0.67009081       -0.41230989
 C           -3.53706570        1.32843138       -1.49630561
 C           -3.37374088       -0.10538419       -1.59955926
 C           -2.46817524        2.17749671       -1.96183456
 C           -2.62735151        2.43071332        0.35248988
 C           -2.07031888        3.01918384       -0.84362894
 C           -1.74982630        1.92669078        1.31492616
 C           -3.15000316       -0.02132303        1.66680504
 C           -2.12506908        0.81669113        2.09482840
 C           -3.35912197       -1.83279749        0.18747428
 C           -2.86522841       -1.43869015        1.50412689
 C           -2.54942635       -2.61421405       -0.61892192
 C           -2.16804645       -0.65084973       -2.04921686
 C           -1.94389659       -2.00011811       -1.79704626
 C           -1.26109006        1.55769551       -2.47434375
 C           -1.07865992        0.18130906       -2.35703522
 C           -0.63614231        3.16796109       -0.91817789
 C           -0.17779034        2.43277206       -2.08752355
 C           -0.43110271        2.41573372        1.35925826
 C            0.12052937        3.06860634        0.24425735
 C            0.39509550        2.07057282        2.42693189
 C           -1.21289704        0.26192505        2.98152381
 C            0.01120387        0.96898441        3.28181344
 C           -1.64832148       -1.94129976        1.98246204
 C           -0.89513903       -1.15289740        2.85375692
 C           -1.53599536       -3.42118050        0.02182018
 C           -1.01364065       -2.98424490        1.30348602
 C           -0.61248190       -2.54694920       -1.94952059
 C           -0.42133945       -3.53187556       -0.89763548
 C            0.23199037       -0.32114072       -2.32624668
 C            0.45024220       -1.70690813       -2.25769643
 C            1.11472750        1.93207991       -2.05631332
 C            1.32132003        0.57449242       -2.33541630
 C            1.50278137        3.06817239        0.06438994
 C            2.00543403        2.59092723       -1.21164914
 C            1.82454631        1.95031091        2.21318740
 C            2.38429459        2.55571565        1.10113704
 C            1.09746561       -0.00066829        3.27032163
 C            0.55460256       -1.26982812        2.84489072
 C            2.18515829        0.57200766        2.51313517
 C            0.44156345       -2.99763648        1.20992171
 C            0.80167677       -3.47021491       -0.11958748
 C            1.16754119       -1.96924319        1.81192897
 C            1.72325956       -2.18864066       -1.96765768
 C            1.91807134       -2.92990359       -0.73108735
 C            2.63029145        0.08587884       -2.35693675
 C            2.86505473       -1.31939369       -2.12042889
 C            3.32947822        2.05125444       -0.99462345
 C            3.49966704        1.89386395        0.44153937
 C            3.66454213        0.78955987       -1.61894255
 C            2.82482288       -0.18855909        1.53674451
 C            2.31009100       -1.45081650        1.17759573
 C            2.81934904       -2.12731393        0.06608904
 C            3.64659082       -1.42710001       -0.89496501
 C            3.71577820        0.48059502        0.69475585
 C            4.11935085       -0.10563389       -0.56635610




