%chk=000725.chk
%mem=8GB
%Nproc=16
#p B3LYP/6-31G* opt pop=NPA

Template file

0 1
 C            1.71793874        3.87898017       -0.46668802
 C            0.43650638        4.01665917        0.18743931
 C            0.44220613        3.19860741        1.39185976
 C            2.57003129        3.11886332        0.42135562
 C            1.75813373        2.61875521        1.52105981
 C            3.24832388        2.13886884       -0.39696587
 C            1.50363486        3.06546565       -1.65366683
 C            2.39072103        1.92822319       -1.55545743
 C           -0.56899406        3.71501686       -0.80780362
 C            0.07915444        2.82637766       -1.76201129
 C           -1.80176382        3.32730915       -0.32738277
 C           -0.68277997        2.42213870        1.63493516
 C           -1.85880747        2.88972606        1.05872183
 C           -0.53600773        1.03804815        1.85379493
 C            1.89225414        1.27824973        1.85835157
 C            0.74495963        0.46498347        1.92797874
 C            3.71345884        1.01164601        0.25373431
 C            3.11848006        0.69804554        1.54607262
 C            3.69949010       -0.23866366       -0.47129954
 C            1.89203415        0.64783526       -1.78288388
 C            2.71056384       -0.42931354       -1.44126715
 C           -0.39351399        1.51629017       -1.89081214
 C            0.50816260        0.44266292       -1.94710367
 C           -2.50340189        2.29241108       -1.04574526
 C           -1.74754391        1.27080826       -1.63240343
 C           -3.06127466        2.10705195        1.18919554
 C           -3.59353684        1.95445543       -0.15884569
 C           -1.67010616        0.20344210        1.84116058
 C           -2.94416659        0.77538796        1.73118699
 C           -1.51769239       -1.18821437        1.71471684
 C            0.87384362       -0.93453183        1.95063319
 C           -0.23195806       -1.74172372        1.65523888
 C            3.30505926       -0.71628284        1.76353844
 C            3.90730979       -1.24706801        0.54951047
 C            2.13775838       -1.51888489        2.03950582
 C            3.35975722       -2.56530574        0.33720508
 C            2.36520218       -2.78527702        1.37909071
 C            2.30055464       -1.71643376       -1.76617792
 C            2.72123028       -2.83578136       -0.93517821
 C            0.01313133       -0.86009131       -2.07217320
 C            0.91041066       -1.93311750       -2.13235856
 C           -2.23162096       -0.04564047       -1.62716856
 C           -1.35298476       -1.11086679       -1.88302086
 C           -4.14672636        0.63040532       -0.24242263
 C           -4.00616209        0.03915254        1.07944314
 C           -3.52870313       -0.30429741       -1.15553591
 C           -2.61431363       -1.98762891        1.36395217
 C           -3.82744206       -1.37424188        0.87336712
 C           -3.82844840       -1.58945433       -0.56801822
 C           -1.76964574       -2.42769922       -1.66035942
 C           -2.39548668       -3.09411539        0.46424460
 C           -2.92478873       -2.67923978       -0.82578554
 C           -0.04697698       -3.01412642        1.07452298
 C            1.23635636       -3.43848562        0.76350768
 C            1.54124298       -3.61801432       -0.64640419
 C            0.51731324       -3.23275518       -1.60237503
 C           -1.03462701       -3.49858198        0.23124111
 C           -0.79574970       -3.39003000       -1.19925017




