%chk=000657.chk
%mem=8GB
%Nproc=48
#p B3LYP/6-31G* opt pop=NPA

Template file

0 1
 C            3.97749399        0.61094949        1.39665738
 C            4.09901088       -0.02578057        0.09677485
 C            3.46768011       -1.32969315        0.18042953
 C            3.12328350       -0.22574416        2.22066362
 C            2.89566561       -1.46684305        1.51309044
 C            1.96617680        0.55100163        2.61013052
 C            3.29782056        1.87788017        1.20427969
 C            2.07858676        1.86266750        1.99671956
 C            3.63320909        0.90889195       -0.90817140
 C            3.19099969        2.11682503       -0.22291425
 C            2.90254185        0.41612632       -1.98271499
 C            2.74093160       -1.81555535       -0.90475956
 C            2.53445216       -0.99455568       -2.02161261
 C            1.87407061       -2.87963004       -0.66779393
 C            1.65664237       -2.08737772        1.63449657
 C            1.32226268       -3.03361861        0.66867467
 C            0.72413718       -0.06803293        2.60893741
 C            0.63298804       -1.44134939        2.33967684
 C           -0.41301105        0.73185180        2.50326136
 C            0.93058099        2.45084824        1.47127383
 C           -0.31985962        1.98563477        1.88850286
 C            2.07322009        2.79890070       -0.68363620
 C            1.02564789        3.14624010        0.26469867
 C            1.78422559        1.18160797       -2.51455577
 C            1.41437661        2.37279397       -1.90969991
 C            1.30109008       -1.09365210       -2.79396380
 C            0.75059026        0.24425970       -2.92281191
 C            0.81974121       -3.17440898       -1.61912217
 C            0.44120178       -2.15659336       -2.57826847
 C           -0.05065297       -3.49756868        0.54264461
 C           -0.36701568       -3.55760379       -0.87094122
 C           -0.60679952       -2.06800652        2.44545182
 C           -1.01029920       -3.01151324        1.41706797
 C           -1.65797457        0.17086069        2.76459299
 C           -1.77450230       -1.27356857        2.78622561
 C           -2.83407470        0.69252374        2.09480404
 C           -1.46943575        2.60826829        1.39721861
 C           -2.75595480        1.93159758        1.47200913
 C           -0.17453319        3.38935203       -0.51224217
 C            0.00233944        2.69156395       -1.77797357
 C           -1.40413356        3.30311170        0.12099706
 C           -0.58135293        0.48378617       -2.57905518
 C           -0.96801540        1.77607047       -2.18770726
 C           -0.97853220       -1.89677712       -2.41296119
 C           -1.48378904       -2.77697247       -1.36966520
 C           -1.47341509       -0.59687670       -2.48304866
 C           -2.29081600       -2.55656850        0.89073584
 C           -2.84714611       -1.64434721        1.87515805
 C           -3.48770860       -0.42566834        1.42222476
 C           -2.42919769       -2.27988202       -0.47375026
 C           -2.76136812       -0.39350557       -2.00266387
 C           -3.83843830       -0.31906185        0.08298980
 C           -3.22376403       -1.21006266       -0.89102555
 C           -3.44362246        2.14443738        0.20964584
 C           -2.54142402        2.86814645       -0.66811727
 C           -2.28983431        2.03635388       -1.83286703
 C           -3.93893162        0.99588066       -0.52427316
 C           -3.24536455        0.95238600       -1.80371733




