%chk=000442.chk
%mem=8GB
%Nproc=48
#p B3LYP/6-31G* opt pop=NPA

Template file

0 1
 C            4.06822436       -1.67681231        0.24978509
 C            3.90052666       -0.68993886        1.30218507
 C            4.09925090        0.60685808        0.70216067
 C            3.98278330       -0.97675594       -1.02134330
 C            4.08946048        0.43540496       -0.74704167
 C            2.80190652       -1.45679236       -1.70851929
 C            2.94351206       -2.59089807        0.32276460
 C            2.28428462       -2.59588405       -0.96511366
 C            2.63828446       -0.95688739        1.96935076
 C            2.14559870       -2.23045245        1.47240221
 C            1.72155188        0.07993572        2.18019100
 C            3.14656433        1.65319647        1.00325455
 C            2.07232201        1.40254473        1.86058194
 C            3.06966245        1.32599514       -1.27214365
 C            2.88523924        2.33578717       -0.25078529
 C            1.88973741       -0.55630258       -2.26158463
 C            1.93925464        0.80400467       -1.90949505
 C            0.69309904       -1.09672479       -2.71663369
 C            0.91142605       -2.81791363       -0.99644347
 C            0.21946710       -2.32596685       -2.09919025
 C            0.77464314       -2.39402960        1.37864984
 C            0.22737367       -2.95343259        0.21757689
 C            0.37663813       -0.25846068        2.40090718
 C           -0.02811094       -1.58115129        2.16703778
 C           -0.57504009        0.74748510        2.62240895
 C            1.11338780        2.40385097        1.96638597
 C           -0.24748380        2.06311009        2.33027932
 C            1.76667258        3.14483880       -0.32252985
 C            1.04881356        3.40421486        0.91231960
 C            0.77916217        1.59346288       -1.96341406
 C            0.76393043        2.83979775       -1.32884048
 C           -0.45448491       -0.23962279       -2.92503789
 C           -0.41023404        1.07847786       -2.48775646
 C           -1.23316955       -2.29571833       -2.08783052
 C           -1.64981858       -1.04152919       -2.69618037
 C           -1.14581128       -3.19363383        0.19012538
 C           -1.91064385       -2.78838384       -0.97956150
 C           -1.35049393       -1.96283291        2.34730655
 C           -1.93319664       -2.86068705        1.36729838
 C           -1.92920762        0.42899383        2.64043386
 C           -2.33660830       -0.95735938        2.66544039
 C           -2.82198013        1.14482941        1.74206024
 C           -1.15339140        2.83591992        1.49010115
 C           -0.34600964        3.61767237        0.57330106
 C           -0.49556244        3.38504203       -0.84936541
 C           -2.31428591        2.22539785        1.01857735
 C           -1.60683483        1.77015988       -2.29756578
 C           -1.67535340        2.81672323       -1.29572909
 C           -2.67690939        2.40207372       -0.32123966
 C           -2.81728048       -0.41989403       -2.27164954
 C           -2.85521014        1.02958577       -2.21739195
 C           -3.51981097        1.41936437       -0.98206892
 C           -3.12253662       -2.12645745       -0.51929928
 C           -3.19030697       -2.28159935        0.92337923
 C           -3.45444222       -1.11711042        1.74759084
 C           -3.68834530        0.16298375        1.10387703
 C           -3.52283034       -0.92724127       -1.10433863
 C           -3.88738401        0.21276186       -0.26963952




