%chk=000806.chk
%mem=8GB
%Nproc=16
#p B3LYP/6-31G* opt pop=NPA

Template file

0 1
 C            4.16452722        0.77712175        0.62061534
 C            3.98321768       -0.58156753        1.09272969
 C            3.01456833       -0.53912144        2.18051196
 C            3.40302961        1.64182351        1.50712021
 C            2.46756404        0.80017344        2.22534972
 C            2.87595407        2.72104627        0.70779142
 C            3.78532266        1.11314556       -0.74136647
 C            3.13568046        2.40803978       -0.69303300
 C            3.26766287        0.12985648       -1.57828130
 C            3.54017187       -1.60441117        0.16170800
 C            3.26678463       -1.26554298       -1.16123354
 C            2.10456320       -1.64781604        1.99312708
 C            2.60378264       -2.44456274        0.88703857
 C            0.73484064       -1.43074283        2.08093750
 C            1.09579600        0.97601981        2.03254540
 C            0.23638498       -0.11911400        2.15080441
 C            1.46281240        3.02741636        0.80477954
 C            0.60635706        2.18508355        1.52270335
 C            1.88219259        2.60123666       -1.40448234
 C            1.06675491        3.42023408       -0.53028593
 C            2.03063059        0.37731836       -2.31091150
 C            1.28373880        1.52054266       -2.05528286
 C            2.16975099       -1.92315488       -1.85243232
 C            1.34755464       -0.89031552       -2.47237088
 C            1.69261123       -3.21684166        0.17903359
 C            1.54508927       -3.01065884       -1.25763261
 C           -0.10969168       -2.46344056        1.67564872
 C            0.35415292       -3.37577372        0.72470830
 C           -1.48073094       -2.31366836        1.85695130
 C           -1.14200073        0.09069961        2.15599062
 C           -1.97456634       -1.02142116        2.29339075
 C           -0.76884134        2.33150024        1.30544249
 C           -1.65328979        1.32286614        1.71819765
 C           -0.28528546        3.48465744       -0.78594715
 C           -1.17331278        3.24925071        0.32826943
 C           -0.11156645        1.46859030       -2.13944633
 C           -0.81101838        2.63400174       -1.83537305
 C           -0.04087023       -0.94723025       -2.35235149
 C           -0.76715774        0.22322817       -2.10074350
 C            0.15665268       -3.26975988       -1.59495201
 C           -0.50706772       -3.72225013       -0.38685909
 C           -0.63964104       -2.18579148       -2.14395191
 C           -2.39069616       -2.79651485        0.82282233
 C           -1.84943174       -3.18367102       -0.39351405
 C           -1.94330178       -2.25173980       -1.51374626
 C           -3.36169157       -0.95299694        1.88853139
 C           -3.52119032       -1.89256741        0.79208748
 C           -3.02576682        1.47669070        1.47969641
 C           -3.88806306        0.31450431        1.43933247
 C           -2.47745493        3.12614373       -0.28337171
 C           -2.24109694        2.57848761       -1.61545411
 C           -3.45665729        2.28895968        0.36138817
 C           -2.13353300        0.13697692       -1.76858920
 C           -2.68325791       -1.08472291       -1.35297666
 C           -3.70804995       -1.09675103       -0.40237033
 C           -4.29264789        0.14780857        0.04784808
 C           -2.90255841        1.29593831       -1.66185569
 C           -3.93771059        1.36278671       -0.64828608




