%chk=001041.chk
%mem=8GB
%Nproc=16
#p B3LYP/6-31G* opt pop=NPA

Template file

0 1
 C           -4.22876436        0.35590229        0.33566938
 C           -3.59379204        1.12351932        1.38745284
 C           -2.89956650        0.19442370        2.26757265
 C           -3.92664328       -1.04731656        0.56498975
 C           -3.01274314       -1.13141823        1.69460794
 C           -3.52708790       -1.63705689       -0.70350153
 C           -3.89914613        0.66240004       -1.04053813
 C           -3.47894984       -0.56979598       -1.68872095
 C           -2.89109600        1.66991978       -1.31997237
 C           -2.65046005        2.17174918        1.03528601
 C           -2.40231994        2.49417374       -0.30352427
 C           -1.57392128        0.72828215        2.52174017
 C           -1.52686664        2.06027308        1.95471683
 C           -0.47032516       -0.09952897        2.36422012
 C           -1.86803578       -1.91190494        1.56982901
 C           -0.66259407       -1.46252127        2.12200867
 C           -2.50361092       -2.57427142       -0.69976714
 C           -1.83382187       -2.86468160        0.55440558
 C           -1.44535655       -2.45725111       -1.68692613
 C           -2.22514520       -0.30938405       -2.38414525
 C           -1.94820844        1.10651224       -2.27584399
 C           -1.17967988       -1.21118737       -2.25228045
 C           -0.63381490        1.55524193       -2.23822107
 C           -1.25564144        3.23106757       -0.58410048
 C           -0.44917772        2.83167738       -1.72578377
 C           -0.30170153        2.57819919        1.56054886
 C           -0.31196569        3.46809630        0.48974974
 C            0.78062912        0.47901399        2.12932445
 C            0.86494804        1.85303793        1.83737867
 C            1.92584232       -0.33172610        2.13218183
 C            0.44754225       -2.29874518        2.08248204
 C            1.77610484       -1.71649772        2.15273779
 C           -0.57289580       -3.50064571        0.21787044
 C           -0.34364987       -3.27043927       -1.20772685
 C            0.48351534       -3.38079289        1.10991378
 C            0.93580382       -2.97834135       -1.65865935
 C            0.13810176       -0.74760713       -2.31046636
 C            0.41328876        0.61982470       -2.15595329
 C            1.17813687       -1.67264940       -2.25489767
 C            1.72441224        1.04188579       -1.85761498
 C            0.89064226        3.32118651       -1.50128751
 C            0.93532165        3.84737419       -0.14270758
 C            1.99122171        2.39525925       -1.63679153
 C            2.09803755        2.43101858        1.53493115
 C            2.17218932        3.39492419        0.45389816
 C            2.94033829        2.76614328       -0.60577844
 C            3.13521419        0.17166257        1.66114984
 C            3.26315278        1.58788926        1.39127381
 C            3.71956895        1.71879983        0.01149743
 C            2.50257940       -1.23772731       -1.85585377
 C            2.71361927        0.09939525       -1.54541101
 C            3.79196317       -0.51349789        0.56030062
 C            3.66260846        0.39127893       -0.56306289
 C            2.65700396       -2.52472561        1.32235912
 C            1.84066730       -3.49000731        0.60825168
 C            2.06896965       -3.30332125       -0.81196504
 C            3.50768016       -1.85388244        0.35382000
 C            3.05787853       -2.25320720       -0.97066655




