%chk=000757.chk
%mem=8GB
%Nproc=16
#p B3LYP/6-31G* opt pop=NPA

Template file

0 1
 C            2.64313850       -3.14536550        0.06780823
 C            3.30108377       -1.92727567        0.50662893
 C            2.64867173       -1.47684847        1.71102536
 C            1.50449789       -3.37255562        0.94113298
 C            1.52274328       -2.36526096        1.97008246
 C            0.32761510       -3.46442559        0.11785252
 C            2.13207262       -2.91345700       -1.27254976
 C            0.71242865       -3.16439860       -1.25438356
 C            3.34536712       -1.01860911       -0.61210270
 C            2.58099387       -1.61195804       -1.70183638
 C            3.19710692        0.34445742       -0.38411378
 C            2.46546022       -0.11197943        1.91066426
 C            2.78423617        0.79886949        0.88612647
 C            1.54743414        0.25382344        2.89495500
 C            0.32454694       -1.79704923        2.39234953
 C            0.44895442       -0.65660419        3.17756059
 C           -0.87070141       -2.93371847        0.57957392
 C           -0.86087393       -2.01308206        1.65158397
 C           -1.87619113       -2.85291027       -0.37333946
 C           -0.13436111       -2.35186678       -2.00325013
 C           -1.49580094       -2.47427624       -1.72404720
 C            1.71205614       -0.79251027       -2.41882823
 C            0.35643275       -1.15050594       -2.55082839
 C            2.93288553        1.11646992       -1.51235185
 C            2.08918122        0.54506421       -2.54836811
 C            2.60067209        2.51719804       -1.38103539
 C            2.49427713        2.15326494        1.08083541
 C            2.37566165        3.04719753       -0.05719439
 C            1.03394306        1.61182001        2.95912066
 C            1.43514145        2.52566883        1.99878402
 C           -0.71649460        0.12957168        3.49170349
 C           -0.37836909        1.53058701        3.29159079
 C           -2.01878292       -1.25369024        1.93783022
 C           -1.93539368       -0.13652580        2.76736016
 C           -3.11315032       -2.19175570       -0.04901043
 C           -3.14317192       -1.34272865        1.11691262
 C           -2.43856387       -1.47187259       -2.18256202
 C           -3.50695258       -1.39231034       -1.20001621
 C           -0.54101433       -0.22844798       -3.09511352
 C           -1.95494108       -0.31367967       -2.77054546
 C            1.11953307        1.55523719       -2.93673484
 C            1.40288738        2.75811427       -2.16875153
 C           -0.20127091        1.18183780       -3.11173564
 C            1.03431731        3.61458524       -0.02887614
 C            0.41606200        3.20553134        1.21189003
 C            0.38030899        3.26907912       -1.27140371
 C           -1.34576942        2.08355892        2.36004009
 C           -2.44351369        1.14075170        2.28706132
 C           -0.88051227        2.69698521        1.19906770
 C           -3.82374315       -0.11521428        0.73621851
 C           -3.92221526       -0.09139037       -0.71214344
 C           -3.25491296        1.14862572        1.16655210
 C           -2.37731913        0.99474841       -2.27682837
 C           -1.22782025        1.87424747       -2.34970326
 C           -0.85698030        2.63231969       -1.23968960
 C           -1.53238690        2.45811731       -0.02164585
 C           -3.22561362        1.09161790       -1.18271748
 C           -2.79289034        1.85292324       -0.02060448




