%chk=000462.chk
%mem=8GB
%Nproc=48
#p B3LYP/6-31G* opt pop=NPA

Template file

0 1
 C            4.21095308        1.32557003        0.74847109
 C            3.81838759        0.32913065        1.72844690
 C            3.94129453       -0.96462435        1.10055748
 C            4.20347954        0.67920195       -0.55366453
 C            4.17712491       -0.74553604       -0.32240442
 C            3.13373015        1.27553513       -1.33393156
 C            3.18444992        2.35116082        0.72824071
 C            2.74025243        2.49296441       -0.64208511
 C            2.52706660        0.71469113        2.26020485
 C            2.18557417        2.02255597        1.73160854
 C            1.51012020       -0.22293523        2.37381247
 C            2.83360769       -1.89694921        1.20977066
 C            1.66843356       -1.53158790        1.88427630
 C            3.20158723       -1.54207180       -1.03649027
 C            2.70647807       -2.52393427       -0.08860960
 C            2.14426029        0.46365109       -1.90443980
 C            2.29271498       -0.93283907       -1.90485086
 C            0.92196545        1.04846170       -2.27273287
 C            1.45716669        2.96251900       -0.84282741
 C            0.67243848        2.37031114       -1.90381726
 C            0.84630618        2.29830635        1.44420704
 C            0.56370563        3.04833823        0.30532076
 C            0.22654083        0.25895488        2.58066073
 C           -0.14931377        1.46000906        1.96169346
 C           -0.73823663       -0.66105090        2.94942564
 C            0.53232336       -2.33391761        1.71268884
 C           -0.64409174       -1.98728339        2.37521081
 C            1.52495040       -3.18175979       -0.38957420
 C            0.43311791       -3.14065555        0.57444278
 C            1.26668356       -1.72794850       -2.40295878
 C            0.94575718       -2.96235864       -1.70246917
 C           -0.12788392        0.26237658       -2.76764613
 C            0.01604320       -1.12015124       -2.80916835
 C           -1.42973704        0.77385199       -2.80153450
 C           -0.68831412        2.79190159       -1.65575596
 C           -0.78669997        3.05378506       -0.22421200
 C           -1.71280669        2.09970625       -2.27343913
 C           -1.49437892        1.68683423        1.62708295
 C           -1.81502888        2.45783678        0.49893519
 C           -2.13146997       -0.26828615        2.94740779
 C           -2.49082592        0.97118857        2.29424389
 C           -1.91064908       -2.23192092        1.70908900
 C           -2.88130381       -1.33328891        2.29810234
 C           -0.81923494       -3.16158785       -0.17144117
 C           -0.49809698       -3.04847586       -1.57440897
 C           -1.07324660       -1.95247683       -2.31323340
 C           -1.90201535       -2.45214561        0.33446111
 C           -2.52165174       -0.09719265       -2.39663721
 C           -2.20545503       -1.32125896       -1.81619861
 C           -2.65397139       -1.61500839       -0.51291614
 C           -2.99796337        2.04113849       -1.59835564
 C           -3.02772126        2.26298531       -0.16527539
 C           -3.57018057        0.72763615       -1.83819034
 C           -3.76267380        0.72386458        1.64303485
 C           -3.85998159       -0.71265412        1.43490590
 C           -3.76508926       -0.93817451        0.00499528
 C           -4.02097290        1.35592714        0.37087847
 C           -4.20751857        0.29767999       -0.61290704




