%chk=000183.chk
%mem=8GB
%Nproc=48
#p B3LYP/6-31G* opt pop=NPA

Template file

0 1
 C            4.45527648        1.07455819       -0.72686813
 C            4.45527648        1.07455819        0.72686813
 C            4.13570677       -0.26962782        1.17021484
 C            4.13570677       -0.26962782       -1.17021484
 C            4.11002237       -1.13017338       -0.00000000
 C            2.94583825       -0.20353909       -2.01059674
 C            3.38145138        1.94350565       -1.17013863
 C            2.50594057        1.17963921       -2.04465918
 C            3.38145138        1.94350565        1.17013863
 C            2.78954544        2.56622847        0.00000000
 C            2.94583825       -0.20353909        2.01059674
 C            2.50594057        1.17963921        2.04465918
 C            1.99515368       -1.21564778        1.89607395
 C            3.21097561       -2.18166991       -0.00000000
 C            2.34083672       -2.34324055        1.15097948
 C            1.99515368       -1.21564778       -1.89607395
 C            2.34083672       -2.34324055       -1.15097948
 C            0.63977765       -0.91688317       -2.11101938
 C            1.14510303        1.44761555       -1.98618597
 C            0.23775762        0.42222358       -2.25344895
 C            1.41310280        2.74223458        0.00000000
 C            0.72734541        2.51127217       -1.19059248
 C            1.14510303        1.44761555        1.98618597
 C            0.72734541        2.51127217        1.19059248
 C            0.63977765       -0.91688317        2.11101938
 C            0.23775762        0.42222358        2.25344895
 C           -0.32365504       -1.92945471        1.97572545
 C            1.30625648       -3.26131689        0.72902269
 C            1.30625648       -3.26131689       -0.72902269
 C           -0.05161133       -3.01684696        1.15612471
 C           -0.32365504       -1.92945471       -1.97572545
 C           -0.05161133       -3.01684696       -1.15612471
 C           -0.90249277       -3.23333819       -0.00000000
 C           -1.66492617       -1.63042757       -2.17559031
 C           -1.12024620        0.74230048       -2.33207974
 C           -2.05053458       -0.27442256       -2.50035542
 C           -0.60770243        2.88420906       -1.24146523
 C           -1.54906695        2.00325322       -1.91272574
 C           -0.60770243        2.88420906        1.24146523
 C           -1.22709927        3.31115539        0.00000000
 C           -1.12024620        0.74230048        2.33207974
 C           -1.54906695        2.00325322        1.91272574
 C           -1.66492617       -1.63042757        2.17559031
 C           -2.05053458       -0.27442256        2.50035542
 C           -2.16840830       -2.65804062       -0.00000000
 C           -2.63239231       -2.13430265       -1.21015664
 C           -2.63239231       -2.13430265        1.21015664
 C           -3.41630917       -0.08531896       -2.03297338
 C           -3.78591137       -1.25200810       -1.24581637
 C           -2.83920774        2.15526115       -1.24988287
 C           -2.60354949        2.85503503        0.00000000
 C           -2.83920774        2.15526115        1.24988287
 C           -3.73906041        1.09853978       -1.25924003
 C           -3.41630917       -0.08531896        2.03297338
 C           -3.78591137       -1.25200810        1.24581637
 C           -4.36477661       -0.79155781       -0.00000000
 C           -3.73906041        1.09853978        1.25924003
 C           -4.32896052        0.66144398       -0.00000000




