%chk=000794.chk
%mem=8GB
%Nproc=16
#p B3LYP/6-31G* opt pop=NPA

Template file

0 1
 C            4.20927482        0.63738047        0.65212636
 C            3.79546097       -0.41245884        1.56425707
 C            2.78153996        0.14284412        2.44808562
 C            3.52723244        1.85665422        1.05325592
 C            2.49516092        1.49375922        2.01133211
 C            3.13317765        2.55304127       -0.15158735
 C            3.99977358        0.46048947       -0.77737330
 C            3.37714630        1.67136169       -1.28337766
 C            3.55649581       -0.76526573       -1.26107988
 C            3.27627282       -1.65399226        1.01876126
 C            3.36341291       -1.88457405       -0.34819940
 C            1.68947240       -0.80245810        2.51686144
 C            2.03646397       -1.96276316        1.72041642
 C            0.38648522       -0.34060683        2.44492225
 C            1.16958479        1.85979041        1.76400673
 C            0.12915552        1.01129472        2.17748113
 C            1.76509007        3.01076492       -0.25525115
 C            0.90684317        2.87084283        0.83161461
 C            2.13419336        1.56674277       -2.03802939
 C            1.26305896        2.61829759       -1.56010667
 C            2.44976282       -0.79075510       -2.20487461
 C            1.60019792        0.30941295       -2.29251142
 C            2.39892345       -2.77334830       -0.96434132
 C            1.89451172       -2.12173895       -2.16691849
 C            1.00827226       -2.64453191        1.06558892
 C            1.24119626       -3.19581762       -0.19771063
 C           -0.61420550       -1.27478730        2.21792714
 C           -0.31550859       -2.42514759        1.46870054
 C           -1.92688925       -0.87336055        2.42779808
 C           -1.19880613        1.44323304        2.06565082
 C           -2.24027493        0.53738898        2.29157688
 C           -0.41230301        3.23657636        0.60340718
 C           -1.46406595        2.63215912        1.39417308
 C           -0.11138722        2.47765205       -1.68597422
 C           -0.87034385        3.20523414       -0.77380122
 C            0.20726816        0.13883878       -2.25624440
 C           -0.62382455        1.26699604       -2.17437671
 C            0.45672496       -2.27320562       -2.16596509
 C            0.14661350       -3.25982328       -1.14959137
 C           -0.36000682       -1.14902995       -2.26858877
 C           -1.32482809       -3.08433480        0.76460475
 C           -1.14388541       -3.29029657       -0.65759866
 C           -3.02222626       -1.63555202        1.86476948
 C           -2.71415806       -2.71081287        0.95224754
 C           -3.48283659        0.64191286        1.53168213
 C           -3.89775429       -0.70516699        1.17446281
 C           -2.68830020        2.76038140        0.61818382
 C           -2.30728449        3.05556210       -0.75575700
 C           -3.62184641        1.65289727        0.59075685
 C           -2.00696871        1.10168107       -2.27115047
 C           -2.89218470        2.04712748       -1.60931233
 C           -3.83257040        1.29003151       -0.80357753
 C           -1.71933777       -1.31153721       -1.98857178
 C           -2.13866409       -2.45105624       -1.29899200
 C           -3.23919752       -2.34897611       -0.35798770
 C           -3.93325663       -1.08333910       -0.23010616
 C           -2.57568511       -0.22115331       -2.09294146
 C           -3.72016613       -0.10445849       -1.19275277




