%chk=001129.chk
%mem=8GB
%Nproc=16
#p B3LYP/6-31G* opt pop=NPA

Template file

0 1
 C            3.75840346        0.39718202       -1.27799394
 C            3.46564352       -0.97334539       -1.62816200
 C            3.52842379       -1.76389370       -0.40812932
 C            3.98299744        0.45265587        0.15757819
 C            3.61459229       -0.83878435        0.70889177
 C            3.32507617        1.64064416        0.66802097
 C            2.78365891        1.41524809       -1.60385573
 C            2.63043415        2.27870358       -0.44465498
 C            1.65044501        1.09664168       -2.34566820
 C            2.20058779       -1.27151654       -2.27143902
 C            1.27989596       -0.25047006       -2.52272042
 C            2.43663563       -2.71825070       -0.44655361
 C            1.73060311       -2.52239057       -1.70469903
 C            1.71007296       -2.94608769        0.71442105
 C            2.66341697       -0.89992955        1.72864153
 C            1.83149036       -2.01652732        1.83084081
 C            2.69891634        1.56753519        1.90080152
 C            2.33068783        0.26055678        2.43252756
 C            1.60737247        2.47938487        2.17200468
 C            1.40216496        2.91693189       -0.24235347
 C            0.91912388        3.09971624        1.05306477
 C            0.68674848        2.09178584       -2.44087571
 C            0.50964222        2.99280921       -1.31072511
 C           -0.61902619        1.77052958       -2.96729467
 C           -0.05802544       -0.59960568       -2.76552723
 C           -1.00691483        0.38103767       -3.02737058
 C            0.37792997       -2.81961524       -1.78364839
 C           -0.51344998       -1.87172957       -2.42962252
 C            0.31594513       -3.34921631        0.61948476
 C           -0.31594513       -3.34921631       -0.61948476
 C            0.51344998       -1.87172957        2.42962252
 C           -0.37792997       -2.81961524        1.78364839
 C            1.00691483        0.38103767        3.02737058
 C            0.61902619        1.77052958        2.96729467
 C            0.05802544       -0.59960568        2.76552723
 C           -0.50964222        2.99280921        1.31072511
 C           -0.68674848        2.09178584        2.44087571
 C           -0.91912388        3.09971624       -1.05306477
 C           -1.60737247        2.47938487       -2.17200468
 C           -1.40216496        2.91693189        0.24235347
 C           -2.33068783        0.26055678       -2.43252756
 C           -2.69891634        1.56753519       -1.90080152
 C           -1.83149036       -2.01652732       -1.83084081
 C           -1.71007296       -2.94608769       -0.71442105
 C           -2.66341697       -0.89992955       -1.72864153
 C           -1.73060311       -2.52239057        1.70469903
 C           -2.43663563       -2.71825070        0.44655361
 C           -1.27989596       -0.25047006        2.52272042
 C           -1.65044501        1.09664168        2.34566820
 C           -2.20058779       -1.27151654        2.27143902
 C           -2.63043415        2.27870358        0.44465498
 C           -3.32507617        1.64064416       -0.66802097
 C           -2.78365891        1.41524809        1.60385573
 C           -3.61459229       -0.83878435       -0.70889177
 C           -3.52842379       -1.76389370        0.40812932
 C           -3.46564352       -0.97334539        1.62816200
 C           -3.98299744        0.45265587       -0.15757819
 C           -3.75840346        0.39718202        1.27799394




