%chk=000344.chk
%mem=8GB
%Nproc=48
#p B3LYP/6-31G* opt pop=NPA

Template file

0 1
 C            4.49475758        1.18448164       -0.25819688
 C            4.49427402        0.00301239        0.58281164
 C            4.41933575       -1.13455203       -0.30773613
 C            3.93488574        0.79466155       -1.54340267
 C            3.95227430       -0.64573027       -1.60213465
 C            2.66486366        1.47419920       -1.69086237
 C            3.58503107        2.14157184        0.34215044
 C            2.59000038        2.48599890       -0.65403204
 C            3.45343080        0.17889943        1.58859599
 C            3.11483958        1.59137867        1.59937818
 C            2.43983858       -0.77845770        1.71462064
 C            3.55457751       -2.22966240        0.06753862
 C            2.63219576       -2.04712701        1.17735807
 C            2.71768440       -1.34542755       -1.90901962
 C            2.73968163       -2.53366655       -1.09423960
 C            1.50373376        0.75927880       -1.99682214
 C            1.50896760       -0.64516012       -2.01762631
 C            0.29050771        1.42113317       -1.83670663
 C            1.32614755        2.84434761       -0.21279995
 C            0.25550193        2.58813198       -1.05995282
 C            1.85028792        1.96584761        2.01997261
 C            1.07612960        2.84561019        1.16092599
 C            1.15484064       -0.38974762        2.12200951
 C            0.92772616        0.93969824        2.47357225
 C            0.05748093       -1.25464469        1.96073287
 C            1.47455679       -2.84061762        0.84756201
 C            1.47601836       -3.00594420       -0.59718629
 C            0.24951171       -2.54105007        1.42451629
 C            0.29591659       -1.34742543       -1.85124881
 C            0.31814683       -2.62259138       -1.25491922
 C           -0.89249166        0.73992397       -2.11390644
 C           -0.92329191       -0.65245622       -1.96497806
 C           -2.07388295        1.47282207       -2.18412150
 C           -0.97415577        3.11090228       -0.68923864
 C           -2.15084610        2.70489563       -1.42926393
 C           -0.30069540        2.75002084        1.61716926
 C           -0.41108583        1.49301072        2.34559619
 C           -1.30881134        3.08481069        0.72554424
 C           -1.25137499       -0.74355697        2.08643000
 C           -1.47014369        0.63862948        2.06239728
 C           -2.34225616       -1.60530616        1.97334278
 C           -0.82994620       -3.14586316        0.79643541
 C           -0.83964480       -3.08979357       -0.65672399
 C           -2.16055974       -2.84271929        1.25600709
 C           -2.13729663       -1.31111276       -1.69468699
 C           -2.11116893       -2.54169059       -1.04902708
 C           -3.00173069       -2.77560972        0.07583571
 C           -3.34482808        0.80204597       -2.02178471
 C           -3.34673031       -0.61469852       -1.73458231
 C           -3.22044765        2.54452143       -0.46347677
 C           -2.57959492        2.39756163        0.83143004
 C           -2.63444984        1.16390516        1.48190862
 C           -4.06533972        1.47167020       -0.94231019
 C           -3.62693069       -1.07609300        1.55187563
 C           -4.03374107       -1.80266589        0.35200956
 C           -4.32073499       -0.81956003       -0.67170834
 C           -3.73533164        0.33837795        1.25957537
 C           -4.46563314        0.45158131        0.00539278




