%chk=000228.chk
%mem=8GB
%Nproc=48
#p B3LYP/6-31G* opt pop=NPA

Template file

0 1
 C            4.54492802       -1.20899185       -0.49246414
 C            3.67630631       -2.22918426        0.06674198
 C            3.39493271       -1.87432353        1.43707702
 C            4.64446804       -0.13441554        0.48109185
 C            3.89024889       -0.52398521        1.65554002
 C            4.28614107        1.09330806       -0.19256464
 C            3.89369782       -0.67182945       -1.67824210
 C            3.88244775        0.76216067       -1.55549840
 C            2.55153926       -2.38935948       -0.82931052
 C            2.62740391       -1.35389634       -1.84163243
 C            1.29391371       -2.65839740       -0.31131269
 C            2.01164808       -1.90542022        1.87099176
 C            1.03972911       -2.48747025        1.05989124
 C            2.76216690        0.29078664        2.08652650
 C            1.70025273       -0.61926848        2.45951894
 C            3.23130059        1.92576867        0.35898042
 C            2.42858177        1.46152687        1.40965265
 C            2.64042435        1.46977093       -1.80747973
 C            2.58151809        2.50602374       -0.79771975
 C            1.46028830       -0.63580487       -2.12883552
 C            1.46361125        0.76943048       -2.10916750
 C            0.23006188       -2.46445731       -1.17750517
 C            0.24745658       -1.30650903       -1.96713374
 C           -0.98651407       -2.98090906       -0.77324918
 C           -0.29280011       -2.30568018        1.44666425
 C           -1.27426174       -2.88485810        0.64207171
 C            0.38421549       -0.19004418        2.37509186
 C           -0.60278856       -1.15492852        2.18472699
 C            1.12603284        1.96164517        1.52255059
 C            0.10431082        1.13906864        2.03578992
 C            1.37010925        3.12730239       -0.60127857
 C            0.79475419        3.05489850        0.72557951
 C            0.24758720        1.46450917       -1.99680653
 C            0.28426227        2.76498003       -1.48582963
 C           -0.94427332       -0.62326019       -2.20851675
 C           -0.97242115        0.76691639       -2.04294964
 C           -2.17357606       -2.59898631       -1.50242088
 C           -2.12864410       -1.35547384       -2.24051323
 C           -2.66477857       -2.49046241        0.78482688
 C           -3.25980030       -2.50562807       -0.54544601
 C           -1.92462950       -0.77367005        2.36971383
 C           -2.99132542       -1.48664531        1.68768270
 C           -1.23815898        1.55717284        2.00668294
 C           -2.23983639        0.64391650        2.34412638
 C           -0.59007579        3.43264204        0.56636319
 C           -0.89169519        3.31753882       -0.85716101
 C           -1.60376861        2.68477874        1.27346345
 C           -2.17651139        1.42343240       -1.71113782
 C           -2.13259275        2.59634586       -0.96800973
 C           -2.72640936        2.59623819        0.35608531
 C           -3.39028511       -0.68536062       -2.01884112
 C           -4.10436564       -1.40619018       -0.97121741
 C           -3.37218615        0.71293333       -1.66177080
 C           -4.03995600       -0.52836778        1.37179597
 C           -3.56509379        0.79139198        1.75605797
 C           -3.73186790        1.67927976        0.61787538
 C           -4.54987701       -0.44032431        0.01416587
 C           -4.22584626        0.88033550       -0.49331240




