%chk=000372.chk
%mem=8GB
%Nproc=48
#p B3LYP/6-31G* opt pop=NPA

Template file

0 1
 C            4.16421975        1.65697321        0.19623518
 C            4.21910256        0.66243654       -0.85765729
 C            4.43621374       -0.60885197       -0.20665721
 C            3.83998137        0.95817405        1.43030709
 C            4.07585946       -0.44427974        1.19974362
 C            2.51326841        1.38025368        1.83575465
 C            3.05563274        2.53999092       -0.10184077
 C            2.18851412        2.56101383        1.05729016
 C            3.03515255        0.83216664       -1.69155183
 C            2.46106587        2.12285098       -1.35718637
 C            2.18230742       -0.25197266       -1.92597753
 C            3.70527271       -1.75302253       -0.70122863
 C            2.62566888       -1.54254020       -1.65516363
 C            3.00834441       -1.38280372        1.48214676
 C            3.10881294       -2.39102006        0.45610692
 C            1.50102504        0.44052344        2.06640721
 C            1.73041670       -0.92752005        1.83455961
 C            0.18630479        0.91501914        2.12539270
 C            0.84769748        2.81286833        0.83087331
 C           -0.06533962        2.22654203        1.69408150
 C            1.09029400        2.28459435       -1.48015804
 C            0.43988617        3.01433550       -0.48644496
 C            0.81408902       -0.01821600       -2.12177341
 C            0.36244410        1.30587219       -2.15289770
 C           -0.11081932       -1.08445611       -2.08297987
 C            1.64877980       -2.56456071       -1.36452945
 C            1.88068906       -2.98580294        0.00824955
 C            0.32193870       -2.37983586       -1.73703858
 C            0.63583734       -1.79364627        1.66088052
 C            0.78454137       -2.93734662        0.84852252
 C           -0.86731021        0.00711481        2.26573957
 C           -0.64943013       -1.35022437        2.01398167
 C           -2.17576958        0.47865043        2.37557079
 C           -1.36478161        2.71388061        1.64952685
 C           -2.45478354        1.86988081        2.08102616
 C           -0.88451101        3.37456583       -0.70589123
 C           -1.78447426        3.39796267        0.43743118
 C           -0.97108684        1.57087718       -2.42871780
 C           -1.58636626        2.73417480       -1.80463031
 C           -1.48978727       -0.82011533       -2.21684254
 C           -1.92955052        0.48769880       -2.38198113
 C           -2.43060244       -1.74174325       -1.75679338
 C           -0.57869241       -3.23681381       -1.10835617
 C           -0.35031518       -3.50805336        0.30220676
 C           -1.99184122       -3.03545033       -1.29403835
 C           -1.74908612       -2.19903364        1.84578623
 C           -1.60223318       -3.35515112        0.99274150
 C           -2.64080752       -3.30441264       -0.02092490
 C           -3.25356824       -0.28494054        1.77933812
 C           -3.48323450       -1.28297917       -0.85930598
 C           -3.06076510       -1.63515836        1.56409124
 C           -3.48901295       -2.17173491        0.28809388
 C           -3.48205079        1.90496686        1.04663943
 C           -3.05794256        2.83630752        0.02207873
 C           -2.90803183        2.35332665       -1.33459252
 C           -3.07602695        0.93742858       -1.60407322
 C           -3.76678868        0.52702719        0.68480294
 C           -3.60835064        0.08420869       -0.63637355




