%chk=000621.chk
%mem=8GB
%Nproc=48
#p B3LYP/6-31G* opt pop=NPA

Template file

0 1
 C            2.81419977       -3.15038206       -0.05635480
 C            3.58645074       -1.93713877       -0.23258780
 C            3.12129464       -1.27373832       -1.43799451
 C            1.82830533       -3.20313445       -1.12110011
 C            1.95813423       -2.00877342       -1.92081239
 C            0.55164573       -3.45969128       -0.50992403
 C            2.09291556       -3.02701994        1.19994706
 C            0.70753434       -3.33011535        0.93146664
 C            3.52735054       -1.19866295        1.01183280
 C            2.40114232       -1.73215183        1.76314167
 C            3.66851224        0.17408277        0.94109023
 C            3.09436829        0.11945941       -1.45409713
 C            3.65398289        0.80557931       -0.37197397
 C            2.15280170        0.75214831       -2.26758868
 C            0.81217108       -1.30076960       -2.27843827
 C            0.98519117        0.00525944       -2.71493457
 C           -0.58706751       -2.89632818       -1.06563518
 C           -0.45844660       -1.72733364       -1.84535057
 C           -1.72710471       -3.04830632       -0.29280499
 C           -0.28491639       -2.63184462        1.61289158
 C           -1.57986496       -2.82778445        1.13543824
 C            1.34548022       -0.88605532        2.10885952
 C            0.04274420       -1.39920577        2.20511583
 C            2.81786914        0.99301556        1.77801923
 C            1.56615483        0.49841565        2.15317503
 C            3.33194441        2.20530173       -0.14983086
 C            2.93231787        2.33547061        1.24527157
 C            1.73232108        2.12193335       -2.00014245
 C            2.30954722        2.83644602       -0.96039424
 C           -0.14265832        0.91058549       -2.74787551
 C            0.29517886        2.20029911       -2.22854578
 C           -1.57886174       -0.89160009       -2.03953088
 C           -1.40685448        0.44971221       -2.41615758
 C           -2.95125927       -2.42542894       -0.72223549
 C           -2.85068311       -1.34697517       -1.67529889
 C           -2.65783727       -1.95484747        1.55555913
 C           -3.61453324       -1.90261493        0.46247831
 C           -0.97242911       -0.56349890        2.66302824
 C           -2.35150678       -0.80424791        2.26734921
 C            0.49838219        1.38111637        2.37332419
 C           -0.75889298        0.87156009        2.67105344
 C            1.77593155        3.19721271        1.29574005
 C            1.45667257        3.59548358       -0.06722069
 C            0.55712978        2.68774958        1.89183440
 C           -0.53301905        2.90347258       -1.34816325
 C            0.01491566        3.50693374       -0.21906530
 C           -0.54268021        3.18221957        1.08538655
 C           -2.34305447        1.40973632       -2.04033962
 C           -1.88420217        2.57399612       -1.30693218
 C           -3.88163104       -0.39542688       -1.30481239
 C           -4.20612083       -0.63210014        0.09461820
 C           -3.60586168        1.01326106       -1.45461733
 C           -2.94647207        0.47568287        1.89780060
 C           -1.93314089        1.50561657        2.08308503
 C           -1.76630154        2.52298074        1.13846822
 C           -2.54890157        2.53135441       -0.01357730
 C           -3.83952081        0.56245067        0.83398252
 C           -3.67876738        1.62664073       -0.13562077




