%chk=000828.chk
%mem=8GB
%Nproc=16
#p B3LYP/6-31G* opt pop=NPA

Template file

0 1
 C            4.16743682       -0.93674492        0.03973814
 C            3.48408711       -2.09313524        0.58620904
 C            2.87512068       -1.68265854        1.84358299
 C            4.04101462        0.13456658        1.01463815
 C            2.98542318       -0.24549783        1.93498097
 C            3.89970318        1.37151058        0.28188581
 C            3.74778359       -0.40532128       -1.24580480
 C            3.73142802        1.04081749       -1.12800177
 C            2.73053068       -1.03445244       -1.95516093
 C            2.45501082       -2.75060727       -0.20161051
 C            2.15295755       -2.28307514       -1.47043646
 C            1.55856668       -2.26472067        1.89862340
 C            1.36767597       -3.06942298        0.70249217
 C            0.49003701       -1.49244936        2.33304794
 C            1.82129469        0.52617557        1.99921586
 C            0.57641202       -0.09261897        2.23380537
 C            2.80970425        2.25747762        0.63373183
 C            1.87642944        1.86732218        1.59690139
 C            2.57267825        1.78181178       -1.60629430
 C            2.32112277        2.80975167       -0.61536143
 C            1.65250639       -0.23849053       -2.52724282
 C            1.49071749        1.09041696       -2.15140672
 C            0.77604133       -2.33144610       -1.92311113
 C            0.48929181       -1.09358435       -2.63361643
 C            0.06481575       -3.20542388        0.22445467
 C           -0.21950848       -2.88275674       -1.11698268
 C           -0.75391830       -2.10148105        2.24042842
 C           -0.93806020       -3.08631769        1.18702043
 C           -1.95489769       -1.30043829        2.29969612
 C           -0.59330457        0.68378341        2.26194223
 C           -1.85180577        0.07775504        2.18681060
 C            0.75306452        2.67025010        1.74841225
 C           -0.50160357        2.06845321        2.15869413
 C            1.08242407        3.42422566       -0.60270103
 C            0.45561823        3.62414284        0.69104135
 C            0.20345024        1.62425709       -2.02895137
 C            0.05019014        2.90080609       -1.48180252
 C           -0.78269252       -0.54619851       -2.52393149
 C           -0.92547511        0.81786863       -2.24093936
 C           -1.53724953       -2.64824678       -1.51567654
 C           -1.83012828       -1.42403780       -2.24722745
 C           -2.33015641       -3.06939638        0.79589294
 C           -2.97856993       -1.99832387        1.53683750
 C           -2.63562017       -2.89595926       -0.60228677
 C           -3.11317664       -0.91903298       -1.78988864
 C           -3.79616483       -1.24040040        0.60757863
 C           -3.57678159       -1.79401805       -0.72155171
 C           -2.94030052        0.78990528        1.68043236
 C           -3.85642830        0.13908659        0.75279867
 C           -1.57807203        2.81356396        1.52097229
 C           -0.97820883        3.63410575        0.48381722
 C           -1.22544140        3.29291291       -0.90898533
 C           -2.76381247        2.15808552        1.22797984
 C           -2.19958076        1.34186624       -2.01209295
 C           -3.29414871        0.44995319       -1.66348070
 C           -3.90084723        0.95909617       -0.44488696
 C           -2.35186262        2.54587682       -1.21108868
 C           -3.27472084        2.23041236       -0.13314125




