%chk=000282.chk
%mem=8GB
%Nproc=48
#p B3LYP/6-31G* opt pop=NPA

Template file

0 1
 C            4.58984668        0.60783464        0.02030078
 C            4.37435406       -0.78173933       -0.34058729
 C            3.82226204       -0.80597102       -1.68169768
 C            3.92937709        1.43064821       -0.98000284
 C            3.51092356        0.56407959       -2.05832238
 C            2.92195504        2.22521988       -0.30214716
 C            3.92375868        0.84469838        1.28856934
 C            3.07253090        2.00659701        1.12746548
 C            3.62684241       -1.41549777        0.73295858
 C            3.30841129       -0.39844868        1.72262886
 C            2.66325973       -2.36226512        0.41705759
 C            2.63979147       -1.61211250       -1.93245384
 C            2.21611387       -2.51263181       -0.96499321
 C            2.12223710        0.59843536       -2.46947999
 C            1.64723217       -0.76525217       -2.57670485
 C            1.63310435        2.32141683       -0.82867284
 C            1.25568424        1.54331953       -1.93778452
 C            0.63484583        2.86337812       -0.01270759
 C            1.93781451        2.08720389        1.92044113
 C            0.74076125        2.69761647        1.36698484
 C            2.02696117       -0.34971848        2.27611220
 C            1.50377867        0.89547441        2.63434418
 C            1.49123174       -2.47801419        1.26615385
 C            1.17241672       -1.45247866        2.15054803
 C            0.81212740       -2.87328100       -0.92817949
 C            0.43800697       -3.07157744        0.46149355
 C            0.29101146       -1.01140578       -2.35379790
 C           -0.08811278       -2.22201892       -1.76503446
 C           -0.09923835        1.37619741       -2.19830843
 C           -0.60224830        0.07169595       -2.33737299
 C           -0.63147563        3.06200654       -0.55122171
 C           -0.94074689        2.40056831       -1.79985161
 C           -1.78758861        2.86224663        0.30451082
 C           -0.39816423        2.16669002        2.10367498
 C            0.08119416        1.04125902        2.89019974
 C           -1.63494423        2.10154805        1.46336955
 C           -0.13309597       -1.38009156        2.63098619
 C           -0.70217157       -0.09148256        2.99143990
 C           -0.89338121       -2.87164310        0.81442025
 C           -1.18029656       -2.16313843        1.98449477
 C           -1.43606688       -2.46063974       -1.53718754
 C           -1.83613713       -2.91048563       -0.21114994
 C           -1.97828408       -0.17709348       -2.22793290
 C           -2.40866280       -1.47543653       -1.96183527
 C           -2.37318765        2.21130256       -1.85629258
 C           -2.91674027        2.63922239       -0.57479630
 C           -2.88049401        0.88336338       -2.11594756
 C           -3.92018849        1.67625506       -0.18359748
 C           -4.06595668        0.74022601       -1.28548455
 C           -2.49932005        1.02409679        1.72036390
 C           -2.06389511       -0.05244338        2.49399925
 C           -2.42172599       -1.40719945        2.10554529
 C           -3.69548401        0.88954486        1.01240408
 C           -3.18702837       -2.43519083        0.02677422
 C           -3.59927986       -1.69682588       -1.15556274
 C           -4.37000409       -0.55482913       -0.71206515
 C           -3.44132414       -1.59845546        1.18290793
 C           -4.20259062       -0.44477728        0.73102351




