%chk=000470.chk
%mem=8GB
%Nproc=48
#p B3LYP/6-31G* opt pop=NPA

Template file

0 1
 C            4.46816764       -0.62917749        0.35404796
 C            3.71628017       -1.64538407        1.06461493
 C            3.23599215       -2.57813312        0.07388824
 C            4.06461623       -0.69106431       -1.04247395
 C            3.38819889       -1.94838484       -1.23434155
 C            3.34835568        0.53447897       -1.34000487
 C            4.04704485        0.66160233        0.86082969
 C            3.70054815        1.47279991       -0.28743696
 C            2.74210920       -0.97540659        1.90668485
 C            3.01605338        0.45155060        1.86538899
 C            1.41751289       -1.39307030        1.89667277
 C            1.85943989       -3.02262770        0.16015992
 C            1.02481934       -2.52292146        1.15986337
 C            2.07573207       -1.94409004       -1.84675747
 C            1.35904446       -3.02079171       -1.19610180
 C            2.02109775        0.49065261       -1.79399005
 C            1.40139603       -0.73808934       -2.07397926
 C            1.24909454        1.65529110       -1.70021209
 C            2.83682258        2.52397896       -0.06387245
 C            1.80072462        2.76001379       -1.04162800
 C            1.95207618        1.35741003        1.89440779
 C            2.13878058        2.55872365        1.21152179
 C            0.45015950       -0.49102722        2.32627617
 C            0.64579823        0.87730342        2.10228657
 C           -0.82399804       -0.97310738        2.58840107
 C           -0.33938201       -2.80686893        1.05578318
 C           -1.20317091       -2.23850667        1.98865932
 C           -0.00800213       -3.07334405       -1.36653214
 C           -0.84160774       -3.21734747       -0.18464577
 C            0.01634746       -0.79073623       -2.26239883
 C           -0.62758253       -2.02695441       -2.15384889
 C           -0.12978992        1.60649370       -1.95558259
 C           -0.74072108        0.38442555       -2.25470799
 C           -0.93563149        2.71448233       -1.67246302
 C            0.93355881        3.72459804       -0.40169090
 C            1.01993663        3.45599072        1.02855286
 C           -0.46164694        3.72800541       -0.75556552
 C           -0.46791705        1.70936858        1.88151141
 C           -0.29006566        3.02096746        1.45253011
 C           -1.21452766        3.54784532        0.47587376
 C           -1.95334076       -0.07490304        2.46232973
 C           -1.75325860        1.15478724        1.84246974
 C           -2.63084006       -2.19008359        1.71903130
 C           -3.11243438       -0.88260799        2.13487896
 C           -2.18190365       -2.82695204       -0.59604317
 C           -2.04349408       -2.07936714       -1.84524159
 C           -3.09951346       -2.42559388        0.36696120
 C           -2.13798076        0.30982205       -2.34354566
 C           -2.81228053       -0.95052322       -2.07191467
 C           -2.31473727        2.49704935       -1.29359008
 C           -2.37006819        2.74533434        0.14070653
 C           -2.72525592        1.68749292        0.97238612
 C           -2.95669427        1.37166406       -1.77773715
 C           -4.02544327       -0.40486815        1.12307033
 C           -4.06555020       -1.38918686        0.05057244
 C           -3.94914422       -0.67869223       -1.21084455
 C           -3.77361275        0.88725246        0.52080730
 C           -3.94011237        0.74042658       -0.91401741




