%chk=000284.chk
%mem=8GB
%Nproc=48
#p B3LYP/6-31G* opt pop=NPA

Template file

0 1
 C            4.55803239       -0.43905077       -0.47314960
 C            4.36536588        0.73981246        0.35184909
 C            3.91310277        0.29486694        1.65564924
 C            3.98554066       -1.57250787        0.23516935
 C            3.64752570       -1.13341033        1.56930505
 C            2.93327686       -2.12710094       -0.59656534
 C            3.79177998       -0.25558768       -1.69255431
 C            2.97101707       -1.43516886       -1.87511984
 C            3.53758842        1.67658484       -0.38821729
 C            3.12621372        1.03498609       -1.62702974
 C            2.61105774        2.44395977        0.29912865
 C            2.74297445        0.92948060        2.24023023
 C            2.24303726        2.08948641        1.66869096
 C            2.29783595       -1.35588853        2.04388392
 C            1.81083246       -0.11810676        2.61609512
 C            1.68910957       -2.43879309       -0.04280174
 C            1.40347549       -2.11656882        1.29695484
 C            0.63083176       -2.69964150       -0.92066915
 C            1.77906008       -1.28497219       -2.56478136
 C            0.64618861       -2.10788311       -2.18028737
 C            1.79517242        1.12151754       -2.04798548
 C            1.26258477        0.06134419       -2.77517440
 C            1.38579023        2.81637709       -0.37765684
 C            0.93022372        2.04593817       -1.44922652
 C            0.82929551        2.38803899        1.82009339
 C            0.45406042        3.18430379        0.66841285
 C            0.43923532        0.11714239        2.55935265
 C           -0.04908079        1.39871270        2.26556730
 C            0.07228015       -2.10898557        1.70891046
 C           -0.40376349       -0.98075974        2.39726758
 C           -0.59251572       -3.10376282       -0.39890950
 C           -0.80965744       -2.93151870        1.01965518
 C           -1.81999178       -2.69131793       -1.06629424
 C           -0.54717677       -1.42953028       -2.65495576
 C           -0.17326161       -0.04857914       -2.92922936
 C           -1.76717415       -1.68924874       -2.03538554
 C           -0.44669941        2.02021291       -1.72302135
 C           -0.99966675        0.96741099       -2.47226346
 C           -0.88418208        3.26365365        0.34264784
 C           -1.27604159        2.88646017       -1.00097386
 C           -1.42178421        1.57815209        2.04410836
 C           -1.84457777        2.62802845        1.22531890
 C           -1.76647552       -0.78469200        2.58784991
 C           -2.30593826        0.54008377        2.34627015
 C           -2.23739905       -2.82072491        1.24011006
 C           -2.87095704       -2.67737712       -0.06229677
 C           -2.71951961       -1.75813225        2.09177391
 C           -3.54533406        0.38313668        1.59132478
 C           -3.77299766       -1.54462587        0.00160332
 C           -3.75104254       -1.03871071        1.36549251
 C           -2.75150576       -0.69880381       -2.07222462
 C           -2.35772648        0.66765597       -2.37930441
 C           -3.79213048       -0.64103850       -1.05202029
 C           -2.70891705        2.66578191       -0.95042008
 C           -3.06682686        2.49223594        0.45196902
 C           -3.84385860        1.27471746        0.56942626
 C           -3.26469146        1.56052091       -1.69129401
 C           -4.06159536        0.76188568       -0.77429862




