%chk=000193.chk
%mem=8GB
%Nproc=48
#p B3LYP/6-31G* opt pop=NPA

Template file

0 1
 C            4.49818953        0.74918182        0.21635340
 C            4.42265770        0.01896532       -1.03448745
 C            3.85374958       -1.28655709       -0.75011798
 C            3.94649877       -0.09814332        1.25979515
 C            3.48672364       -1.32854241        0.64959122
 C            2.98290229        0.69100295        1.99941324
 C            3.63126379        1.90798468        0.10271334
 C            2.81609977        1.96042400        1.30038095
 C            3.48646394        0.71603963       -1.90090401
 C            2.94376204        1.83892583       -1.17119486
 C            2.80869567       -1.52279490       -1.72278035
 C            2.55711128       -0.26369059       -2.41342144
 C            1.70169252       -2.27509099       -1.34322366
 C            2.21579081       -1.78905599        0.97471984
 C            1.49138969       -2.51656975        0.02099281
 C            1.84145421        0.06467736        2.49387707
 C            1.55074588       -1.24176129        2.08011187
 C            0.79670227        0.89194423        2.89895941
 C            1.52751359        2.47685592        1.20029652
 C            0.65434792        2.17825464        2.24082834
 C            1.56664627        2.03000120       -1.16749328
 C            0.99634843        2.68886542       -0.07781933
 C            1.23040400        0.10397568       -2.61898115
 C            0.74170264        1.27569464       -2.01918197
 C            0.59675436       -2.20121459       -2.18415886
 C            0.34630650       -0.93725845       -2.85578977
 C           -0.67978449       -2.74679090       -1.75969045
 C            0.33928104       -3.18812119        0.42448278
 C           -0.80172868       -3.26065061       -0.47567626
 C            0.37972916       -1.84861825        2.52664162
 C           -0.16896794       -2.95374240        1.76280542
 C           -0.53379733        0.34347807        3.10335838
 C           -0.73247543       -1.01719322        2.95873267
 C           -0.76158559        2.45303417        2.08843362
 C           -1.49163725        1.26817308        2.52104162
 C           -0.30770362        3.14824922       -0.20636468
 C           -1.18553106        3.12652751        0.95404419
 C           -0.63588553        1.54864475       -2.03042209
 C           -1.08270492        2.67767080       -1.33855291
 C           -1.07615291       -0.68981704       -2.82148188
 C           -1.72089735       -1.88687369       -2.29888104
 C           -1.54830255        0.56158774       -2.44433508
 C           -2.92564465       -1.75920287       -1.62147136
 C           -2.00901964       -3.00159436        0.29780741
 C           -1.60779892       -2.76571076        1.67325623
 C           -1.93012330       -1.48744847        2.28614608
 C           -3.01766139       -2.20993489       -0.24014322
 C           -2.55185724        0.79301500        1.74639682
 C           -2.74237923       -0.59044371        1.59069039
 C           -3.51675684       -1.08874246        0.53985674
 C           -2.53485418        2.89013764        0.47631172
 C           -2.47831639        2.81612789       -0.97463040
 C           -3.23447737        1.70409292        0.93605233
 C           -2.91231565        0.68031787       -2.16871501
 C           -3.63654972       -0.49410429       -1.71291380
 C           -4.15988070       -0.18573482       -0.39154465
 C           -3.40923012        1.79399115       -1.39036804
 C           -4.01690732        1.23756214       -0.18934615




