%chk=000021.chk
%mem=8GB
%Nproc=32
#p B3LYP/6-31G* opt pop=NPA

Template file

0 1
 C            4.43500942        1.73091408       -0.55093391
 C            4.52290746        0.41879922       -1.17185780
 C            3.57410960        0.37983167       -2.27230008
 C            3.59548754        2.56228865       -1.39785659
 C            3.00469515        1.70747826       -2.41252381
 C            2.82501208        3.56772218       -0.83324737
 C            2.76343910        3.70653830        0.61419286
 C            4.34277440        1.83706909        0.83320442
 C            3.41755711        2.78895274        1.42431143
 C            4.31291289        0.63528873        1.64944780
 C            4.67735763       -0.70890413       -0.37976149
 C            4.57056593       -0.59803336        1.06806604
 C            4.02237568       -1.94314976       -0.77759579
 C            2.75190288       -0.73516998       -2.43245691
 C            3.11736266       -1.94393463       -1.83406367
 C            1.46040620       -0.56764349       -2.95074635
 C            1.65461915        1.82195461       -2.71342743
 C            0.99597017        0.71787785       -3.24365090
 C            1.49197723        3.81337085       -1.35753743
 C            0.91031300        2.90246661       -2.22811335
 C            1.40928674        4.10257482        0.95676094
 C            0.68790429        4.35107960       -0.28071185
 C            0.74284037        3.46075082        1.99620573
 C            2.65819834        2.09377201        2.45161005
 C            3.19778569        0.75442985        2.57462078
 C            1.28435266        2.28893646        2.52793982
 C            2.33234230       -0.32057911        2.73641827
 C            3.84608111       -1.76301390        1.54523900
 C            3.69105400       -2.68072035        0.42958621
 C            2.78803298       -1.60522431        2.43319151
 C            2.60077827       -3.54847797        0.41546149
 C            2.29428211       -3.05111493       -1.97537425
 C            2.02918741       -3.88563599       -0.81110545
 C            0.62386594       -1.67574850       -3.12974079
 C            1.06189038       -2.93260786       -2.72797079
 C           -0.72483857       -1.49742883       -3.44989443
 C           -0.28217709        0.89309341       -3.74980658
 C           -1.18055770       -0.24063116       -3.82306206
 C           -0.47702634        2.89807000       -2.36607139
 C           -1.04625331        2.04543218       -3.30803348
 C           -0.68768351        4.14495110       -0.29254575
 C           -1.27824424        3.50138720       -1.38660919
 C           -0.62041484        3.68509287        2.11209807
 C           -1.34414760        4.14251850        0.93676966
 C           -1.44507286        2.69142629        2.76662008
 C            0.44696010        1.20933628        2.83456529
 C            0.96455386       -0.08770065        2.92306857
 C           -0.92358836        1.42136464        2.99542705
 C            0.10791643       -1.15905415        3.18133476
 C            1.94298957       -2.68631928        2.62429213
 C            1.85392312       -3.70167987        1.58311865
 C            0.60712980       -2.45767656        3.13402915
 C            0.46544772       -4.12911375        1.50659142
 C           -0.23250485       -3.52763600        2.62789707
 C            0.63564264       -4.29975269       -0.87432898
 C            0.11117248       -3.87042245       -2.15793183
 C           -0.15857395       -4.21346500        0.26548315
 C           -1.66528416       -2.43089352       -3.01910863
 C           -1.24052387       -3.60365775       -2.27603175
 C           -2.91071968       -1.95843659       -2.43507654
 C           -2.48626068        0.19755530       -3.35684146
 C           -2.43377328        1.63773133       -3.17977719
 C           -3.17853869       -0.59621185       -2.44446935
 C           -2.65493204        3.27444864       -1.37977569
 C           -3.22177344        2.22484874       -2.20767557
 C           -2.70763824        3.65293562        1.03719768
 C           -2.78966875        2.83161727        2.23545072
 C           -3.37248224        3.26412920       -0.11669836
 C           -3.63242176        1.73298158        2.26300673
 C           -1.79000868        0.33254068        3.10810710
 C           -1.27311993       -0.95969786        3.19234536
 C           -3.15578404        0.50614973        2.87378016
 C           -1.59229570       -3.30769644        2.53037364
 C           -2.12703988       -2.04960939        3.01492760
 C           -1.52808199       -3.94712691        0.14976620
 C           -2.09017360       -3.71159129       -1.10338331
 C           -3.15558740       -2.72704402       -1.23180521
 C           -2.26931426       -3.60763170        1.27968127
 C           -3.91781884       -0.57616926        2.28148924
 C           -3.40077779       -1.85531677        2.35003817
 C           -3.62392585       -2.08390334       -0.09434596
 C           -3.37478689       -2.66884635        1.14623812
 C           -3.79314715       -0.00322542       -1.33801369
 C           -4.02404718        1.37289403       -1.34792637
 C           -4.22673222        2.08579059       -0.09968670
 C           -4.38249353        1.36079002        1.07093311
 C           -4.00748316       -0.74114969       -0.16483503
 C           -4.40265549       -0.09013480        1.00382400




