%chk=000017.chk
%mem=8GB
%Nproc=32
#p B3LYP/6-31G* opt pop=NPA

Template file

0 1
 C            4.69587820        0.00000000        0.79404050
 C            4.21918635       -1.17241201        1.50782457
 C            3.29715772       -0.72477124        2.53976866
 C            4.21918635        1.17241201        1.50782457
 C            3.29715772        0.72477124        2.53976866
 C            3.93205428        2.33555408        0.80801527
 C            3.93429382        2.32786092       -0.64739714
 C            4.72515623        0.00000000       -0.59698117
 C            4.28271187        1.17425298       -1.33207308
 C            4.28271187       -1.17425298       -1.33207308
 C            3.93205428       -2.33555408        0.80801527
 C            3.93429382       -2.32786092       -0.64739714
 C            2.81686956       -3.15760297        1.23902921
 C            2.09976216       -1.40556171        2.72820539
 C            1.98097130       -2.71715920        2.26079885
 C            0.96286047       -0.70268843        3.14445838
 C            2.09976216        1.40556171        2.72820539
 C            0.96286047        0.70268843        3.14445838
 C            2.81686956        3.15760297        1.23902921
 C            1.98097130        2.71715920        2.26079885
 C            2.78708992        3.09700092       -1.09800619
 C            2.21737560        3.75761292        0.05778717
 C            1.92819270        2.57113722       -2.05398683
 C            3.44685620        0.72491121       -2.43195958
 C            3.44685620       -0.72491121       -2.43195958
 C            2.25659695        1.38526291       -2.72102292
 C            2.25659695       -1.38526291       -2.72102292
 C            2.78708992       -3.09700092       -1.09800619
 C            2.21737560       -3.75761292        0.05778717
 C            1.92819270       -2.57113722       -2.05398683
 C            0.85524998       -4.03850709        0.07645409
 C            0.78517192       -3.39619059        2.44129505
 C            0.23280496       -4.13827341        1.31969800
 C           -0.18926557       -1.41069555        3.50008764
 C           -0.31190144       -2.74131990        3.12240631
 C           -1.35446972       -0.72278917        3.80589774
 C           -0.18926557        1.41069555        3.50008764
 C           -1.35446972        0.72278917        3.80589774
 C            0.78517192        3.39619059        2.44129505
 C           -0.31190144        2.74131990        3.12240631
 C            0.85524998        4.03850709        0.07645409
 C            0.23280496        4.13827341        1.31969800
 C            0.63153021        3.07662304       -2.14100521
 C            0.08239377        3.78064708       -1.06110960
 C           -0.18582920        2.64405738       -3.18148967
 C            1.26933122        0.69965271       -3.42851239
 C            1.26933122       -0.69965271       -3.42851239
 C            0.14341603        1.39898692       -3.84931739
 C            0.14341603       -1.39898692       -3.84931739
 C            0.63153021       -3.07662304       -2.14100521
 C            0.08239377       -3.78064708       -1.06110960
 C           -0.18582920       -2.64405738       -3.18148967
 C           -1.28934081       -4.02835648       -1.02008351
 C           -1.21547733       -4.08719408        1.41952753
 C           -1.55372500       -3.18591918        2.50655331
 C           -1.97023698       -4.06514281        0.26213961
 C           -2.60974507       -1.17340512        3.22339582
 C           -2.59901660       -2.27463881        2.36921877
 C           -2.60974507        1.17340512        3.22339582
 C           -3.40126487       -0.00000000        2.90265462
 C           -1.55372500        3.18591918        2.50655331
 C           -1.21547733        4.08719408        1.41952753
 C           -2.59901660        2.27463881        2.36921877
 C           -1.28934081        4.02835648       -1.02008351
 C           -1.97023698        4.06514281        0.26213961
 C           -1.63059514        2.69930148       -3.04182118
 C           -2.17505572        3.36923827       -1.96285231
 C           -1.09977932        0.69088428       -4.10199065
 C           -1.09977932       -0.69088428       -4.10199065
 C           -2.15154484        1.39058345       -3.38836572
 C           -1.63059514       -2.69930148       -3.04182118
 C           -2.17505572       -3.36923827       -1.96285231
 C           -2.15154484       -1.39058345       -3.38836572
 C           -3.11644254       -3.17773947        0.18097895
 C           -3.38008614       -2.27004762        1.20536391
 C           -3.23653007       -2.73503396       -1.19955558
 C           -4.17888946       -0.00000000        1.76205591
 C           -4.18857005       -1.17408755        0.90864629
 C           -3.38008614        2.27004762        1.20536391
 C           -3.11644254        3.17773947        0.18097895
 C           -3.23653007        2.73503396       -1.19955558
 C           -4.18857005        1.17408755        0.90864629
 C           -2.94405232        0.70094023       -2.47064331
 C           -2.94405232       -0.70094023       -2.47064331
 C           -3.59169888       -1.41172211       -1.45559932
 C           -4.28895431       -0.72410866       -0.47164383
 C           -3.59169888        1.41172211       -1.45559932
 C           -4.28895431        0.72410866       -0.47164383




