%chk=000018.chk
%mem=8GB
%Nproc=32
#p B3LYP/6-31G* opt pop=NPA

Template file

0 1
 C            4.64226249       -1.19295755       -0.35219161
 C            4.59480129        0.12531837       -0.96153476
 C            3.69950603        0.05638740       -2.10521972
 C            3.96111625       -2.11316782       -1.24701514
 C            3.31452161       -1.32902371       -2.28738812
 C            3.29800079       -3.21530784       -0.72677348
 C            3.11857568       -3.34216756        0.71197389
 C            4.48935262       -1.32528249        1.02440497
 C            3.65011544       -2.38396106        1.56137050
 C            4.28773221       -0.14366855        1.84766261
 C            4.56913342        1.25519373       -0.15681852
 C            4.40407547        1.11734357        1.28315546
 C            3.78590435        2.40191278       -0.58112634
 C            2.75231227        1.05650516       -2.29092409
 C            2.94641513        2.30025388       -1.68463137
 C            1.51609004        0.74115876       -2.86611650
 C            2.00862033       -1.63043491       -2.65678618
 C            1.14751457       -0.60149182       -3.05679989
 C            2.07041614       -3.65937750       -1.36051711
 C            1.49998914       -2.90174896       -2.37903171
 C            1.76909610       -3.82630568        0.94974385
 C            1.20422285       -4.20516058       -0.32782203
 C            0.95177319       -3.18548669        1.87096264
 C            2.80289274       -1.80312804        2.58820413
 C            3.17993311       -0.41052600        2.74949124
 C            1.45638034       -2.13716808        2.64798308
 C            2.18281601        0.54936715        2.91924104
 C            3.51185723        2.17365335        1.72899487
 C            3.29637633        3.07500660        0.61002300
 C            2.44320597        1.87772015        2.56958593
 C            2.10507290        3.79401260        0.53841164
 C            2.00443012        3.30073816       -1.86779186
 C            1.57181612        4.07973188       -0.71663693
 C            0.63687891        1.77232945       -3.20989254
 C            0.84604391        3.04487724       -2.69739570
 C           -0.63125654        1.46974694       -3.68007213
 C           -0.10731535       -0.92219107       -3.58440930
 C           -1.01950228        0.08839968       -3.85309677
 C            0.19986906       -3.20894522       -2.75085785
 C           -0.61056134       -2.20451698       -3.40770921
 C           -0.17269255       -4.12613271       -0.50733460
 C           -0.64673074       -3.91240623       -1.80043421
 C           -0.42772257       -3.36986805        1.78428805
 C           -0.99412749       -3.82196407        0.58386003
 C           -1.23052776       -2.80008018        2.76876241
 C            0.57517210       -1.23175846        3.22989781
 C            0.87224171        0.13427069        3.18955602
 C           -0.72345730       -1.64851238        3.49047477
 C           -0.15851210        1.07353927        3.28756985
 C            1.44178936        2.82936886        2.70153745
 C            1.27760481        3.83167730        1.65845293
 C            0.12314202        2.42112948        3.14072513
 C           -0.14681643        4.08610467        1.50699058
 C           -0.85223619        3.26832382        2.48343666
 C            0.14815456        4.34149577       -0.86486929
 C           -0.27979017        3.77473765       -2.13530356
 C           -0.69316179        4.26398692        0.23920976
 C           -1.77500154        2.19526929       -3.14788589
 C           -1.56237795        3.24657299       -2.25795881
 C           -2.38830188       -0.05788777       -3.38082576
 C           -2.82870008        1.22755105       -2.88169300
 C           -1.98126242       -2.36058317       -2.94463153
 C           -2.01555130       -3.47522065       -2.01327450
 C           -2.74127327       -1.21763428       -2.70357046
 C           -2.37263684       -3.73949012        0.38645010
 C           -2.88313350       -3.42892291       -0.93725985
 C           -2.64731479       -2.59121726        2.53134148
 C           -3.20896280       -3.04157891        1.34716155
 C           -1.78327508       -0.66176014        3.55407334
 C           -1.48567245        0.65631908        3.23288114
 C           -2.99668776       -1.27745016        3.04841193
 C           -2.09408637        2.73788028        2.15422711
 C           -2.45034243        1.47212249        2.62918222
 C           -2.04202790        3.98844301        0.04132826
 C           -2.49131767        3.48008084       -1.24701105
 C           -2.78423712        3.28751177        1.07656887
 C           -3.52657089        1.29406376       -1.68558230
 C           -3.54152987        2.50402775       -0.99638533
 C           -3.83830950        2.52830700        0.42542012
 C           -3.52055451       -1.13277599       -1.54487464
 C           -3.76935753       -2.28822827       -0.80293896
 C           -4.11929784       -2.18406931        0.60187576
 C           -3.90647130        0.11576922       -1.03651495
 C           -3.92136071       -0.49224851        2.37763312
 C           -3.68512871        0.93680261        2.26480861
 C           -4.30943692        1.37773451        1.03162629
 C           -4.47823306       -0.94659940        1.11151267
 C           -4.51440015        0.19566011        0.21643470




