%chk=000026.chk
%mem=8GB
%Nproc=32
#p B3LYP/6-31G* opt pop=NPA

Template file

0 1
 C           -4.63346208       -0.98651454        0.13898194
 C           -3.95145969       -1.96209018        0.97444896
 C           -3.41991465       -2.99670817        0.10290612
 C           -4.33239830       -1.30328615       -1.24900518
 C           -3.51301976       -2.50238422       -1.26061934
 C           -4.04656510       -0.28487521       -2.14610050
 C           -4.15788229        1.10334907       -1.72629810
 C           -4.68508259        0.33650766        0.55237262
 C           -4.46572379        1.40789812       -0.40897528
 C           -4.01370617        0.70966782        1.78298880
 C           -3.19699033       -1.54125829        2.06640034
 C           -3.11028683       -0.17791961        2.36577305
 C           -2.25710180       -2.41899371        2.59426899
 C           -2.27946235       -3.69671364        0.48977490
 C           -1.80743167       -3.54795333        1.79139805
 C           -1.42201340       -4.17384218       -0.49924922
 C           -2.38777925       -2.57080648       -2.07520745
 C           -1.48226407       -3.59162410       -1.83169367
 C           -2.87162857       -0.40397100       -2.99386287
 C           -1.96744876       -1.43312978       -2.76840550
 C           -3.11404927        1.85222801       -2.40053692
 C           -2.37581310        0.93085173       -3.25059358
 C           -2.41116997        2.84818206       -1.72567282
 C           -3.72533275        2.46195959        0.26377963
 C           -3.67202532        2.11580682        1.67338045
 C           -2.60578779        3.02558459       -0.35115720
 C           -2.63463647        2.61126608        2.43975754
 C           -1.99436718        0.31911076        3.04805142
 C           -1.84984224        1.68672466        3.24015258
 C           -1.10566270       -1.88346762        3.29430626
 C           -0.90824232       -0.51253428        3.30055632
 C           -0.40055901       -3.77139944        2.08702135
 C            0.01813626       -2.76364321        3.04992461
 C           -0.02477251       -4.43873337       -0.19150280
 C            0.47521878       -4.15274226        1.07374471
 C           -0.12949759       -3.47973720       -2.33497128
 C            0.76166719       -4.10337938       -1.36962244
 C           -0.60758699       -1.22723035       -3.02607669
 C            0.27359896       -2.31136720       -2.96678198
 C           -1.01393409        1.13844630       -3.42458373
 C           -0.12581464        0.06544585       -3.29437076
 C           -1.24202463        3.30838259       -2.31615444
 C           -0.54174057        2.43243677       -3.24257913
 C           -0.24952002        3.99008133       -1.51165677
 C           -1.60301432        3.60246719        0.44124909
 C           -1.70298731        3.53899181        1.83076815
 C           -0.41871469        4.06683755       -0.13797066
 C           -0.51220275        2.23918215        3.36154307
 C           -0.49450424        3.49480581        2.62966577
 C            0.39028755        0.00346197        3.25424616
 C            0.58948771        1.38973329        3.28396675
 C            1.29336293       -2.22701400        2.95183289
 C            1.48742037       -0.86323795        3.18449400
 C            1.83106427       -3.87584768        1.21825940
 C            2.25674041       -2.95163113        2.25575070
 C            2.05277949       -3.60485425       -1.22088718
 C            2.64666398       -3.62260984        0.03902771
 C            1.63652015       -2.10375829       -3.12305753
 C            2.55818726       -2.75390431       -2.20180454
 C            1.25216447        0.30323445       -3.35398879
 C            2.13324999       -0.76951024       -3.38468246
 C            0.87881221        2.66290516       -3.08880788
 C            1.06247137        3.66720097       -2.05219341
 C            1.75425382        1.59052480       -3.14898752
 C            2.15821965        3.57228042       -1.19564684
 C            0.70407647        4.29245937        0.65552090
 C            0.69212764        3.91652985        2.05893303
 C            2.02612511        3.99076885        0.12526782
 C            1.83542418        1.92556409        2.95044515
 C            1.90586364        3.16430873        2.32053853
 C            2.78464036        3.32317036        1.17343908
 C            2.76864451       -0.33563300        3.07001708
 C            2.93757434        1.08861181        2.86300232
 C            3.46914136       -2.29698367        1.79812966
 C            3.63208547       -2.60850329        0.38883124
 C            3.74779015       -1.01730207        2.24214256
 C            3.58876511       -1.78839735       -1.85690421
 C            3.42899647       -0.64739094       -2.73891680
 C            3.92275598       -1.59472400       -0.51973256
 C            3.02364299        1.75761048       -2.60519975
 C            3.21081965        2.72707872       -1.53814637
 C            3.84527306        0.59876692       -2.30698644
 C            3.66239968        2.29406469        0.84421296
 C            3.87966623        1.27335666        1.76798713
 C            4.27860469       -0.04573585        1.30382031
 C            4.27333949       -0.31959190       -0.06079967
 C            3.99455394        2.08649605       -0.49192709
 C            4.34280659        0.74859277       -0.95076272




