%chk=000030.chk
%mem=8GB
%Nproc=32
#p B3LYP/6-31G* opt pop=NPA

Template file

0 1
 C            3.77408954       -2.63294665        0.81439430
 C            2.64233982       -3.24786702        1.48724585
 C            1.92578363       -4.04934860        0.50982995
 C            3.62735341       -2.87921622       -0.61250430
 C            2.42543302       -3.67290449       -0.80170898
 C            3.91776252       -1.87279167       -1.52191904
 C            4.50167150       -0.62420057       -1.05783209
 C            4.23265945       -1.40245337        1.26025041
 C            4.66552255       -0.39915958        0.29960386
 C            3.49879953       -0.72206867        2.31290429
 C            1.91577639       -2.52701698        2.42986377
 C            2.24500421       -1.19321363        2.68604456
 C            0.66378866       -3.00420616        2.78854110
 C            0.55883399       -4.26167081        0.67635718
 C           -0.03046185       -3.91592289        1.89031180
 C           -0.23898456       -4.39770371       -0.45778506
 C            1.51186576       -3.32790280       -1.79172416
 C            0.25582542       -3.91167547       -1.73743227
 C            2.94338005       -1.55545384       -2.55243302
 C            1.68440259       -2.13926132       -2.50445364
 C            3.98901443        0.44256298       -1.89653547
 C            3.06025681       -0.14448175       -2.85167790
 C            3.69495792        1.69241496       -1.35343580
 C            4.34057212        0.90493859        0.84617625
 C            3.70099111        0.70159607        2.13754535
 C            3.87616624        1.92564206        0.01762129
 C            2.70857158        1.58581672        2.53597826
 C            1.25200882       -0.28044008        3.06013110
 C            1.54261598        1.08887319        3.12354605
 C           -0.31331391       -2.08928400        3.34086958
 C           -0.03109770       -0.73380398        3.38049609
 C           -1.45013915       -3.60414194        1.95071358
 C           -1.62762446       -2.51536147        2.90063872
 C           -1.66270328       -4.10519436       -0.39051000
 C           -2.22153264       -3.63517281        0.79242456
 C           -0.84835482       -3.29290123       -2.44058180
 C           -2.05559203       -3.50848817       -1.65867460
 C            0.57133773       -1.42171214       -2.95589588
 C           -0.66216973       -2.06995630       -3.07063290
 C            1.93155525        0.57795357       -3.21527623
 C            0.68250339       -0.05108888       -3.24410583
 C            2.88626686        2.54176144       -2.10576367
 C            1.99149441        1.96054061       -3.09549587
 C            2.19538229        3.65256491       -1.47569639
 C            3.26520277        3.02006380        0.62834948
 C            2.69957967        2.85261111        1.95743956
 C            2.37069357        3.88053015       -0.12508170
 C            1.51162258        3.68353516        2.04332223
 C            1.20636528        4.14838409        0.70200760
 C            0.54564789        1.98379117        3.50641599
 C            0.47299939        3.28563856        2.86382451
 C           -1.08962730        0.16639710        3.43929706
 C           -0.81573658        1.50712549        3.67494507
 C           -2.60380981       -1.55609892        2.65808044
 C           -2.36310560       -0.22479999        3.01086403
 C           -3.38152131       -2.86997520        0.73419731
 C           -3.61692056       -1.85778305        1.75069277
 C           -3.06238129       -2.54759626       -1.68769216
 C           -3.82496769       -2.32854111       -0.54265433
 C           -1.79368713       -1.34650823       -3.41873574
 C           -3.02989685       -1.57253389       -2.68273256
 C           -0.46485894        0.70999855       -3.49601670
 C           -1.68412550        0.07224517       -3.68519673
 C            0.76752557        2.73405709       -3.10076411
 C            0.85858200        3.72181012       -2.03788675
 C           -0.44502156        2.09383418       -3.30836226
 C           -0.07306739        3.96041755        0.17679213
 C           -0.24522887        3.92103069       -1.21031469
 C           -0.88864064        3.45763427        2.39602945
 C           -1.70618227        2.52607568        3.14660192
 C           -1.13458804        3.64161196        1.03560692
 C           -3.31552188        0.74438559        2.70199371
 C           -2.92501353        2.14001660        2.62109567
 C           -4.39088881       -0.78991951        1.14097100
 C           -4.39299247       -1.01095198       -0.29406351
 C           -4.25586646        0.49822092        1.62496879
 C           -3.64161407       -0.27608026       -2.44058256
 C           -2.90290659        0.70629779       -3.21122109
 C           -4.09691902        0.03578736       -1.16259055
 C           -1.59669027        2.74242545       -2.87126208
 C           -1.50041815        3.64927115       -1.73886683
 C           -2.84532345        2.01129390       -2.75772097
 C           -2.39447484        3.32159588        0.52004328
 C           -3.31025782        2.62277098        1.30545151
 C           -4.13873252        1.59915395        0.68496854
 C           -3.99394182        1.34556971       -0.67746715
 C           -2.60883517        3.36759970       -0.85052468
 C           -3.43646742        2.34395398       -1.47363486




