%chk=000024.chk
%mem=8GB
%Nproc=32
#p B3LYP/6-31G* opt pop=NPA

Template file

0 1
 C            4.63647902        0.79705693        0.72749777
 C            3.89634272        1.96676463        1.17165541
 C            3.59179674        2.77163382       -0.00000000
 C            4.63647902        0.79705693       -0.72749777
 C            3.89634272        1.96676463       -1.17165541
 C            4.49427106       -0.39543563       -1.42114720
 C            4.34892484       -1.64808146       -0.69276894
 C            4.49427106       -0.39543563        1.42114720
 C            4.34892484       -1.64808146        0.69276894
 C            3.58905185       -0.44191755        2.55479759
 C            2.94330564        1.85167625        2.18068558
 C            2.68731759        0.60234299        2.75512534
 C            2.01024786        2.87251438        2.31926257
 C            2.44862814        3.56562861       -0.00000000
 C            1.78061302        3.77886942        1.20283087
 C            1.78061302        3.77886942       -1.20283087
 C            2.94330564        1.85167625       -2.18068558
 C            2.01024786        2.87251438       -2.31926257
 C            3.58905185       -0.44191755       -2.55479759
 C            2.68731759        0.60234299       -2.75512534
 C            3.36427184       -2.45183923       -1.39490383
 C            3.13558350       -1.81469761       -2.67881520
 C            2.28336280       -2.99680195       -0.69847486
 C            3.36427184       -2.45183923        1.39490383
 C            3.13558350       -1.81469761        2.67881520
 C            2.28336280       -2.99680195        0.69847486
 C            1.94625612       -2.06601024        3.33520773
 C            1.43829751        0.33613144        3.32813872
 C            1.14308167       -0.94173991        3.78460136
 C            0.72630513        2.57989986        2.92601267
 C            0.40693736        1.26223469        3.20893068
 C            0.37065465        4.13644414        1.20297836
 C           -0.26555396        3.43616624        2.30956550
 C            0.37065465        4.13644414       -1.20297836
 C           -0.31675598        4.27910262       -0.00000000
 C            0.72630513        2.57989986       -2.92601267
 C           -0.26555396        3.43616624       -2.30956550
 C            1.43829751        0.33613144       -3.32813872
 C            0.40693736        1.26223469       -3.20893068
 C            1.94625612       -2.06601024       -3.33520773
 C            1.14308167       -0.94173991       -3.78460136
 C            1.11868354       -3.32443280       -1.39541127
 C            1.02941109       -3.02636588       -2.75600512
 C           -0.03268856       -3.69447812       -0.69805403
 C            1.11868354       -3.32443280        1.39541127
 C            1.02941109       -3.02636588        2.75600512
 C           -0.03268856       -3.69447812        0.69805403
 C           -0.24285352       -1.37748844        3.80369810
 C           -0.26757740       -2.75614587        3.34348858
 C           -0.91420412        0.82361230        3.07611500
 C           -1.24284940       -0.50317209        3.38401933
 C           -1.56313305        2.97160511        2.15418940
 C           -1.90932259        1.71426360        2.65630713
 C           -1.70145431        4.12958756       -0.00000000
 C           -2.34992243        3.56022274        1.16900491
 C           -1.56313305        2.97160511       -2.15418940
 C           -2.34992243        3.56022274       -1.16900491
 C           -0.91420412        0.82361230       -3.07611500
 C           -1.90932259        1.71426360       -2.65630713
 C           -0.24285352       -1.37748844       -3.80369810
 C           -0.26757740       -2.75614587       -3.34348858
 C           -1.24284940       -0.50317209       -3.38401933
 C           -1.23508325       -3.84583558       -1.39158604
 C           -1.39425121       -3.22048606       -2.69161538
 C           -2.49810710       -3.70108759       -0.69007405
 C           -1.23508325       -3.84583558        1.39158604
 C           -1.39425121       -3.22048606        2.69161538
 C           -2.49810710       -3.70108759        0.69007405
 C           -2.47684776       -1.02772322        2.99200258
 C           -2.56612430       -2.36610837        2.61701925
 C           -3.28555102       -2.70810094        1.39981309
 C           -3.21094202        1.25407052        2.48940114
 C           -3.47895073       -0.16758890        2.56651092
 C           -3.57212239        2.91002936        0.72774124
 C           -3.57212239        2.91002936       -0.72774124
 C           -4.02930210        1.79852003        1.41985340
 C           -3.21094202        1.25407052       -2.48940114
 C           -4.02930210        1.79852003       -1.41985340
 C           -2.47684776       -1.02772322       -2.99200258
 C           -2.56612430       -2.36610837       -2.61701925
 C           -3.28555102       -2.70810094       -1.39981309
 C           -3.47895073       -0.16758890       -2.56651092
 C           -3.94082394       -1.69559553        0.70094956
 C           -4.27053598       -0.53633880        1.40214915
 C           -4.61375927        0.68207082        0.69288626
 C           -4.61375927        0.68207082       -0.69288626
 C           -3.94082394       -1.69559553       -0.70094956
 C           -4.27053598       -0.53633880       -1.40214915




