%chk=000043.chk
%mem=8GB
%Nproc=32
#p B3LYP/6-31G* opt pop=NPA

Template file

0 1
 C            4.25365051       -2.23881250        0.51653393
 C            3.49230745       -2.96908112       -0.48364063
 C            2.50001888       -3.77253607        0.21319689
 C            3.60913661       -2.44989230        1.80334902
 C            2.47375539       -3.33119347        1.59288881
 C            3.49193528       -1.39921467        2.70067058
 C            4.04182502       -0.09440105        2.36924333
 C            4.76843324       -0.99135131        0.19552425
 C            4.68375462        0.09944236        1.15622346
 C            4.49371401       -0.43940482       -1.11776834
 C            3.14469270       -2.35468876       -1.68599493
 C            3.50864581       -1.02403797       -1.91260300
 C            2.12050197       -2.91933287       -2.43951137
 C            1.29854251       -4.05639273       -0.42614454
 C            1.23322056       -3.88103361       -1.80705782
 C            0.11544594       -4.09980741        0.31922344
 C            1.24602008       -3.03733971        2.17087794
 C            0.09996306       -3.62207934        1.63621153
 C            2.22758214       -1.18848302        3.38249152
 C            1.12041698       -1.95773691        3.05191869
 C            3.11439735        0.91422955        2.84947920
 C            2.04788419        0.23822722        3.56417762
 C            2.78941474        2.00650040        2.05054793
 C            4.44039688        1.32429289        0.41426324
 C            4.55919888        1.00593535       -0.99706056
 C            3.44700220        2.21047977        0.82980823
 C            3.87368762        1.78397638       -1.91252899
 C            2.72739630       -0.22023218       -2.74925972
 C            3.02028704        1.12938011       -2.88778435
 C            1.30596419       -2.06265057       -3.28178047
 C            1.51309312       -0.69558841       -3.23312042
 C           -0.05679368       -3.78641433       -2.46670209
 C           -0.04981018       -2.57481785       -3.26943631
 C           -1.08342047       -4.38282991       -0.33334972
 C           -1.19836117       -4.11177933       -1.75509493
 C           -2.35088844       -4.03094423        0.28373985
 C           -1.10779916       -3.43959850        2.30305464
 C           -2.36501612       -3.59522568        1.59423787
 C           -0.14575519       -1.46440964        3.35554747
 C           -1.23640015       -2.30548422        3.19855735
 C            0.76637107        0.77162765        3.49649798
 C           -0.34096541       -0.08382799        3.46200917
 C            1.61521783        2.70412060        2.32912719
 C            0.61882806        2.09797111        3.10141719
 C            1.33129090        3.85492317        1.60572049
 C            2.95522908        3.15071510       -0.08170334
 C            3.16926346        2.96462285       -1.44423840
 C            1.95991255        4.03549540        0.31314532
 C            1.94838926        2.04734413       -3.22411754
 C            2.08235728        3.22169488       -2.37392652
 C            0.43359990        0.17894748       -3.38305122
 C            0.67661982        1.55270322       -3.49218584
 C           -1.11364636       -1.68415755       -3.17342008
 C           -0.88214681       -0.31048945       -3.32445274
 C           -2.39829626       -3.31927863       -1.95121094
 C           -3.14947581       -3.32935309       -0.70577555
 C           -2.34333682       -2.14219478       -2.69255179
 C           -3.87456135       -2.19283969       -0.34998643
 C           -3.22457151       -2.48625330        1.96458402
 C           -2.55633463       -1.73695983        3.01741737
 C           -3.94212019       -1.79316641        0.99123275
 C           -1.63251624        0.45560395        3.39254560
 C           -2.72155887       -0.35955547        3.06994261
 C           -0.63043761        2.69220451        3.21991004
 C           -1.79455477        1.84006097        3.38839710
 C           -0.03759247        4.32680375        1.50261145
 C           -1.00226063        3.77535330        2.32550062
 C            0.92199906        4.41103905       -0.63814265
 C            0.93430229        3.86903301       -1.92278733
 C           -0.33351013        4.50470683        0.09182164
 C           -0.38300881        2.44372921       -3.42862612
 C           -0.27548832        3.60833961       -2.56307581
 C           -1.96572512        0.57325658       -3.35715213
 C           -1.73501157        1.94156611       -3.33500908
 C           -3.40057673       -1.25366221       -2.56786827
 C           -4.21574113       -1.29845624       -1.36338939
 C           -3.21202994        0.13531311       -2.92923305
 C           -4.61477218        0.05981343       -1.04322934
 C           -3.94722154        0.95099509       -1.97558933
 C           -4.43504221       -0.53187811        1.32185137
 C           -3.83133581        0.18964936        2.43133662
 C           -4.73520890        0.43536393        0.28037904
 C           -2.87791282        2.43042548        2.62078528
 C           -2.29202335        3.43727348        1.75725389
 C           -3.85827453        1.60442357        2.10512688
 C           -4.20190585        1.71944721        0.69921868
 C           -1.48527972        3.94508464       -0.45564633
 C           -1.52329562        3.72536536       -1.82377002
 C           -2.45198587        2.75593529       -2.36550373
 C           -3.37108284        2.13812630       -1.52774109
 C           -2.42160673        3.32081429        0.37355116
 C           -3.36900583        2.43651020       -0.16092803




