%chk=000049.chk
%mem=8GB
%Nproc=32
#p B3LYP/6-31G* opt pop=NPA

Template file

0 1
 C           -4.84741734        0.47668028       -0.75597928
 C           -4.33553576       -0.65470185       -1.50791931
 C           -4.44944015       -1.81428824       -0.64395351
 C           -4.88552547        0.08185059        0.64506157
 C           -4.48033231       -1.31267568        0.71617244
 C           -4.44638454        0.96111290        1.62252621
 C           -4.06887977        2.31898300        1.26175941
 C           -4.42880101        1.75092613       -1.10516632
 C           -4.06526896        2.70736813       -0.06913615
 C           -3.46883138        1.89495389       -2.18306156
 C           -3.19596796       -0.49976148       -2.29956144
 C           -2.74097514        0.78312053       -2.61021500
 C           -2.37991750       -1.60534538       -2.54676554
 C           -3.66886607       -2.92062164       -0.92234007
 C           -2.75258916       -2.85260020       -2.04389850
 C           -2.95380753       -3.56883324        0.16485318
 C           -3.47869900       -1.70386586        1.60361245
 C           -2.82599428       -2.92236803        1.39405459
 C           -3.50734352        0.48753991        2.62341619
 C           -2.93780643       -0.77191322        2.49645182
 C           -2.96554053        2.71476287        2.11832491
 C           -2.66125214        1.60274569        3.00450450
 C           -1.90986835        3.46650970        1.60755010
 C           -2.95414967        3.49898173       -0.57042985
 C           -2.78749011        3.15821039       -1.97234408
 C           -1.82686288        3.69601564        0.22897787
 C           -1.55090185        3.34623341       -2.55787621
 C           -1.45007522        0.95889121       -3.11044192
 C           -0.96028184        2.24567954       -3.29744749
 C           -1.08600600       -1.41676121       -3.03655922
 C           -0.57563717       -0.12515929       -3.16269661
 C           -0.23056458       -2.50693894       -3.16380011
 C           -1.74295186       -3.87059920       -1.82211577
 C           -1.79565133       -4.23429630       -0.41544903
 C           -0.51266143       -3.73043751       -2.43445318
 C           -0.61952832       -4.31832251        0.32578753
 C           -1.77782835       -3.28737634        2.23257551
 C           -0.68568990       -4.08508415        1.69789752
 C           -1.68352260       -0.99377408        3.05402003
 C           -1.20130405       -2.28968624        3.11531260
 C           -1.33165967        1.37472157        3.34894300
 C           -0.81049721        0.08026387        3.24231982
 C           -0.76020343        3.54843145        2.38246438
 C           -0.47046568        2.46364696        3.31027174
 C            0.48969253        3.93668409        1.76503260
 C           -0.58530403        3.93109714       -0.37925846
 C           -0.48969253        3.93668409       -1.76503260
 C            0.58530403        3.93109714        0.37925846
 C            0.47046568        2.46364696       -3.31027174
 C            0.76020343        3.54843145       -2.38246438
 C            0.81049721        0.08026387       -3.24231982
 C            1.33165967        1.37472157       -3.34894300
 C            1.20130405       -2.28968624       -3.11531260
 C            1.68352260       -0.99377408       -3.05402003
 C            0.68568990       -4.08508415       -1.69789752
 C            0.61952832       -4.31832251       -0.32578753
 C            1.77782835       -3.28737634       -2.23257551
 C            1.79565133       -4.23429630        0.41544903
 C            0.51266143       -3.73043751        2.43445318
 C            0.23056458       -2.50693894        3.16380011
 C            1.74295186       -3.87059920        1.82211577
 C            0.57563717       -0.12515929        3.16269661
 C            1.08600600       -1.41676121        3.03655922
 C            0.96028184        2.24567954        3.29744749
 C            1.55090185        3.34623341        2.55787621
 C            1.45007522        0.95889121        3.11044192
 C            2.78749011        3.15821039        1.97234408
 C            1.82686288        3.69601564       -0.22897787
 C            1.90986835        3.46650970       -1.60755010
 C            2.95414967        3.49898173        0.57042985
 C            2.66125214        1.60274569       -3.00450450
 C            2.96554053        2.71476287       -2.11832491
 C            2.93780643       -0.77191322       -2.49645182
 C            3.50734352        0.48753991       -2.62341619
 C            2.82599428       -2.92236803       -1.39405459
 C            2.95380753       -3.56883324       -0.16485318
 C            3.47869900       -1.70386586       -1.60361245
 C            2.75258916       -2.85260020        2.04389850
 C            2.37991750       -1.60534538        2.54676554
 C            3.66886607       -2.92062164        0.92234007
 C            2.74097514        0.78312053        2.61021500
 C            3.46883138        1.89495389        2.18306156
 C            3.19596796       -0.49976148        2.29956144
 C            4.06526896        2.70736813        0.06913615
 C            4.06887977        2.31898300       -1.26175941
 C            4.44638454        0.96111290       -1.62252621
 C            4.42880101        1.75092613        1.10516632
 C            4.48033231       -1.31267568       -0.71617244
 C            4.44944015       -1.81428824        0.64395351
 C            4.33553576       -0.65470185        1.50791931
 C            4.88552547        0.08185059       -0.64506157
 C            4.84741734        0.47668028        0.75597928




