%chk=000067.chk
%mem=8GB
%Nproc=32
#p B3LYP/6-31G* opt pop=NPA

Template file

0 1
 C            3.48860702        2.34732660        1.72852278
 C            4.32746123        1.43360420        0.96855559
 C            4.33324836        0.15477208        1.66404849
 C            3.11524295        1.68471213        2.96578961
 C            3.49273830        0.28748019        2.84347289
 C            1.90710449        2.00333982        3.55828689
 C            1.04805116        2.97541944        2.90733277
 C            2.56233952        3.13750430        1.05305949
 C            1.27722880        3.30147067        1.57572086
 C            2.80259305        3.42837357       -0.28028499
 C            4.28251158        1.46606628       -0.42231315
 C            3.66762251        2.54709247       -1.05193956
 C            4.47528945        0.28612450       -1.13816891
 C            4.29878961       -1.02975982        0.93501077
 C            4.51574337       -0.98902936       -0.43774485
 C            3.69729703       -2.15117188        1.49906953
 C            2.56848264       -0.71293087        3.13280168
 C            2.80595318       -1.98694522        2.63792567
 C            1.05488434        0.92482180        4.02373832
 C            1.28692843       -0.36865668        3.57140696
 C           -0.30353443        2.71355085        3.35330366
 C           -0.29939483        1.43578713        4.05176335
 C           -1.36925940        3.01016837        2.51610243
 C            0.18742598        3.51687656        0.72177800
 C           -1.11735860        3.50659293        1.23395809
 C            1.70116731        3.83260081       -1.13085607
 C            0.40393898        3.81206453       -0.63060478
 C            3.04323461        2.35210629       -2.34867834
 C            1.95686494        3.30778250       -2.46118885
 C            3.76296443        0.08408830       -2.39142565
 C            2.87973901        1.05754176       -2.82988576
 C            3.90507215       -1.99054556       -1.29899620
 C            3.38208281       -1.31045754       -2.47378564
 C            3.14093971       -3.18671347        0.64177625
 C            3.17383187       -3.03595601       -0.74271795
 C            1.69737692       -2.90362351        2.47534458
 C            1.93785432       -3.69657915        1.28492095
 C            0.19837529       -1.20550890        3.29822146
 C            0.40840928       -2.46715627        2.73351134
 C           -1.36370331        0.56668154        3.85503702
 C           -1.10731325       -0.77942683        3.57924099
 C           -2.59006761        2.39711361        2.78908795
 C           -2.58713108        1.12297637        3.48862076
 C           -3.62401663        2.34124301        1.77048088
 C           -2.18954719        3.74391719        0.37948765
 C           -3.44129199        3.03859625        0.59070098
 C           -0.66286766        3.80117491       -1.53113039
 C           -1.96203266        3.80831902       -1.05033572
 C            0.87903479        2.99926755       -3.27242728
 C           -0.45208175        3.38434480       -2.84160248
 C            1.65559688        0.67623776       -3.38231492
 C            0.78453200        1.66057972       -3.82984905
 C            2.12098561       -1.65348295       -2.94426115
 C            1.20449410       -0.64200569       -3.25007277
 C            2.18504769       -3.64030322       -1.51468590
 C            1.66805412       -2.93798127       -2.68083419
 C            0.85595977       -4.08187478        0.50213079
 C            1.06006447       -4.28518996       -0.86027399
 C           -0.65342471       -3.14734623        2.14809678
 C           -0.44253317       -3.89940618        0.98722672
 C           -2.17693749       -1.63340722        3.31493368
 C           -1.94466211       -2.85615449        2.56685539
 C           -3.62107520        0.29143058        2.89822987
 C           -4.10373705        0.97204157        1.70950094
 C           -3.43891929       -1.07754798        2.85560535
 C           -4.11921642        0.30288601        0.48573909
 C           -3.80296197        2.40394589       -0.66414835
 C           -2.96347197        2.97640457       -1.70399498
 C           -4.09704189        1.04374316       -0.69943945
 C           -1.39228549        2.45730916       -3.44599576
 C           -0.62042485        1.34873765       -3.99047862
 C           -2.60078529        2.19742347       -2.80282635
 C           -0.16410946       -0.93715849       -3.37369117
 C           -1.06561926        0.05200456       -3.77987387
 C            0.25665819       -3.23969992       -2.79463126
 C           -0.06429486       -4.22670665       -1.77798817
 C           -0.64223146       -2.21361740       -3.05410565
 C           -1.52403769       -4.23686250        0.17591460
 C           -1.34869367       -4.26126997       -1.26431324
 C           -3.05612656       -3.02902364        1.64755593
 C           -3.81227625       -1.79264339        1.65025897
 C           -3.98849466       -1.09251507        0.45646140
 C           -2.83460546       -3.67070127        0.44364910
 C           -1.99220575       -2.40263351       -2.74897357
 C           -2.35875467       -3.38872908       -1.83703151
 C           -3.84992574       -1.76752333       -0.76070698
 C           -3.30329972       -3.05029717       -0.78428948
 C           -4.02211979        0.38943371       -1.91926126
 C           -3.20026373        0.95214688       -2.98074757
 C           -2.42358088       -0.13290239       -3.55989974
 C           -3.86718859       -1.04982287       -1.95023438
 C           -2.89291669       -1.37395935       -2.98122731




