%chk=000031.chk
%mem=8GB
%Nproc=32
#p B3LYP/6-31G* opt pop=NPA

Template file

0 1
 C            4.87900222       -0.35445966        0.66595614
 C            4.53870295       -1.27130762       -0.41003072
 C            4.01359800       -2.48484371        0.19327362
 C            4.35192292       -0.90844784        1.90391883
 C            3.75875235       -2.19759529        1.59557936
 C            3.72717768       -0.08015415        2.82340280
 C            3.66769580        1.35388332        2.58610391
 C            4.81166189        1.01129509        0.43410850
 C            4.22298572        1.88997499        1.43451416
 C            4.37055740        1.47643915       -0.86724837
 C            3.96071046       -0.78953723       -1.58179261
 C            3.74444553        0.58340728       -1.73550811
 C            3.27932683       -1.68495031       -2.39845108
 C            3.09845938       -3.25982694       -0.51425735
 C            2.86549364       -2.97162513       -1.85656895
 C            2.16082788       -4.00133447        0.19967761
 C            2.52984460       -2.55541535        2.14255229
 C            1.86542557       -3.63501773        1.57708340
 C            2.45706408       -0.49137562        3.39526386
 C            1.81655793       -1.63442497        2.91733605
 C            2.36853570        1.82439254        3.02981530
 C            1.67366109        0.70716202        3.63754917
 C            1.64069644        2.71107888        2.24610144
 C            3.51437495        2.94622062        0.73169492
 C            3.81815695        2.80577047       -0.68051707
 C            2.22064242        3.29802848        1.11457885
 C            2.90689556        3.28531121       -1.60444214
 C            2.72881318        1.03954688       -2.58222254
 C            2.43921586        2.39560090       -2.65228437
 C            2.21094586       -1.19405616       -3.24792869
 C            1.83633308        0.13390367       -3.14521440
 C            1.59273155       -3.32204363       -2.46798797
 C            1.18841249       -2.21646337       -3.32371912
 C            0.91377496       -4.40553174       -0.43103832
 C            0.62476417       -3.99806504       -1.73103780
 C            0.44050565       -3.78799088        1.78474003
 C           -0.12946404       -4.36775585        0.58484528
 C            0.42158094       -1.71651024        3.01023375
 C           -0.26413217       -2.79208406        2.43856460
 C            0.29454022        0.62862983        3.51788862
 C           -0.29454022       -0.62862983        3.51788862
 C            0.26413217        2.79208406        2.43856460
 C           -0.42158094        1.71651024        3.01023375
 C           -0.44050565        3.78799088        1.78474003
 C            1.42343374        4.01735709        0.21890029
 C            1.75729034        4.03735212       -1.13237028
 C            0.12946404        4.36775585        0.58484528
 C            1.09573847        2.80813657       -3.01546899
 C            0.70604694        3.89119951       -2.12471776
 C            0.49824089        0.49334032       -3.31946399
 C            0.15031064        1.84810476       -3.36141214
 C           -0.15031064       -1.84810476       -3.36141214
 C           -0.49824089       -0.49334032       -3.31946399
 C           -0.70604694       -3.89119951       -2.12471776
 C           -1.09573847       -2.80813657       -3.01546899
 C           -1.42343374       -4.01735709        0.21890029
 C           -1.75729034       -4.03735212       -1.13237028
 C           -1.64069644       -2.71107888        2.24610144
 C           -2.22064242       -3.29802848        1.11457885
 C           -1.67366109       -0.70716202        3.63754917
 C           -2.36853570       -1.82439254        3.02981530
 C           -1.81655793        1.63442497        2.91733605
 C           -2.45706408        0.49137562        3.39526386
 C           -1.86542557        3.63501773        1.57708340
 C           -2.52984460        2.55541535        2.14255229
 C           -0.91377496        4.40553174       -0.43103832
 C           -0.62476417        3.99806504       -1.73103780
 C           -2.16082788        4.00133447        0.19967761
 C           -1.18841249        2.21646337       -3.32371912
 C           -1.59273155        3.32204363       -2.46798797
 C           -1.83633308       -0.13390367       -3.14521440
 C           -2.21094586        1.19405616       -3.24792869
 C           -2.43921586       -2.39560090       -2.65228437
 C           -2.90689556       -3.28531121       -1.60444214
 C           -2.72881318       -1.03954688       -2.58222254
 C           -3.51437495       -2.94622062        0.73169492
 C           -3.81815695       -2.80577047       -0.68051707
 C           -3.66769580       -1.35388332        2.58610391
 C           -3.72717768        0.08015415        2.82340280
 C           -4.22298572       -1.88997499        1.43451416
 C           -3.75875235        2.19759529        1.59557936
 C           -4.35192292        0.90844784        1.90391883
 C           -3.09845938        3.25982694       -0.51425735
 C           -2.86549364        2.97162513       -1.85656895
 C           -3.27932683        1.68495031       -2.39845108
 C           -4.01359800        2.48484371        0.19327362
 C           -3.74444553       -0.58340728       -1.73550811
 C           -4.37055740       -1.47643915       -0.86724837
 C           -4.81166189       -1.01129509        0.43410850
 C           -4.87900222        0.35445966        0.66595614
 C           -3.96071046        0.78953723       -1.58179261
 C           -4.53870295        1.27130762       -0.41003072




