%chk=000070.chk
%mem=8GB
%Nproc=32
#p B3LYP/6-31G* opt pop=NPA

Template file

0 1
 C            2.63009725       -3.56978378        0.87462807
 C            1.59057896       -4.25545043        0.12156282
 C            0.40855919       -4.33312433        0.96976367
 C            2.13529732       -3.36487309        2.22468080
 C            0.71578055       -3.66853540        2.22021552
 C            2.58755102       -2.27558006        2.94693967
 C            3.56441458       -1.39389659        2.33975455
 C            3.38449399       -2.58003965        0.25008728
 C            3.76025371       -1.43556529        0.95949804
 C            3.46112207       -2.58842579       -1.13408021
 C            1.44641505       -4.00196602       -1.24208390
 C            2.42255043       -3.25892976       -1.90227431
 C            0.18497268       -4.11368164       -1.82301591
 C           -0.84718789       -4.15708765        0.40248291
 C           -0.97657508       -4.31523854       -0.97442391
 C           -1.84126244       -3.48124806        1.11810667
 C           -0.19141287       -2.74648773        2.72492256
 C           -1.51836408       -2.80743010        2.30317202
 C            1.62202856       -1.43645882        3.63603980
 C            0.26576645       -1.61100583        3.40104483
 C            3.44883210       -0.11388814        3.01200919
 C            2.15316027       -0.08560903        3.66971122
 C            3.89204088        1.02030722        2.35958070
 C            4.15813065       -0.27552907        0.28064607
 C            4.38412062        0.89944819        0.99841807
 C            3.82111145       -1.37493734       -1.83695721
 C            4.16568540       -0.23772609       -1.11747378
 C            2.02413009       -2.36575023       -2.97891010
 C            2.93164734       -1.23868457       -2.98040846
 C           -0.19962284       -3.18255367       -2.87495052
 C            0.67252632       -2.16002720       -3.21785048
 C           -2.12194429       -3.74971925       -1.66480201
 C           -1.61262669       -2.90330705       -2.73057245
 C           -3.09012942       -3.29251988        0.52809593
 C           -3.20049245       -3.30708344       -0.91916167
 C           -3.97969961       -2.25593692        1.02244317
 C           -2.44231641       -1.95238567        2.89747564
 C           -3.67584698       -1.61769627        2.20898576
 C           -0.58654210       -0.52543349        3.57463230
 C           -1.95416594       -0.75090648        3.54855091
 C            1.29499801        0.99173438        3.45106366
 C           -0.08996596        0.77280607        3.42246721
 C            3.09539337        2.23257983        2.43124596
 C            1.82576351        2.20506465        3.00364587
 C            4.18483888        2.18430702        0.35253649
 C            3.28416569        2.96119878        1.18765463
 C            4.10334290        0.98858857       -1.77759284
 C            4.03310623        2.22667679       -1.02065365
 C            2.45535861        0.02162046       -3.30925865
 C            3.21852299        1.12093874       -2.92362200
 C            0.19275607       -0.85397371       -3.36291273
 C            1.09811363        0.18931924       -3.59551055
 C           -2.06399961       -1.59429824       -2.83368035
 C           -1.18286669       -0.58633796       -3.24506678
 C           -3.87061868       -2.08123221       -1.31406393
 C           -4.41901193       -1.46691045       -0.11519284
 C           -3.30739413       -1.26381135       -2.29033675
 C           -4.46205992       -0.07586405       -0.03317026
 C           -3.86618541       -0.18289418        2.31181382
 C           -2.84987617        0.33680885        3.21379665
 C           -4.22322792        0.56357942        1.19022621
 C           -0.96905313        1.84048643        3.20206798
 C           -2.32865308        1.60191429        2.98221441
 C            0.96992473        3.25925436        2.71623862
 C           -0.45437660        3.10144626        2.92515788
 C            2.19087285        3.61626451        0.62331747
 C            1.15700014        3.99326941        1.47221351
 C            2.95908881        3.02444762       -1.58406267
 C            2.61848886        2.44273381       -2.87058965
 C            1.94910216        3.50315709       -0.75005115
 C            0.62246194        1.46320387       -3.87554989
 C            1.34040810        2.61861532       -3.36669500
 C           -1.67576844        0.70071944       -3.48737088
 C           -0.79040345        1.74026234       -3.73818714
 C           -3.76753028        0.04012365       -2.38537573
 C           -4.39903077        0.64719027       -1.22353448
 C           -2.93901239        1.04315886       -3.02091039
 C           -4.04968857        2.05564234       -1.21120240
 C           -3.09649278        2.28651918       -2.28326624
 C           -4.01575718        1.94115634        1.23099695
 C           -3.06589315        2.48142412        2.19151154
 C           -3.87331320        2.69812019       -0.00084723
 C           -1.12514237        3.94435536        1.95238550
 C           -0.15492476        4.26191474        0.92132230
 C           -2.41508803        3.62370976        1.57351926
 C           -2.74374228        3.59560276        0.15969405
 C            0.65577620        3.67932519       -1.25976428
 C            0.39681007        3.40728804       -2.59737134
 C           -0.93075585        2.97616181       -2.98026730
 C           -1.97332753        3.08204297       -2.06788441
 C           -0.41484275        3.91363175       -0.39837451
 C           -1.72136859        3.59170422       -0.78920720




