%chk=000019.chk
%mem=8GB
%Nproc=32
#p B3LYP/6-31G* opt pop=NPA

Template file

0 1
 C           -4.97886817        0.25265079       -0.64784018
 C           -4.54548839        1.61892573       -0.88893424
 C           -3.62846363        1.60170885       -2.01501806
 C           -4.47934626       -0.56452022       -1.74194323
 C           -3.52107628        0.23274709       -2.48680590
 C           -4.20810130       -1.90620520       -1.53078667
 C           -4.27706244       -2.45589674       -0.18329605
 C           -4.97886817       -0.25265079        0.64784018
 C           -4.54548839       -1.61892573        0.88893424
 C           -4.47934626        0.56452022        1.74194323
 C           -4.27706244        2.45589674        0.18329605
 C           -4.20810130        1.90620520        1.53078667
 C           -3.21287633        3.43809381        0.06153994
 C           -2.47917755        2.37890497       -1.98241560
 C           -2.31877905        3.36831698       -1.00595565
 C           -1.37548938        1.95082552       -2.70855740
 C           -2.25919418       -0.28913127       -2.77806378
 C           -1.18045877        0.58468999       -2.92143691
 C           -3.04566179       -2.49035483       -2.17296108
 C           -2.03094172       -1.66111103       -2.65497923
 C           -3.21287633       -3.43809381       -0.06153994
 C           -2.69378941       -3.66275897       -1.39642634
 C           -2.31877905       -3.36831698        1.00595565
 C           -3.62846363       -1.60170885        2.01501806
 C           -3.52107628       -0.23274709        2.48680590
 C           -2.47917755       -2.37890497        1.98241560
 C           -2.25919418        0.28913127        2.77806378
 C           -3.04566179        2.49035483        2.17296108
 C           -2.69378941        3.66275897        1.39642634
 C           -2.03094172        1.66111103        2.65497923
 C           -1.41765382        4.17496844        1.52696676
 C           -1.09924062        4.04746866       -0.91036170
 C           -0.68117668        4.53354230        0.32633478
 C           -0.32549198        2.83225546       -2.88647540
 C           -0.16095617        3.90838164       -1.92863711
 C            0.98485216        2.31807699       -3.22210629
 C            0.11203451        0.07861483       -3.08286930
 C            1.17217786        0.94886175       -3.35828785
 C           -0.73203596       -2.16382642       -2.75855022
 C            0.34536124       -1.29099236       -2.92054365
 C           -1.41765382       -4.17496844       -1.52696676
 C           -0.48561628       -3.48692033       -2.40036244
 C           -1.09924062       -4.04746866        0.91036170
 C           -0.68117668       -4.53354230       -0.32633478
 C           -0.16095617       -3.90838164        1.92863711
 C           -1.37548938       -1.95082552        2.70855740
 C           -1.18045877       -0.58468999        2.92143691
 C           -0.32549198       -2.83225546        2.88647540
 C            0.11203451       -0.07861483        3.08286930
 C           -0.73203596        2.16382642        2.75855022
 C           -0.48561628        3.48692033        2.40036244
 C            0.34536124        1.29099236        2.92054365
 C            0.73105223        4.49866591        0.66973213
 C            0.84572903        3.87017177        1.97858078
 C            1.25928621        4.02198779       -1.62545246
 C            1.97355417        3.09597346       -2.49205422
 C            1.67596620        4.20149033       -0.30965664
 C            3.12821154        2.46538223       -2.03718186
 C            2.47588822        0.47576254       -3.32126137
 C            3.47987859        1.23716015       -2.59236157
 C            1.65418180       -1.77980944       -2.83064467
 C            2.72309542       -0.93106015       -3.08458584
 C            0.84572903       -3.87017177       -1.97858078
 C            0.73105223       -4.49866591       -0.66973213
 C            1.90216232       -3.00516877       -2.21077516
 C            1.25928621       -4.02198779        1.62545246
 C            1.67596620       -4.20149033        0.30965664
 C            0.98485216       -2.31807699        3.22210629
 C            1.17217786       -0.94886175        3.35828785
 C            1.97355417       -3.09597346        2.49205422
 C            2.47588822       -0.47576254        3.32126137
 C            1.65418180        1.77980944        2.83064467
 C            1.90216232        3.00516877        2.21077516
 C            2.72309542        0.93106015        3.08458584
 C            2.90954753        3.69438238        0.08905851
 C            3.66838328        2.83508855       -0.80783960
 C            3.04486757        3.15737182        1.43244475
 C            3.92357922        1.03924724        2.27280864
 C            4.36151534        1.84328818        0.00457670
 C            4.04316974        2.10400403        1.39759808
 C            4.26186105        0.29352625       -1.81094528
 C            3.92357922       -1.03924724       -2.27280864
 C            4.46059092        0.53272279       -0.45448272
 C            3.04486757       -3.15737182       -1.43244475
 C            2.90954753       -3.69438238       -0.08905851
 C            4.04316974       -2.10400403       -1.39759808
 C            3.12821154       -2.46538223        2.03718186
 C            3.47987859       -1.23716015        2.59236157
 C            4.26186105       -0.29352625        1.81094528
 C            4.46059092       -0.53272279        0.45448272
 C            3.66838328       -2.83508855        0.80783960
 C            4.36151534       -1.84328818       -0.00457670




