%chk=000061.chk
%mem=8GB
%Nproc=32
#p B3LYP/6-31G* opt pop=NPA

Template file

0 1
 C            4.45978756       -0.49278929        1.10846536
 C            4.66125872        0.40684100       -0.01739993
 C            4.30512780        1.74977645        0.41626327
 C            4.10400091        0.31254531        2.26496857
 C            3.86468914        1.66676600        1.79991384
 C            3.26983333       -0.22478697        3.22843292
 C            2.82260998       -1.59496561        3.07428936
 C            3.84039287       -1.72209624        0.89400078
 C            2.91541592       -2.20677399        1.82505672
 C            3.87385170       -2.25993710       -0.38694314
 C            4.32751515       -0.02020495       -1.29892181
 C            4.10889287       -1.37726547       -1.52136024
 C            3.85477773        0.90512740       -2.22562923
 C            3.64231799        2.60908577       -0.45528209
 C            3.49995428        2.24853517       -1.79337818
 C            2.80562623        3.58851600        0.07569547
 C            2.71020390        2.34349325        2.18265154
 C            2.34345892        3.46272676        1.45089009
 C            2.12703025        0.55156371        3.67909040
 C            1.75961577        1.69844798        2.97799088
 C            1.60699709       -1.72886168        3.85321099
 C            1.10132458       -0.38846361        4.09570324
 C            0.71246917       -2.73059285        3.52699029
 C            1.94228534       -3.13472334        1.43307182
 C            0.94282629       -3.51381235        2.32483652
 C            2.86601604       -3.22601550       -0.77740268
 C            1.80965345       -3.47812997        0.08814149
 C            3.22163376       -1.79334556       -2.59521678
 C            2.61190842       -3.05044618       -2.19588135
 C            2.88668410        0.48919902       -3.23057510
 C            2.46570806       -0.83523957       -3.26677655
 C            2.30692755        2.65140927       -2.52444316
 C            1.90273988        1.54584218       -3.36829118
 C            1.68941862        4.07764299       -0.71468466
 C            1.33547901        3.40135286       -1.87822712
 C            0.97450724        3.93612847        1.50642129
 C            0.65870274        4.51153260        0.21110431
 C            0.40299554        2.02937712        2.86387031
 C            0.01337651        3.17755170        2.16465447
 C           -0.22740520       -0.09509185        3.81820853
 C           -0.56276438        1.20168411        3.44395232
 C           -0.70961384       -2.45013257        3.59455621
 C           -1.15321760       -1.13008467        3.64796530
 C           -0.35365130       -3.89581290        1.79552315
 C           -1.36758545       -3.38217051        2.70053798
 C            0.55559615       -3.83340238       -0.42080662
 C           -0.55559615       -3.83340238        0.42080662
 C            1.36758545       -3.38217051       -2.70053798
 C            0.35365130       -3.89581290       -1.79552315
 C            1.15321760       -1.13008467       -3.64796530
 C            0.70961384       -2.45013257       -3.59455621
 C            0.56276438        1.20168411       -3.44395232
 C            0.22740520       -0.09509185       -3.81820853
 C           -0.01337651        3.17755170       -2.16465447
 C           -0.40299554        2.02937712       -2.86387031
 C           -0.65870274        4.51153260       -0.21110431
 C           -0.97450724        3.93612847       -1.50642129
 C           -1.33547901        3.40135286        1.87822712
 C           -1.68941862        4.07764299        0.71468466
 C           -1.90273988        1.54584218        3.36829118
 C           -2.30692755        2.65140927        2.52444316
 C           -2.46570806       -0.83523957        3.26677655
 C           -2.88668410        0.48919902        3.23057510
 C           -2.61190842       -3.05044618        2.19588135
 C           -3.22163376       -1.79334556        2.59521678
 C           -1.80965345       -3.47812997       -0.08814149
 C           -2.86601604       -3.22601550        0.77740268
 C           -0.94282629       -3.51381235       -2.32483652
 C           -0.71246917       -2.73059285       -3.52699029
 C           -1.94228534       -3.13472334       -1.43307182
 C           -1.10132458       -0.38846361       -4.09570324
 C           -1.60699709       -1.72886168       -3.85321099
 C           -1.75961577        1.69844798       -2.97799088
 C           -2.12703025        0.55156371       -3.67909040
 C           -2.34345892        3.46272676       -1.45089009
 C           -2.80562623        3.58851600       -0.07569547
 C           -2.71020390        2.34349325       -2.18265154
 C           -3.49995428        2.24853517        1.79337818
 C           -3.85477773        0.90512740        2.22562923
 C           -3.64231799        2.60908577        0.45528209
 C           -4.10889287       -1.37726547        1.52136024
 C           -3.87385170       -2.25993710        0.38694314
 C           -4.32751515       -0.02020495        1.29892181
 C           -2.91541592       -2.20677399       -1.82505672
 C           -2.82260998       -1.59496561       -3.07428936
 C           -3.26983333       -0.22478697       -3.22843292
 C           -3.84039287       -1.72209624       -0.89400078
 C           -3.86468914        1.66676600       -1.79991384
 C           -4.30512780        1.74977645       -0.41626327
 C           -4.66125872        0.40684100        0.01739993
 C           -4.10400091        0.31254531       -2.26496857
 C           -4.45978756       -0.49278929       -1.10846536




