%chk=000370.chk
%mem=8GB
%Nproc=16
#p B3LYP/6-31G* opt pop=NPA

Template file

0 1
 C            4.62263102       -0.44410425        1.48574498
 C            4.17658192       -1.81491452        1.66423591
 C            4.04357510       -2.40854418        0.34027272
 C            5.00408441       -0.29170325        0.09237362
 C            4.45385048       -1.42192186       -0.63542787
 C            4.94555393        0.96463710       -0.48262184
 C            4.43743561        2.07031937        0.30761828
 C            3.94774047        0.58428875        2.13858197
 C            3.74581683        1.80413457        1.48819488
 C            3.19684034        0.27661301        3.26570309
 C            3.22727842       -2.10951833        2.64070945
 C            2.81354652       -1.10551335        3.51553437
 C            2.41985184       -3.23069336        2.46728875
 C            2.95104615       -3.22132725        0.07787929
 C            2.35862052       -3.85947683        1.15751181
 C            2.21444177       -3.04189730       -1.09777337
 C            3.65716983       -1.19418570       -1.74999420
 C            2.60075271       -2.06833792       -2.03652775
 C            4.39646667        1.10182142       -1.82027901
 C            3.77746146        0.01734643       -2.43668131
 C            3.92488014        3.06268942       -0.62058550
 C            3.76561813        2.40956687       -1.90866174
 C            2.94768717        3.93962303       -0.18874873
 C            2.69817460        2.64405096        1.88111566
 C            2.43934211        3.80484238        1.16404664
 C            2.07641224        1.12583812        3.62522119
 C            1.76009910        2.20262366        2.81129050
 C            1.44492705       -1.10298961        4.00978398
 C            1.00931585        0.27792491        4.11431487
 C            1.07426316       -3.23848218        3.02064054
 C            0.55429782       -2.07031452        3.55430793
 C            1.04449193       -4.44425327        1.00816528
 C            0.24806790       -4.06034216        2.16365000
 C            1.06183273       -3.80890370       -1.31015452
 C            0.43906707       -4.45816869       -0.23975100
 C            0.40980853       -3.74169401       -2.53461942
 C            1.89207107       -1.92023029       -3.23415783
 C            0.77160474       -2.70333161       -3.47283192
 C            2.93535377        0.28125349       -3.50646776
 C            1.98077272       -0.72104024       -3.92745707
 C            2.56870839        2.53220063       -2.61309496
 C            2.28715298        1.58127216       -3.58580208
 C            1.80823699        4.19305191       -1.05045349
 C            1.53325679        3.31498507       -2.09167253
 C            1.09865875        4.35510188        1.17686677
 C            0.72686830        4.64582600       -0.20036425
 C            0.43382513        2.64088841        2.72883795
 C            0.13757070        3.81193836        2.02337639
 C           -0.29837231        0.58960258        3.78587708
 C           -0.59700081        1.84196926        3.24738757
 C           -0.77040840       -1.71370061        3.28611431
 C           -1.21518946       -0.44484738        3.65665669
 C           -1.08755693       -3.73281889        1.97070451
 C           -1.59048711       -2.54219336        2.50365930
 C           -0.93440328       -4.68276930       -0.27660352
 C           -1.72947748       -4.30998571        0.88309722
 C           -1.03450198       -3.88397973       -2.58557647
 C           -1.69748455       -4.36045899       -1.46937401
 C           -0.45444481       -2.04925628       -3.90948163
 C           -1.56691333       -2.71987940       -3.27245053
 C            0.75156654       -0.04061152       -4.30342057
 C            0.91612449        1.36816435       -3.99751354
 C           -0.46406468       -0.66632480       -4.03525251
 C            0.20030374        3.02500865       -2.40545528
 C           -0.10144885        2.02437570       -3.33166492
 C           -0.58760552        4.42692361       -0.58824638
 C           -0.84271842        3.69491493       -1.75180107
 C           -1.18703545        4.13824857        1.76545033
 C           -1.55982223        4.49368285        0.40611928
 C           -1.93627849        2.19822016        3.06173585
 C           -2.24986350        3.32867427        2.32070484
 C           -2.55741927       -0.13005441        3.55222572
 C           -2.92973463        1.23763736        3.23679356
 C           -2.89349732       -2.13576812        2.18597320
 C           -3.43368104       -1.01871219        2.81638639
 C           -2.97770075       -3.75224396        0.40808299
 C           -2.92455714       -3.71062683       -1.04464907
 C           -3.55171631       -2.68296145        1.08058847
 C           -2.56486067       -1.96572101       -2.66682547
 C           -3.37221925       -2.56429698       -1.69655235
 C           -1.50273123        0.07332297       -3.45666537
 C           -1.36757993        1.45799090       -3.34136749
 C           -2.58383669       -0.57645545       -2.84063210
 C           -2.16107712        3.39615234       -2.09645754
 C           -2.43355625        2.22155647       -2.90615961
 C           -2.89714448        3.98782143        0.15800623
 C           -3.32109318        3.25459980        1.33747300
 C           -3.20860115        3.49416911       -1.09426912
 C           -4.03619361        1.19127190        2.29463945
 C           -4.41086213       -0.19903986        2.11879189
 C           -4.03614437        2.06578155        1.20929356
 C           -4.47788946       -1.91345670        0.38122318
 C           -4.34908355       -1.80951167       -1.06309273
 C           -4.88580019       -0.61792577        0.89091575
 C           -3.65095162        0.17109003       -2.32938039
 C           -3.60277133        1.55987666       -2.36728969
 C           -4.04113663        2.31084133       -1.20115677
 C           -4.43166130        1.61584873       -0.05798313
 C           -4.52432832       -0.41887103       -1.42458249
 C           -4.89820012        0.31377634       -0.22313529




