%chk=000315.chk
%mem=8GB
%Nproc=16
#p B3LYP/6-31G* opt pop=NPA

Template file

0 1
 C            5.16243170        0.76989270        0.56074458
 C            5.01647692       -0.64031111        0.24201381
 C            4.71781425       -1.32498445        1.48453553
 C            4.67234969        0.96316787        1.91834633
 C            4.19229783       -0.32226203        2.39186333
 C            3.95210190        2.10353252        2.23799848
 C            3.74932630        3.14048418        1.23729741
 C            4.87944799        1.71158744       -0.41586749
 C            4.21317741        2.95346899       -0.05497045
 C            4.33282213        1.26429938       -1.68454104
 C            4.35000854       -1.02705739       -0.92041414
 C            3.92941739       -0.05632455       -1.83608701
 C            3.85744598       -2.33127834       -1.01660734
 C            4.08826079       -2.55412439        1.42328240
 C            3.81171439       -3.13425929        0.12022698
 C            2.90799851       -2.77004283        2.23994640
 C            2.88275363       -0.44153555        2.85816734
 C            2.23536303       -1.67689879        2.77195740
 C            2.71644735        1.96569163        2.98694246
 C            2.14916650        0.70733004        3.16988457
 C            2.42506018        3.70309301        1.43985845
 C            1.85820213        3.07261590        2.61840493
 C            1.59676311        3.95964431        0.34578084
 C            3.37345507        3.34512403       -1.17100957
 C            3.48332621        2.32208289       -2.19854869
 C            2.12920770        3.93037896       -0.94875864
 C            2.34648625        1.99872133       -2.93277336
 C            2.89735846       -0.34119273       -2.72556974
 C            1.97647698        0.65535356       -3.05657983
 C            3.10904589       -2.69906246       -2.12857643
 C            2.60126928       -1.66479230       -3.01040968
 C            2.08209107       -3.72338705       -2.00186942
 C            2.70994262       -4.06564187        0.29507732
 C            2.14498234       -3.83134081        1.61685230
 C            1.85062727       -4.33117086       -0.76772017
 C            0.76539633       -3.86174989        1.76698024
 C            0.85837926       -1.74980772        2.96605942
 C            0.12255674       -2.82565016        2.45010972
 C            0.77586934        0.61021640        3.39327528
 C            0.19630005       -0.64953552        3.50032925
 C            0.48774208        2.89643026        2.67103729
 C           -0.03478670        1.74358685        3.25539959
 C            0.20781793        3.96856111        0.54082395
 C           -0.30404681        3.62210142        1.79387191
 C           -0.65971073        4.17213882       -0.53861773
 C            1.27012416        4.00251513       -2.03641856
 C            1.38204251        2.98823213       -3.07537277
 C           -0.13861126        4.25695488       -1.82332516
 C            0.03968875        2.62479599       -3.47485734
 C           -0.85109986        3.62544506       -2.91816472
 C            0.64676608        0.30629110       -3.33432192
 C           -0.33371046        1.28698809       -3.44671499
 C            1.24360556       -2.01435764       -3.37907943
 C            0.95445606       -3.32455937       -2.83295576
 C            0.26494891       -1.03187316       -3.33983964
 C           -0.33511949       -3.60787336       -2.40919320
 C            0.57607034       -4.81246077       -0.47974123
 C            0.04035209       -4.62476518        0.86035404
 C           -0.50729155       -4.56336228       -1.41332809
 C           -1.39432980       -4.43266526        0.74444643
 C           -1.74494849       -4.59599150       -0.65554071
 C           -1.27339901       -2.78927840        2.48575216
 C           -2.00766156       -3.43301001        1.49204658
 C           -1.14311293       -0.75873215        3.83725842
 C           -1.90839665       -1.87030561        3.30717985
 C           -1.41837033        1.64180955        3.42549776
 C           -1.97866069        0.42553677        3.79657363
 C           -1.67113506        3.63550447        2.01247706
 C           -2.24533252        2.62029153        2.87914466
 C           -2.03647013        3.98863348       -0.37954806
 C           -2.56720912        3.83351262        0.89297951
 C           -2.18035419        3.29544807       -2.73652287
 C           -2.81752853        3.63278558       -1.47587307
 C           -1.67378989        0.94715831       -3.25231938
 C           -2.61764673        1.95686139       -3.08833817
 C           -1.04583977       -1.37292206       -3.00612580
 C           -1.35895372       -2.69434991       -2.66791600
 C           -2.01749756       -0.36852556       -2.93230774
 C           -2.84184133       -3.91230746       -1.14615978
 C           -2.65238590       -3.01504859       -2.27341299
 C           -3.22064124       -2.88925370        1.05510429
 C           -3.70742885       -3.22708675       -0.20690576
 C           -3.21819295       -1.37513976        2.92913488
 C           -3.27481228        0.04124076        3.25874525
 C           -3.80375003       -1.82718244        1.75277567
 C           -3.53725017        2.24057517        2.32986372
 C           -3.72820937        2.97655196        1.08860488
 C           -3.95964292        0.91782323        2.42053157
 C           -3.92573872        2.70986725       -1.29259265
 C           -3.81588230        1.68479564       -2.32170496
 C           -4.31520039        2.34565681       -0.00513892
 C           -3.30431342       -0.65650869       -2.46234384
 C           -3.65051745       -1.96829962       -2.16547811
 C           -4.43568467       -2.23706548       -0.97181745
 C           -4.12363703        0.37341263       -1.99665440
 C           -4.74934838       -1.01910410        1.12440866
 C           -4.79341874        0.40283049        1.43300108
 C           -4.95954772        1.12582963        0.18033419
 C           -5.00642347       -1.17187935       -0.29836762
 C           -4.94435205        0.14946687       -0.89598000




