%chk=000182.chk
%mem=8GB
%Nproc=16
#p B3LYP/6-31G* opt pop=NPA

Template file

0 1
 C            4.87559030       -1.40312839        0.92537930
 C            4.03366720       -2.52341321        1.30310930
 C            3.64185657       -3.21344200        0.08484380
 C            4.92168999       -1.36155607       -0.52876047
 C            3.98103211       -2.34983564       -1.02651592
 C            5.01446562       -0.14410264       -1.18216239
 C            5.03942537        1.09263162       -0.41388369
 C            4.79349947       -0.22370258        1.64979451
 C            4.88493482        1.05513338        0.96354713
 C            3.78693106       -0.10297160        2.69084319
 C            3.09603375       -2.38541625        2.32482856
 C            2.85171798       -1.12125228        2.87141194
 C            2.13328787       -3.38020694        2.44609902
 C            2.42696707       -3.88058026        0.06942429
 C            1.86504074       -4.22532264        1.29529310
 C            1.59529422       -3.74497946       -1.04232318
 C            2.97960153       -1.96653067       -1.91505147
 C            1.77190749       -2.66652007       -1.91731893
 C            4.17881380        0.08504136       -2.34581630
 C            3.07977424       -0.74309723       -2.58164114
 C            4.32321512        2.09833292       -1.17993521
 C            4.03363088        1.52163995       -2.47983440
 C            3.35994470        2.89496591       -0.56266719
 C            3.94920457        1.96668839        1.59522042
 C            3.34331149        1.27973583        2.71918273
 C            3.15182705        2.79820742        0.81923338
 C            2.01879651        1.54642539        3.03469175
 C            1.58108839       -0.79684537        3.36229300
 C            1.26262438        0.53926468        3.62210250
 C            0.86026313       -3.07313165        3.06608369
 C            0.57839549       -1.76733150        3.42457245
 C            0.47491556       -4.63840405        1.35972557
 C           -0.16949639       -3.84887081        2.39545397
 C            0.41046241       -4.46856901       -1.07568816
 C           -0.20607238       -4.87246315        0.17729329
 C           -0.64736720       -4.06749832       -1.98088183
 C            0.70702019       -2.21118870       -2.70071531
 C           -0.46758997       -2.96440096       -2.80252658
 C            1.98983590       -0.25031326       -3.30062977
 C            0.79354704       -0.96766996       -3.33114843
 C            2.96032288        2.01350921       -3.19857565
 C            1.99120363        1.07623325       -3.73562185
 C            2.42901228        3.56807438       -1.36044713
 C            2.21841922        3.14678302       -2.67200606
 C            1.44880918        4.34723177       -0.75621253
 C            1.98431828        3.30789810        1.37934718
 C            1.36967974        2.63108640        2.43680749
 C            1.28477627        4.27624243        0.68197206
 C            0.04913407        2.92680599        2.79793044
 C            0.00685579        0.85874434        4.11909747
 C           -0.58129908        2.13570386        3.75660969
 C           -0.75222518       -1.37475937        3.50567901
 C           -1.04244398       -0.14248710        4.07106996
 C           -1.40669798       -3.26018663        2.13792200
 C           -1.70973165       -2.02289141        2.71926752
 C           -1.61412261       -4.53177938        0.10032862
 C           -1.91664843       -4.23087492       -1.28768566
 C           -2.19767943       -3.75961653        1.09939239
 C           -2.96754011       -3.36489249       -1.58018020
 C           -1.59935239       -2.39694298       -3.37551178
 C           -2.89066574       -2.58739559       -2.73189121
 C           -0.36639425       -0.32683634       -3.76566475
 C           -1.54486973       -1.03918075       -3.87421969
 C            0.72696348        1.78013113       -3.85460449
 C            0.85641686        3.05326085       -3.17527344
 C           -0.44011430        1.05629000       -3.70665309
 C            0.11993946        4.38930664       -1.34766947
 C           -0.18790294        3.51535255       -2.38227232
 C           -0.11275924        4.50372000        0.98386035
 C           -0.70554316        3.83521050        2.04769919
 C           -0.83322023        4.59206665       -0.27699457
 C           -2.09768914        3.76585065        2.06963066
 C           -2.02025572        1.95238017        3.70651662
 C           -2.27990611        0.52481834        3.71999592
 C           -2.77031053        2.76059415        2.87358003
 C           -2.91954964       -1.38627628        2.42768219
 C           -3.09115567       -0.04147436        2.74470929
 C           -3.42431816       -3.16964483        0.83002654
 C           -3.83297669       -2.98764619       -0.55564376
 C           -3.82512934       -1.99186201        1.57228414
 C           -4.56518972       -1.73315837       -0.64209624
 C           -4.62140353       -1.15737507        0.69418329
 C           -3.62323212       -1.33259846       -2.81751898
 C           -2.78985193       -0.37634991       -3.52980883
 C           -4.39182907       -0.89768266       -1.74260598
 C           -1.55479686        1.65244299       -3.11965940
 C           -1.39688740        2.81264300       -2.34770446
 C           -2.76532589        0.95194196       -3.10951720
 C           -2.09435202        4.01968468       -0.36491683
 C           -2.82177067        3.88572292        0.81448643
 C           -2.40369623        3.20993957       -1.46098382
 C           -3.80789419        2.16045228        2.05219036
 C           -3.88368966        0.77415909        1.92877631
 C           -4.56605842        0.22330490        0.83997384
 C           -3.96183563        2.98813676        0.86951860
 C           -4.63588201        0.46579889       -1.60010161
 C           -3.82624170        1.41865677       -2.34632029
 C           -3.65095137        2.59933413       -1.52301531
 C           -4.84202013        1.01514935       -0.27154107
 C           -4.41152925        2.40192784       -0.30054643




