%chk=000154.chk
%mem=8GB
%Nproc=16
#p B3LYP/6-31G* opt pop=NPA

Template file

0 1
 C            4.98203490       -1.57469075        0.37928463
 C            4.52768550       -1.03981362        1.64930728
 C            3.57576863       -1.98093545        2.22012914
 C            4.29300140       -2.83567167        0.15622412
 C            3.38201326       -3.05551686        1.26905804
 C            3.88658083       -3.18243409       -1.12437345
 C            3.99669784       -2.21720078       -2.20657256
 C            5.20083668       -0.70790461       -0.68027331
 C            4.67389909       -1.02628671       -2.00093981
 C            5.02465014        0.71894439       -0.47124931
 C            4.29252840        0.32606235        1.79784246
 C            4.41072294        1.17948909        0.69495542
 C            3.54684374        0.72776756        2.89730679
 C            2.49017744       -1.48231954        2.92806313
 C            2.62500242       -0.22231627        3.50001971
 C            1.20995950       -1.98986077        2.68025649
 C            2.09773081       -3.52286393        1.01882845
 C            1.03255344       -3.06789759        1.80696795
 C            2.62751184       -3.88238521       -1.29522521
 C            1.84373332       -4.18239291       -0.18590882
 C            2.71719113       -2.17996589       -2.89375941
 C            1.96832629       -3.34347702       -2.47366629
 C            2.05578806       -0.96810845       -3.04198403
 C            4.11224827        0.19527270       -2.54631884
 C            4.64091121        1.28584363       -1.75119765
 C            2.77439982        0.22512458       -2.94364340
 C            3.97128472        2.49294640       -1.76459105
 C            3.76184409        2.42275236        0.68257524
 C            3.71651056        3.15819739       -0.50186464
 C            2.91315752        2.03001100        2.90166605
 C            3.01052928        2.84542403        1.78400387
 C            1.44591401        0.50527904        3.91729959
 C            1.62900095        1.90336964        3.57436187
 C            0.09390675       -1.36094488        3.23782689
 C            0.20023703       -0.05945178        3.72893867
 C           -1.17368054       -1.92360874        3.08598588
 C           -0.23970137       -3.61557559        1.63203818
 C           -1.34554868       -3.03384343        2.25775346
 C            0.56061802       -4.64045788       -0.43761895
 C           -0.44446458       -4.52052599        0.59521426
 C            0.57991087       -3.30750572       -2.48094544
 C           -0.06688568       -4.24715152       -1.68986586
 C            0.66195395       -0.94139563       -3.02539857
 C           -0.07403560       -2.10369493       -2.76390243
 C           -0.00003184        0.26968120       -3.20124363
 C            2.09885705        1.44579240       -2.97259705
 C            2.75370562        2.60319729       -2.54774511
 C            0.71167223        1.46952430       -3.12268989
 C            2.62038067        4.08003017       -0.73219611
 C            1.97433324        3.68578071       -1.97289436
 C            2.07541123        3.86925717        1.64034131
 C            1.83783176        4.46762344        0.33878460
 C            0.54098137        2.64155687        3.10898436
 C            0.79326368        3.75743252        2.32006558
 C           -0.89435943        0.78711793        3.64883214
 C           -0.73137920        2.05735043        3.09701236
 C           -2.28665779       -1.19962242        3.51873862
 C           -2.15565771        0.22973051        3.73231455
 C           -3.58696031       -1.43324444        2.91816032
 C           -2.63185686       -3.41959813        1.87364374
 C           -3.75116576       -2.51835143        2.08174921
 C           -1.72717921       -4.55181426       -0.08021146
 C           -1.48719356       -4.12118143       -1.44576022
 C           -2.83123631       -4.05118703        0.58333344
 C           -1.46285190       -2.01607970       -2.61810673
 C           -2.16697153       -3.01139969       -1.92740718
 C           -1.38796618        0.28795366       -3.33073224
 C           -2.12504340       -0.85827505       -3.02688784
 C           -2.03624357        1.51002758       -3.48690709
 C            0.02910711        2.66385895       -2.89247599
 C            0.59000767        3.60582420       -2.03685388
 C           -1.33168827        2.72689889       -3.13876354
 C            0.40133941        4.58630696        0.16163209
 C           -0.23297115        4.24197872        1.41857466
 C           -0.19618103        4.15763759       -1.01995070
 C           -1.75717635        2.61415142        2.32039562
 C           -1.45881084        3.59865982        1.37660478
 C           -3.26512612        0.88751449        3.07230546
 C           -4.13091244       -0.14590213        2.52509547
 C           -3.03497573        2.04172251        2.33165331
 C           -4.67681942        0.03024317        1.25555506
 C           -4.41367853       -2.33328314        0.80169638
 C           -3.77635873       -3.22728762       -0.15209823
 C           -3.43363729       -2.73736850       -1.41067566
 C           -4.78633726       -1.05829433        0.37990960
 C           -3.50413685       -0.77106011       -2.85387840
 C           -4.15068813       -1.66253483       -1.91338354
 C           -4.92173822       -0.84336723       -0.99100017
 C           -3.40978280        1.66280303       -3.04291126
 C           -4.13903017        0.52863572       -2.72610097
 C           -4.95999868        0.50521819       -1.52436379
 C           -2.15596346        3.45558119       -2.19560865
 C           -1.56817990        3.89917165       -1.01405350
 C           -2.21151283        3.67756027        0.20892376
 C           -3.46494889        2.82752964       -2.17247113
 C           -3.94522146        2.37301470        1.32986117
 C           -4.79839040        1.33230674        0.77481811
 C           -4.93805856        1.57933536       -0.64915549
 C           -3.52681937        3.23559825        0.24024164
 C           -4.16434182        2.76595789       -0.97671208




