%chk=000212.chk
%mem=8GB
%Nproc=16
#p B3LYP/6-31G* opt pop=NPA

Template file

0 1
 C            4.35279399       -2.60312881        0.86585549
 C            4.80326634       -1.33542993        0.32038780
 C            4.67613024       -0.33388637        1.36508935
 C            3.81517416       -2.34045691        2.19269872
 C            3.84731582       -0.90371829        2.40695259
 C            2.72356724       -3.06023618        2.64992691
 C            2.12800467       -4.09159863        1.81240743
 C            3.71216547       -3.50236726        0.02585477
 C            2.61823171       -4.31350935        0.53502877
 C            3.36322826       -3.07576618       -1.31954495
 C            4.46656179       -0.98223280       -0.98439209
 C            3.51663069       -1.74150358       -1.66796370
 C            4.67613024        0.33388637       -1.36508935
 C            4.46656179        0.98223280        0.98439209
 C            4.80326634        1.33542993       -0.32038780
 C            3.51663069        1.74150358        1.66796370
 C            2.68933998       -0.23316822        2.79221582
 C            2.52866617        1.10608501        2.43237987
 C            1.64451535       -2.35157460        3.31057900
 C            1.60251574       -0.95564845        3.28829688
 C            0.69020796       -4.06463202        2.02383946
 C            0.42217717       -3.09425164        3.06525282
 C           -0.17679816       -4.14488206        0.93654548
 C            1.68339277       -4.52175058       -0.55355987
 C            2.16263574       -3.77941948       -1.70873897
 C            0.31289295       -4.55048966       -0.31059931
 C            1.22757213       -3.15320763       -2.52092938
 C            2.52866617       -1.10608501       -2.43237987
 C            1.35104371       -1.78202921       -2.77673574
 C            3.84731582        0.90371829       -2.40695259
 C            2.68933998        0.23316822       -2.79221582
 C            4.35279399        2.60312881       -0.86585549
 C            3.81517416        2.34045691       -2.19269872
 C            3.36322826        3.07576618        1.31954495
 C            3.71216547        3.50236726       -0.02585477
 C            2.16263574        3.77941948        1.70873897
 C            1.35104371        1.78202921        2.77673574
 C            1.22757213        3.15320763        2.52092938
 C            0.37189606       -0.32294885        3.46122604
 C            0.26471584        1.05972361        3.28934275
 C           -0.76644452       -2.39117811        3.03233890
 C           -0.77952799       -1.10598637        3.55135887
 C           -1.45482080       -3.57828553        1.04081171
 C           -1.77165447       -2.77066326        2.14379628
 C           -2.37185173       -3.74183225       -0.00082852
 C           -0.51470370       -4.46246184       -1.42102682
 C           -0.02564953       -3.74513418       -2.58813959
 C           -1.91201956       -4.12965837       -1.24925927
 C           -1.13348427       -3.01500430       -3.15789025
 C           -2.33348960       -3.37715456       -2.41935029
 C            0.26471584       -1.05972361       -3.28934275
 C           -0.95519945       -1.69755810       -3.54534759
 C            1.60251574        0.95564845       -3.28829688
 C            0.37189606        0.32294885       -3.46122604
 C            2.72356724        3.06023618       -2.64992691
 C            1.64451535        2.35157460       -3.31057900
 C            2.61823171        4.31350935       -0.53502877
 C            1.68339277        4.52175058        0.55355987
 C            2.12800467        4.09159863       -1.81240743
 C            0.31289295        4.55048966        0.31059931
 C           -0.02564953        3.74513418        2.58813959
 C           -0.51470370        4.46246184        1.42102682
 C           -0.95519945        1.69755810        3.54534759
 C           -1.13348427        3.01500430        3.15789025
 C           -2.00459955       -0.50647310        3.76694125
 C           -2.09615799        0.93693141        3.76523580
 C           -3.01200008       -2.12866437        2.22217751
 C           -3.16499119       -1.03768580        3.07521308
 C           -3.60812384       -3.11460176        0.06135131
 C           -3.94969528       -2.31403881        1.21733386
 C           -3.35983205       -2.44450759       -2.29185384
 C           -4.11816157       -2.43869768       -1.12339783
 C           -2.09615799       -0.93693141       -3.76523580
 C           -3.33482654       -1.30874657       -3.09703950
 C           -0.77952799        1.10598637       -3.55135887
 C           -2.00459955        0.50647310       -3.76694125
 C            0.42217717        3.09425164       -3.06525282
 C            0.69020796        4.06463202       -2.02383946
 C           -0.17679816        4.14488206       -0.93654548
 C           -0.76644452        2.39117811       -3.03233890
 C           -1.45482080        3.57828553       -1.04081171
 C           -1.77165447        2.77066326       -2.14379628
 C           -1.91201956        4.12965837        1.24925927
 C           -2.33348960        3.37715456        2.41935029
 C           -2.37185173        3.74183225        0.00082852
 C           -3.33482654        1.30874657        3.09703950
 C           -3.98789236        0.08587913        2.65448214
 C           -3.35983205        2.44450759        2.29185384
 C           -4.74019572       -1.17976991        0.76267746
 C           -4.78305653       -1.21874009       -0.69098047
 C           -4.61946546        0.04307965        1.41590217
 C           -3.98789236       -0.08587913       -2.65448214
 C           -3.16499119        1.03768580       -3.07521308
 C           -3.01200008        2.12866437       -2.22217751
 C           -4.61946546       -0.04307965       -1.41590217
 C           -3.60812384        3.11460176       -0.06135131
 C           -4.11816157        2.43869768        1.12339783
 C           -4.78305653        1.21874009        0.69098047
 C           -3.94969528        2.31403881       -1.21733386
 C           -4.74019572        1.17976991       -0.76267746




