%chk=000214.chk
%mem=8GB
%Nproc=16
#p B3LYP/6-31G* opt pop=NPA

Template file

0 1
 C            4.84736587       -1.28821221       -0.92644210
 C            4.06192656       -1.55963270       -2.11460906
 C            3.77202943       -0.29137482       -2.76556358
 C            5.03868066        0.15139250       -0.84311852
 C            4.28561218        0.76858268       -1.92310344
 C            5.06903803        0.77363712        0.39595551
 C            4.80862216        0.00396564        1.60237952
 C            4.60819223       -2.02507916        0.22386007
 C            4.59637458       -1.36410145        1.51939822
 C            3.54898937       -3.02088434        0.21949565
 C            3.07336039       -2.53927384       -2.09541943
 C            2.70513581       -3.12982104       -0.88127026
 C            2.17403438       -2.54455746       -3.15135738
 C            2.54514625       -0.13563477       -3.39897664
 C            1.89444180       -1.28950584       -3.83161537
 C            1.80072125        1.03033630       -3.18816883
 C            3.48868011        1.87512546       -1.65741404
 C            2.30316480        2.05954040       -2.37761365
 C            4.42879518        2.06724609        0.55089894
 C            3.74264112        2.63999994       -0.51603772
 C            3.95242707        0.80079967        2.46386608
 C            3.82279794        2.11754672        1.87161401
 C            2.83875328        0.22528856        3.05627173
 C            3.54043855       -1.96578486        2.31302621
 C            2.97808491       -3.06359947        1.55071482
 C            2.67720520       -1.16437524        3.05441437
 C            1.62688443       -3.33489399        1.69551688
 C            1.40543408       -3.62076528       -0.70142949
 C            0.88671713       -3.77166473        0.59495800
 C            0.92927212       -3.27140784       -3.02729876
 C            0.60256082       -3.86845078       -1.81779730
 C            0.47239040       -1.24843724       -4.11705117
 C           -0.09609050       -2.52617606       -3.74009648
 C            0.48339598        1.08787319       -3.64660460
 C           -0.22843849       -0.08912757       -3.84066587
 C           -0.21432023        2.28052576       -3.58643205
 C            1.57922867        3.24563900       -2.22285385
 C            0.34817796        3.39230633       -2.84928153
 C            2.92300071        3.72219147       -0.23160629
 C            1.87590714        4.08895355       -1.16225328
 C            2.63736559        2.83247795        2.02856375
 C            2.38537017        3.84648380        1.11422490
 C            1.76847725        1.04590296        3.40324017
 C            1.56778307        2.24932599        2.71933347
 C            0.75082579        0.51628247        4.18105545
 C            1.46273591       -1.70804887        3.46926033
 C            0.96176491       -2.83653271        2.81253332
 C            0.61864980       -0.92614618        4.25147251
 C           -0.32978520       -3.27588848        3.06663164
 C           -0.43261491       -4.19495583        0.78885816
 C           -1.05930237       -3.94813683        2.00800194
 C           -0.71224342       -4.27768468       -1.64432335
 C           -1.23734108       -4.46364596       -0.30869631
 C           -1.40204905       -2.57925953       -3.27100633
 C           -1.74849723       -3.64783408       -2.44763269
 C           -1.56186332       -0.16541776       -3.43474391
 C           -2.17038128       -1.41174333       -3.24375381
 C           -1.64122625        2.23762353       -3.32490926
 C           -2.25616835        1.00813354       -3.12645395
 C           -0.73757546        4.05742068       -2.14285737
 C           -1.96803328        3.33597313       -2.43654168
 C            0.78856559        4.67181999       -0.39300432
 C            1.05738737        4.40823893        1.01246471
 C           -0.51798433        4.56464913       -0.86280539
 C            0.27347346        2.78502776        2.60823711
 C            0.03795172        3.90954227        1.80800117
 C           -0.57895335        1.08249990        4.08688534
 C           -0.80759510        2.13258647        3.21057906
 C           -0.79616387       -1.24076906        4.33600347
 C           -1.26209126       -2.41281268        3.76867099
 C           -1.53418833       -0.00916584        4.12246386
 C           -2.42173176       -3.43472393        2.00924187
 C           -2.49643915       -2.38534903        3.00551335
 C           -2.61723615       -4.00019694       -0.29972044
 C           -2.96087445       -3.59125791       -1.65135320
 C           -3.07668034       -3.26820299        0.79395813
 C           -3.47000627       -1.46740034       -2.74646311
 C           -3.83878979       -2.53807300       -1.83518251
 C           -3.40178460        0.94684662       -2.33817782
 C           -4.10423314       -0.25073285       -2.26904626
 C           -2.90322350        3.13621046       -1.42874467
 C           -3.67736597        1.97213523       -1.42652697
 C           -1.55870028        4.55356055        0.06300930
 C           -1.26594335        4.24006294        1.45477809
 C           -2.81849796        3.91208945       -0.27564349
 C           -2.09290591        2.31241401        2.70456647
 C           -2.37070945        3.45965819        1.97597377
 C           -3.41002324        3.43583794        0.96299087
 C           -2.60641715        0.01722117        3.23630778
 C           -3.06635682       -1.16928254        2.65379187
 C           -2.99366645        1.24273885        2.69781863
 C           -3.87239033       -2.13555526        0.58636159
 C           -4.44019131       -1.92207470       -0.66912403
 C           -4.83988917       -0.58430399       -1.06117634
 C           -3.91409085       -1.11765074        1.54782368
 C           -4.54233456        1.73291021       -0.36005706
 C           -4.27807059        2.35987386        0.91963468
 C           -4.12818461        1.29319670        1.89507142
 C           -4.98911415        0.38053773       -0.08351702
 C           -4.59722123        0.06537395        1.27984914




