%chk=000134.chk
%mem=8GB
%Nproc=16
#p B3LYP/6-31G* opt pop=NPA

Template file

0 1
 C            4.92390541       -1.06141066        1.32002233
 C            4.38251007       -2.27010011        0.72446138
 C            3.46367452       -2.86087910        1.68396331
 C            4.21492113       -0.83277499        2.57050092
 C            3.20592077       -1.86883650        2.70760498
 C            3.90696442        0.45847544        2.96398776
 C            4.28411139        1.58555702        2.12346489
 C            5.24683129        0.00924044        0.49875079
 C            4.93689462        1.36693736        0.92054140
 C            4.96195732       -0.08621323       -0.92164154
 C            4.05379736       -2.29813571       -0.63028873
 C            4.16593795       -1.13032756       -1.39111777
 C            3.23770455       -3.33058516       -1.07949189
 C            2.40653222       -3.61933589        1.20725637
 C            2.47660891       -4.08950671       -0.10173105
 C            1.16031050       -3.50742891        1.82254814
 C            1.88763605       -1.52464267        2.99882877
 C            0.85824779       -2.37259945        2.58644218
 C            2.58966538        0.73267879        3.50814967
 C            1.58795363       -0.23917629        3.45455286
 C            3.20684823        2.55646603        2.17588152
 C            2.25338001        2.10200273        3.16608482
 C            2.72473341        3.13117160        1.00638353
 C            4.52328187        2.11341976       -0.25529904
 C            4.74777054        1.26385359       -1.41087164
 C            3.38354821        2.91580951       -0.21130196
 C            3.96714178        1.45224193       -2.53722061
 C            3.31346108       -0.91912916       -2.48178308
 C            3.30971312        0.30602943       -3.13788978
 C            2.37295281       -3.10485747       -2.22180714
 C            2.29380303       -1.82748062       -2.75547716
 C            1.27540289       -4.57500274       -0.75771619
 C            1.15277544       -3.86601286       -2.01937448
 C            0.13483630       -4.33228997        1.38322666
 C            0.13952332       -4.78609789        0.00358505
 C           -1.23228138       -4.01843827        1.73368603
 C           -0.47293129       -2.03126918        2.85426977
 C           -1.49970161       -2.93600506        2.56004488
 C            0.25702004        0.17322578        3.53076126
 C           -0.77318934       -0.75060837        3.33655269
 C            0.91559365        2.41690729        3.00182212
 C           -0.02362437        1.54052907        3.52183250
 C            1.44837378        3.69006243        1.01691094
 C            0.52559004        3.30232251        1.99356928
 C            1.01392037        4.37606647       -0.10298138
 C            2.77481643        3.29368657       -1.41231912
 C            3.02861242        2.56076046       -2.56931302
 C            1.63090851        4.08207392       -1.38041976
 C            2.07542650        0.76926770       -3.74335353
 C            1.91126893        2.17329764       -3.41597705
 C            1.08319397       -1.37538359       -3.29028708
 C            0.96030523       -0.05070968       -3.71510305
 C           -0.06215311       -3.29035106       -2.37391497
 C           -0.05609678       -2.18237809       -3.21868879
 C           -1.15395842       -4.45187805       -0.56192625
 C           -2.05170917       -4.20578492        0.54517973
 C           -1.22739690       -3.62562272       -1.67493184
 C           -3.14525776       -3.36903405        0.36012641
 C           -2.82087308       -2.51831629        2.63203222
 C           -3.69110839       -2.77583500        1.49584238
 C           -2.10275348       -0.35052190        3.51321232
 C           -3.13159496       -1.20205186        3.14054291
 C           -1.33126929        1.97546440        3.61090059
 C           -2.40135977        1.00187086        3.62871236
 C           -0.83519614        3.60795733        1.84788157
 C           -1.74204696        3.08758953        2.77300939
 C           -0.40611938        4.54573134       -0.32762473
 C           -1.30869251        4.18781270        0.66538753
 C            0.56318939        3.80456237       -2.32976134
 C            0.64223258        2.66636785       -3.11915054
 C           -0.68971071        4.14966910       -1.69854744
 C           -0.29613231        0.53904858       -3.75339590
 C           -0.46913572        1.82100302       -3.22630958
 C           -1.26702282       -1.69422269       -3.69569112
 C           -1.39474988       -0.27337881       -3.96931094
 C           -2.40412775       -2.91583234       -1.91005386
 C           -3.35968004       -2.78259290       -0.89276705
 C           -2.49217916       -2.13275949       -3.05723548
 C           -4.42493715       -1.89727562       -1.05546984
 C           -4.60961364       -1.65855042        1.36911018
 C           -4.24142393       -0.66772878        2.36398070
 C           -4.99591837       -1.24250822        0.10914917
 C           -3.51188788        1.54534268        2.86264536
 C           -3.12467958        2.86231236        2.39010279
 C           -4.24895106        0.68915684        2.04660194
 C           -2.63132503        3.98515003        0.27669744
 C           -3.55764480        3.28854506        1.15050517
 C           -1.82171680        3.38703040       -1.94865545
 C           -1.70008783        2.18424194       -2.65301025
 C           -2.89728973        3.56372434       -1.08925951
 C           -2.69603699        0.15802485       -3.50470104
 C           -3.43427969       -1.03064794       -3.11506219
 C           -4.40317464       -0.92604284       -2.13526880
 C           -2.79550248        1.31252997       -2.73542560
 C           -5.07536501        0.17902079       -0.17367845
 C           -4.66821824        1.11307418        0.77797212
 C           -4.35883318        2.39695187        0.33169470
 C           -3.95950247        2.58242564       -1.05541126
 C           -4.68769900        0.37679784       -1.56146501
 C           -3.89556915        1.47506245       -1.88749052




