%chk=000061.chk
%mem=8GB
%Nproc=16
#p B3LYP/6-31G* opt pop=NPA

Template file

0 1
 C            5.36804331       -0.38196087        0.71004781
 C            4.95779793        0.68721062        1.60642015
 C            3.97796792        0.14216363        2.52948416
 C            4.84259631       -1.62748754        1.24511006
 C            3.96955388       -1.29875118        2.35817226
 C            4.48072480       -2.65215374        0.38387219
 C            4.51520982       -2.43505449       -1.05436790
 C            5.37565420       -0.16708583       -0.66442079
 C            4.84850961       -1.18479134       -1.55695989
 C            4.97468815        1.12486920       -1.19387227
 C            4.76433807        1.96441452        1.10939496
 C            4.79613113        2.19384892       -0.33005036
 C            3.67587530        2.76071618        1.64591366
 C            2.76690581        0.80808575        2.73599541
 C            2.62414460        2.13270340        2.31656090
 C            1.63988665        0.06756057        3.10087205
 C            2.76573380       -1.96822709        2.51848150
 C            1.74826002       -1.32099366        3.20597778
 C            3.30106663       -3.44586174        0.68589693
 C            2.44177101       -3.05430740        1.69978209
 C            3.38589221       -3.14198519       -1.62935621
 C            2.72980418       -3.88872359       -0.56754894
 C            2.59269554       -2.51532117       -2.58482999
 C            3.93591465       -0.53418105       -2.48460781
 C            3.98062907        0.89112720       -2.22791770
 C            2.71841815       -1.13793773       -2.77235495
 C            2.79687599        1.62088929       -2.21300947
 C            3.75795470        3.16343744       -0.62786597
 C            3.37424103        3.75603634        0.63875668
 C            2.76103027        2.84982944       -1.55356225
 C            2.15776669        4.40245465        0.70494274
 C            1.36049159        2.72960797        2.31036426
 C            1.20929013        3.98202222        1.72042150
 C            0.37731054        0.66796823        3.08455779
 C            0.22868844        1.95891948        2.58196649
 C           -0.74593252       -0.05310372        3.49235720
 C            0.64152491       -2.06729788        3.56883743
 C           -0.60202758       -1.38891651        3.85636461
 C            1.12749534       -3.51603503        1.67574676
 C            0.32899038       -3.24265320        2.77579054
 C            1.35541615       -4.09607462       -0.66292210
 C            0.53634347       -3.85232718        0.45062193
 C            1.39263840       -3.12636281       -2.90673259
 C            0.80428557       -4.03469386       -1.93456713
 C            0.31864294       -2.32244130       -3.45041721
 C            1.57277110       -0.34709332       -2.92864921
 C            1.60373593        1.01503448       -2.61337054
 C            0.37085223       -0.94195930       -3.31224601
 C            0.42608029        1.76368790       -2.63390921
 C            1.57114649        3.57297709       -1.52127813
 C            1.39332761        4.52568604       -0.51724919
 C            0.45607991        3.09469568       -2.20979023
 C           -0.10179969        4.39954754        1.25800168
 C            0.05152194        4.88039838       -0.10696022
 C           -1.05099800        2.46690602        2.33258109
 C           -1.21229948        3.62880456        1.57121609
 C           -2.02346195        0.45439973        3.25237581
 C           -2.17558863        1.72551011        2.69689628
 C           -3.12715397       -0.39631337        3.33790264
 C           -1.66489151       -2.32923079        3.55843178
 C           -1.10980517       -3.32100311        2.65439940
 C           -2.92789298       -1.83282959        3.30465361
 C           -0.86313108       -3.78984330        0.29857944
 C           -1.68112723       -3.49344534        1.39986574
 C           -0.62786262       -3.97024720       -2.08812106
 C           -0.91577212       -3.01449942       -3.14617557
 C           -1.43998139       -3.98016722       -0.96381456
 C           -2.09104395       -2.28638862       -3.06615564
 C           -0.82314093       -0.22816826       -3.20952319
 C           -0.79005779        1.14729047       -2.95727674
 C           -2.04627183       -0.90839990       -3.27824506
 C           -1.97069491        1.89704936       -3.00704787
 C           -0.72361353        3.82776904       -2.15788947
 C           -0.98183798        4.66660824       -1.00024847
 C           -1.97307970        3.19650391       -2.52512801
 C           -2.37680171        3.80816831        0.82473808
 C           -2.27919122        4.28231872       -0.47811652
 C           -2.97337727        3.57301521       -1.53625927
 C           -3.43076580        2.13361465        2.24954829
 C           -3.51698006        3.10763308        1.18094221
 C           -4.31036662       -0.11794219        2.54605413
 C           -4.46717358        1.14610662        2.01305108
 C           -3.66333785       -2.33866660        2.15932199
 C           -3.02051579       -3.13645401        1.21484389
 C           -4.54778218       -1.27661720        1.70232154
 C           -2.77670117       -3.65888940       -1.16185028
 C           -3.12190736       -2.81981267       -2.29774685
 C           -3.59306060       -3.24526737       -0.04224970
 C           -4.75894894       -1.11499727        0.33435580
 C           -4.24785166       -1.98572360       -1.91753704
 C           -4.49465309       -2.19792437       -0.50233815
 C           -3.23375111       -0.19225868       -3.22802105
 C           -3.19311458        1.24227568       -3.04932677
 C           -4.33800770       -0.70590823       -2.43484685
 C           -3.96835956        2.65756473       -1.20142114
 C           -4.35925327        2.54376415        0.13362218
 C           -4.89005494        1.28241382        0.63067812
 C           -4.90652830        0.16914647       -0.20437309
 C           -4.21492181        1.60283911       -2.07695194
 C           -4.79984206        0.36918585       -1.57761018




