%chk=000357.chk
%mem=8GB
%Nproc=16
#p B3LYP/6-31G* opt pop=NPA

Template file

0 1
 C            4.40109374       -1.81821085       -1.15802872
 C            4.77507976       -0.41501438       -1.23904786
 C            4.89941591        0.08765370        0.12267331
 C            4.48494099       -2.21287273        0.23802962
 C            4.57589348       -0.99770818        1.02616393
 C            3.68464759       -3.24585695        0.69079830
 C            2.80797612       -3.90779703       -0.25364759
 C            3.36389798       -2.29696412       -1.95470872
 C            2.49455019       -3.26999851       -1.45285845
 C            3.00869338       -1.57684000       -3.08817520
 C            4.20612553        0.39529563       -2.21977110
 C            3.41846269       -0.18520860       -3.21154916
 C            4.09394857        1.76287314       -1.98212873
 C            4.44788767        1.36843159        0.41345674
 C            4.31655730        2.27071578       -0.63832021
 C            3.78555003        1.61128095        1.62140718
 C            3.66415674       -0.76726331        2.04802098
 C            3.42087255        0.54391338        2.45230096
 C            2.92602893       -3.06221161        1.91636995
 C            2.81615938       -1.79502499        2.47434352
 C            1.75729902       -4.53806677        0.52231087
 C            1.73825172       -3.89290008        1.82487913
 C            0.55418381       -4.82406373       -0.09626219
 C            1.21709071       -3.42182246       -2.00485299
 C            0.31821403       -4.31845639       -1.43722599
 C            1.66055492       -1.69334949       -3.60821581
 C            0.74985048       -2.50548585       -2.94467161
 C            2.29909863        0.56126657       -3.76655246
 C            1.23668015       -0.37915761       -4.05595187
 C            2.97564769        2.50053365       -2.55144931
 C            1.98533513        1.80904390       -3.24313003
 C            3.50636528        3.46510417       -0.47641172
 C            2.59778285        3.53589816       -1.60659946
 C            3.30705030        2.89331069        1.88762470
 C            3.04085167        3.79660790        0.78351565
 C            2.25236083        3.08522442        2.86629655
 C            2.58398444        0.76087824        3.54242616
 C            1.90872254        2.03628525        3.69825155
 C            1.69141392       -1.49317502        3.23868365
 C            1.65123129       -0.28345170        3.92220160
 C            0.53028620       -3.41852250        2.33104270
 C            0.50817945       -2.21393619        3.04495952
 C           -0.67718367       -4.65721325        0.65333256
 C           -0.66304182       -3.98004922        1.87032150
 C           -1.10548224       -4.06597270       -1.57016217
 C           -1.73606399       -4.37098209       -0.30016828
 C           -0.61061026       -2.18565316       -2.98967977
 C           -1.53498940       -2.95092007       -2.27290189
 C           -0.07828801       -0.00315079       -3.84517546
 C           -1.01641679       -0.99679968       -3.60053486
 C            0.64445545        2.17852446       -3.08463089
 C           -0.37744357        1.31816148       -3.51002729
 C            1.24899004        3.78446647       -1.39612625
 C            0.33295630        3.31159353       -2.33036545
 C            1.67762227        4.27729154        0.93028591
 C            1.19965103        3.86189207        2.23400379
 C            0.79713922        4.21779744       -0.14532449
 C           -0.12740973        3.46314038        2.35192930
 C            0.50570270        1.76355109        3.94979086
 C            0.36574611        0.33994382        4.17998660
 C           -0.47366966        2.41623167        3.21290258
 C           -0.70919027       -1.66036074        3.44951620
 C           -0.78228331       -0.30437885        3.74373373
 C           -1.87252266       -3.52442181        2.37726546
 C           -1.88740317       -2.35363859        3.23166489
 C           -2.82258852       -3.60898385        0.11525035
 C           -3.01568380       -3.43090192        1.48427126
 C           -2.79820455       -2.43210568       -2.00117755
 C           -3.42586955       -2.72586260       -0.78486201
 C           -2.35905745       -0.65571078       -3.61900468
 C           -3.29315136       -1.42351040       -2.81898757
 C           -1.71770128        1.70661980       -3.40055389
 C           -2.72102457        0.74606850       -3.51300294
 C           -0.98151548        3.73974556       -2.24172164
 C           -2.03604142        2.92103892       -2.80419025
 C           -0.57437157        4.24142689        0.11172492
 C           -1.03904510        3.88108229        1.38240982
 C           -1.44737452        4.26240640       -0.97203614
 C           -2.38916175        3.61639477        1.58710828
 C           -1.73221107        1.82752787        3.10626289
 C           -1.86463204        0.44530029        3.27142264
 C           -2.74990496        2.54866304        2.50035695
 C           -3.09621318       -1.60033378        2.94467242
 C           -3.86116159       -2.35195988        1.96486226
 C           -3.02632280       -0.21151086        2.84574802
 C           -4.50432625       -1.95409435       -0.35517304
 C           -4.64990158       -1.66442578        1.05957279
 C           -4.30512820       -0.51156765       -2.31844412
 C           -3.88984558        0.83868818       -2.65139955
 C           -4.88111520       -0.75700911       -1.08720681
 C           -3.18461502        2.99491724       -1.91281680
 C           -2.83331310        3.86453531       -0.80482171
 C           -3.30417981        3.57161377        0.46040199
 C           -3.94686379        1.84932984       -1.69459180
 C           -3.88951676        1.84798755        1.94457344
 C           -3.99114180        0.47215615        2.09965798
 C           -4.78996114       -0.22587557        1.19679783
 C           -5.00144561        0.32948643       -0.13106208
 C           -4.18237036        2.43152947        0.64455731
 C           -4.47767739        1.58732285       -0.42443250




