%chk=000025.chk
%mem=8GB
%Nproc=16
#p B3LYP/6-31G* opt pop=NPA

Template file

0 1
 C            5.41305329       -0.65687817       -0.00000000
 C            4.98516177       -1.39674398       -1.17843559
 C            4.34105913       -2.61430995       -0.72648013
 C            4.98516177       -1.39674398        1.17843559
 C            4.34105913       -2.61430995        0.72648013
 C            4.45782211       -0.72184753        2.26951090
 C            4.43519184        0.73095357        2.27942084
 C            5.36685473        0.73147366       -0.00000000
 C            4.88816447        1.44049714        1.17657450
 C            4.88816447        1.44049714       -1.17657450
 C            4.45782211       -0.72184753       -2.26951090
 C            4.43519184        0.73095357       -2.27942084
 C            3.21691836       -1.19529773       -2.86331322
 C            3.20914709       -3.09167546       -1.38007407
 C            2.53742226       -2.25908506       -2.28072802
 C            2.49204570       -4.08357576       -0.72839352
 C            3.20914709       -3.09167546        1.38007407
 C            2.49204570       -4.08357576        0.72839352
 C            3.21691836       -1.19529773        2.86331322
 C            2.53742226       -2.25908506        2.28072802
 C            3.21281359        1.14908164        2.93909228
 C            2.46651810       -0.03799978        3.31161056
 C            2.50392248        2.24468540        2.46813814
 C            4.14340068        2.60152200        0.72447474
 C            4.14340068        2.60152200       -0.72447474
 C            2.97612267        2.98366293        1.37609119
 C            2.97612267        2.98366293       -1.37609119
 C            3.21281359        1.14908164       -2.93909228
 C            2.46651810       -0.03799978       -3.31161056
 C            2.50392248        2.24468540       -2.46813814
 C            1.08245255       -0.02630462       -3.17274606
 C            1.14190757       -2.31604728       -2.38011789
 C            0.41933557       -1.19374837       -2.80078802
 C            1.14217196       -4.37961220       -1.15525286
 C            0.46341399       -3.45435590       -1.94157935
 C            1.14217196       -4.37961220        1.15525286
 C            0.47233816       -4.94353654       -0.00000000
 C            1.14190757       -2.31604728        2.38011789
 C            0.46341399       -3.45435590        1.94157935
 C            1.08245255       -0.02630462        3.17274606
 C            0.41933557       -1.19374837        2.80078802
 C            1.16628206        2.35923535        2.83087409
 C            0.42142614        1.19822141        3.06656160
 C            0.51742350        3.54509659        2.53392054
 C            2.09222363        3.82745733        0.70053022
 C            2.09222363        3.82745733       -0.70053022
 C            0.99222267        4.31310257        1.40089674
 C            0.99222267        4.31310257       -1.40089674
 C            1.16628206        2.35923535       -2.83087409
 C            0.42142614        1.19822141       -3.06656160
 C            0.51742350        3.54509659       -2.53392054
 C           -0.97311321        1.21953658       -2.95864478
 C           -0.97096640       -1.19264781       -2.71845609
 C           -1.67681436        0.01182136       -2.84789234
 C           -0.93205027       -3.47805423       -1.94640494
 C           -1.64109872       -2.38463880       -2.44379974
 C           -0.90575524       -4.96551365       -0.00000000
 C           -1.59155651       -4.41974914       -1.15290912
 C           -0.93205027       -3.47805423        1.94640494
 C           -1.59155651       -4.41974914        1.15290912
 C           -0.97096640       -1.19264781        2.71845609
 C           -1.64109872       -2.38463880        2.44379974
 C           -0.97311321        1.21953658        2.95864478
 C           -1.67681436        0.01182136        2.84789234
 C           -0.92647932        3.58614296        2.53270359
 C           -1.64589291        2.44186246        2.84301994
 C           -0.16551934        4.82610382        0.68991165
 C           -0.16551934        4.82610382       -0.68991165
 C           -1.35428374        4.39117157        1.39951741
 C           -0.92647932        3.58614296       -2.53270359
 C           -1.64589291        2.44186246       -2.84301994
 C           -1.35428374        4.39117157       -1.39951741
 C           -2.99565407        2.45001404       -2.52743106
 C           -3.07559723        0.01977564       -2.78842462
 C           -3.73304574        1.20941782       -2.51491674
 C           -3.02967065       -2.39845398       -2.39847937
 C           -3.75400142       -1.15055955       -2.48138138
 C           -2.95822085       -4.17313297       -0.72897726
 C           -2.95822085       -4.17313297        0.72897726
 C           -3.70293233       -3.22908774       -1.41586196
 C           -3.02967065       -2.39845398        2.39847937
 C           -3.70293233       -3.22908774        1.41586196
 C           -3.07559723        0.01977564        2.78842462
 C           -3.75400142       -1.15055955        2.48138138
 C           -2.99565407        2.45001404        2.52743106
 C           -3.73304574        1.20941782        2.51491674
 C           -2.49816278        4.00561927        0.70137889
 C           -2.49816278        4.00561927       -0.70137889
 C           -3.44176387        3.25245302       -1.39906664
 C           -3.44176387        3.25245302        1.39906664
 C           -4.66508956        1.24940510       -1.39882436
 C           -4.66508956        1.24940510        1.39882436
 C           -4.45913508        2.49874563       -0.68940319
 C           -4.45913508        2.49874563        0.68940319
 C           -4.72738769       -1.12356638       -1.39897871
 C           -4.64221033       -2.38681348       -0.69262620
 C           -4.64221033       -2.38681348        0.69262620
 C           -4.72738769       -1.12356638        1.39897871
 C           -4.91716896        0.06894985       -0.70189270
 C           -4.91716896        0.06894985        0.70189270




