%chk=000169.chk
%mem=8GB
%Nproc=16
#p B3LYP/6-31G* opt pop=NPA

Template file

0 1
 C            5.18732217       -0.66978115        0.70294742
 C            4.75740502        0.37127095        1.61929216
 C            3.93686091       -0.24727559        2.65005337
 C            4.65117382       -1.93510614        1.17962025
 C            3.81947886       -1.65897564        2.33685528
 C            4.24455255       -2.90186096        0.27219498
 C            4.30279737       -2.62732825       -1.15490814
 C            5.22549612       -0.40267174       -0.65587238
 C            4.71272332       -1.37985419       -1.60332487
 C            4.84170689        0.91272579       -1.12936408
 C            4.40181434        1.63116725        1.14248948
 C            4.48346347        1.91496927       -0.22902250
 C            3.64592705        2.44609053        1.98395155
 C            2.82724955        0.44268949        3.13544455
 C            2.80958907        1.82686272        3.00025493
 C            1.62881254       -0.24814265        3.35591509
 C            2.57785087       -2.26545737        2.46129895
 C            1.61492083       -1.64092859        3.24417084
 C            3.02424399       -3.64716384        0.53233093
 C            2.18500832       -3.26489070        1.56628024
 C            3.14100763       -3.24595749       -1.76799241
 C            2.43283995       -3.99504251       -0.74230439
 C            2.39563315       -2.54176037       -2.70912043
 C            3.88397884       -0.67508567       -2.56762301
 C            4.04601430        0.74125530       -2.33619595
 C            2.62790836       -1.17608922       -2.87712544
 C            2.98063888        1.60254478       -2.55410041
 C            3.82062655        3.02314037       -0.75140268
 C            3.08275529        2.86638818       -1.99599054
 C            2.92924549        3.59047775        1.45389092
 C            3.05474123        3.90134584        0.11427883
 C            1.54358003        2.53199768        3.02425623
 C            1.61231934        3.62187576        2.06893250
 C            0.41970895        0.45495007        3.45374634
 C            0.37024835        1.80506819        3.12175877
 C           -0.77641822       -0.23244798        3.66489773
 C            0.45364892       -2.34074560        3.53114847
 C           -0.74263086       -1.60646189        3.87934634
 C            0.84717683       -3.64581481        1.51437073
 C            0.06394541       -3.41420347        2.63374836
 C            1.04891544       -4.11251681       -0.85055267
 C            0.24188597       -3.87564158        0.27251672
 C            1.15926686       -3.05911658       -3.05482900
 C            0.50679454       -3.96145105       -2.11872476
 C            0.14570522       -2.16666382       -3.57571588
 C            1.55097645       -0.29502866       -3.05160967
 C            1.71170645        1.07950810       -2.83804385
 C            0.30036750       -0.79657260       -3.41056815
 C            0.58646758        1.92008242       -2.83743274
 C            1.91686343        3.71035872       -1.93447081
 C            1.88398522        4.33689099       -0.62321061
 C            0.72119418        3.26922265       -2.47942050
 C            0.49066617        3.91142701        1.29493323
 C            0.65376256        4.45554318        0.01653551
 C           -0.80383710        2.33536748        2.60156840
 C           -0.74881684        3.38295357        1.67278718
 C           -1.99502204        0.39127982        3.38039474
 C           -2.00711871        1.68979014        2.86629213
 C           -3.16743760       -0.36430540        3.37059143
 C           -1.87148509       -2.42428636        3.47598533
 C           -1.37650589       -3.38326809        2.50431526
 C           -3.08539484       -1.80695063        3.24232316
 C           -1.14922529       -3.71566907        0.12335217
 C           -1.95020271       -3.42995479        1.23940590
 C           -0.91698653       -3.79200544       -2.26969532
 C           -1.13579871       -2.77303588       -3.28467602
 C           -1.73234197       -3.79783239       -1.14750140
 C           -2.25196847       -1.96235564       -3.16676634
 C           -0.83441335        0.00210199       -3.27196095
 C           -0.69136230        1.37746107       -3.05152454
 C           -2.10746332       -0.58383010       -3.32734047
 C           -1.82432615        2.19969239       -2.98600912
 C           -0.40831954        3.99192726       -2.12897501
 C           -0.45980120        4.58808141       -0.80336750
 C           -1.71462911        3.46277817       -2.43092075
 C           -1.90378243        3.78572813        0.99843710
 C           -1.78087246        4.34409491       -0.26340595
 C           -2.60741112        3.83111315       -1.34340378
 C           -3.19192549        2.23755424        2.39080046
 C           -3.13190771        3.24080218        1.34837122
 C           -4.29615842        0.07072072        2.56777998
 C           -4.31873857        1.37052492        2.09914182
 C           -3.84398586       -2.17458779        2.06008878
 C           -3.25878034       -2.96588582        1.07402334
 C           -4.62785067       -1.01479508        1.66101825
 C           -3.04110811       -3.37021894       -1.32872498
 C           -3.32044857       -2.45088718       -2.41969514
 C           -3.82959000       -2.95749735       -0.18872937
 C           -4.81525249       -0.76133017        0.30346084
 C           -4.37823010       -1.55269282       -1.99335785
 C           -4.64140644       -1.81695400       -0.58988326
 C           -3.23801343        0.21488163       -3.23292244
 C           -3.08925363        1.63253972       -2.99900962
 C           -4.36923137       -0.24564895       -2.44518667
 C           -3.67953676        2.99560311       -1.04082918
 C           -4.05541570        2.84219099        0.29362746
 C           -4.71609485        1.61928015        0.72547539
 C           -4.84310264        0.55778877       -0.16569450
 C           -4.04408228        2.02271740       -1.97016380
 C           -4.72928691        0.81920249       -1.52803121




