%chk=000198.chk
%mem=8GB
%Nproc=16
#p B3LYP/6-31G* opt pop=NPA

Template file

0 1
 C            4.69628658       -1.58716848        1.27051999
 C            3.83907873       -2.75746455        1.31714569
 C            3.62323344       -3.20369691       -0.04982992
 C            4.94758706       -1.28519082       -0.13061880
 C            4.09953092       -2.15472673       -0.92647223
 C            5.11355151        0.02856271       -0.53428758
 C            4.97538904        1.10916659        0.43300149
 C            4.48202930       -0.55704000        2.17358629
 C            4.61387049        0.82543509        1.74065019
 C            3.34856676       -0.63557988        3.07859553
 C            2.77517126       -2.81592146        2.21547581
 C            2.43137132       -1.67862136        2.95414568
 C            1.82941832       -3.81536594        2.01902348
 C            2.43058865       -3.84174101       -0.35164709
 C            1.72455472       -4.41679224        0.70086296
 C            1.74324158       -3.47774470       -1.50980945
 C            3.22581188       -1.60223547       -1.85987179
 C            2.02272933       -2.25508741       -2.13197084
 C            4.47063713        0.46290987       -1.76018834
 C            3.42420308       -0.29057743       -2.29599469
 C            4.33878352        2.22291858       -0.24847729
 C            4.33468813        1.90195360       -1.66385271
 C            3.21800332        2.83809164        0.31231420
 C            3.54431451        1.58902508        2.35709021
 C            2.85913226        0.71531333        3.28915056
 C            2.79300251        2.47801886        1.59358527
 C            1.50421025        0.90228548        3.50395689
 C            1.10419823       -1.46325139        3.34493944
 C            0.72089852       -0.20277449        3.81174613
 C            0.48326366       -3.63779583        2.52423035
 C            0.12695166       -2.42864095        3.09185026
 C            0.34597106       -4.82660146        0.50520957
 C           -0.43793119       -4.26661734        1.59338654
 C            0.57981761       -4.16270652       -1.83406989
 C           -0.17908406       -4.80880411       -0.77560856
 C           -0.36436963       -3.56910685       -2.75848007
 C            1.06149629       -1.63558460       -2.93749291
 C           -0.09462365       -2.32699536       -3.31402072
 C            2.44888453        0.34293783       -3.06840525
 C            1.24469713       -0.30989030       -3.34249445
 C            3.41244380        2.53071982       -2.47531736
 C            2.55203160        1.71394054       -3.31388767
 C            2.36800844        3.57786466       -0.51365660
 C            2.57158728        3.55852377       -1.89437731
 C            1.16689939        4.07888372       -0.00704401
 C            1.50001790        2.79630655        2.00363855
 C            0.88870951        2.05827366        3.02535136
 C            0.77236977        3.74264998        1.28815742
 C           -0.43241169        2.32283447        3.39393129
 C           -0.59377640        0.00970917        4.20453694
 C           -1.17537904        1.32830836        4.02177544
 C           -1.21422614       -2.06460040        3.09110624
 C           -1.59900471       -0.97380140        3.85185022
 C           -1.65350285       -3.64391439        1.31292512
 C           -2.06133320       -2.55384038        2.09286743
 C           -1.57344390       -4.45252383       -0.95637276
 C           -1.70721522       -3.84880734       -2.27059876
 C           -2.29885447       -3.92175333        0.10518233
 C           -2.72170286       -2.91902148       -2.48929281
 C           -1.15461413       -1.63121676       -3.87869337
 C           -2.50586092       -1.89239788       -3.40691809
 C            0.16203977        0.42914236       -3.82635521
 C           -1.03303999       -0.20851201       -4.11230596
 C            1.34362133        2.48263886       -3.55809105
 C            1.43730377        3.70921518       -2.78441449
 C            0.13612663        1.80478309       -3.63042105
 C            0.24037697        4.64323419       -0.88485469
 C            0.28070145        4.28013933       -2.28722281
 C           -1.15959166        4.70893131       -0.51052434
 C           -0.46902319        4.15163884        1.76229140
 C           -1.10896715        3.38906984        2.81725093
 C           -1.49896146        4.55478352        0.82077042
 C           -2.51504463        3.23586711        2.47066209
 C           -2.70672912        3.82399367        1.15621004
 C           -2.57581141        1.15507355        3.66857761
 C           -2.82343844       -0.27231097        3.52658529
 C           -3.17681070        2.05131449        2.78677059
 C           -3.28582585       -1.92562633        1.83848006
 C           -3.60913103       -0.72566272        2.47762205
 C           -3.50170487       -3.29585962       -0.18419900
 C           -3.71960442       -2.77250701       -1.52608508
 C           -4.05587881       -2.34531567        0.75963754
 C           -4.40541563       -1.49778578       -1.39061562
 C           -4.80737924       -1.36425197       -0.00209397
 C           -3.16542087       -0.60770328       -3.22228638
 C           -2.26455404        0.42699987       -3.68400334
 C           -3.92564014       -0.39074638       -2.08398730
 C           -1.03988033        2.40681445       -3.17282548
 C           -0.99967540        3.67168306       -2.60395732
 C           -1.91062010        3.97295169       -1.51522786
 C           -2.17716061        1.62472178       -2.98777865
 C           -3.36848795        3.08829639        0.17804333
 C           -3.91016373        0.86369821       -1.46807620
 C           -2.83028152        3.00819940       -1.10831308
 C           -2.98326706        1.83637395       -1.86348510
 C           -4.18831368        1.59831224        1.94085183
 C           -4.47323278        0.17521843        1.86233023
 C           -4.97122284       -0.09654642        0.52581926
 C           -4.28989010        2.13933034        0.59228722
 C           -4.63989909        1.05137043       -0.29910348




