%chk=000255.chk
%mem=8GB
%Nproc=16
#p B3LYP/6-31G* opt pop=NPA

Template file

0 1
 C            4.79498315        0.72532154        1.38976100
 C            4.14457007        2.01832449        1.49274816
 C            3.28947076        2.00381715        2.66900319
 C            4.31155793       -0.10020422        2.48555508
 C            3.29586404        0.65504764        3.19820321
 C            4.13033390       -1.46180869        2.29857303
 C            4.41225982       -2.06087719        1.00379026
 C            4.99086606        0.16746440        0.13510515
 C            4.81590532       -1.26334439       -0.05645496
 C            4.45094172        0.84606180       -1.03173090
 C            3.68671334        2.66448679        0.34868433
 C            3.64900783        1.97019179       -0.86454375
 C            2.83915630        3.74649352        0.53550787
 C            2.09759436        2.72412838        2.62952306
 C            2.03647007        3.79478081        1.74781703
 C            0.90988969        2.11475165        3.05447592
 C            2.08408125        0.05967778        3.51425241
 C            0.96905326        0.87254579        3.69497877
 C            2.93611003       -2.09505127        2.82984486
 C            1.91568284       -1.32015892        3.36435530
 C            3.42747789       -3.10280021        0.77409066
 C            2.58314657       -3.19042531        1.95069600
 C            2.83478764       -3.24588676       -0.47638786
 C            4.21947620       -1.46611176       -1.36337507
 C            4.05833887       -0.16693610       -1.99017444
 C            3.21646173       -2.41469641       -1.53767973
 C            2.94101118        0.04737491       -2.78253922
 C            2.64750520        2.24827071       -1.80342216
 C            2.32718233        1.30365177       -2.79294026
 C            2.01382156        4.20497238       -0.56107904
 C            1.94928891        3.45636813       -1.72634475
 C            0.75650653        4.37681540        1.41200944
 C            0.78663325        4.74313438        0.00426141
 C           -0.33480334        2.65745879        2.69395869
 C           -0.40412822        3.83350499        1.93970897
 C           -1.51473901        1.98920844        3.03641689
 C           -0.18830179        0.30123142        4.20172675
 C           -1.46726071        0.90989902        3.90219365
 C            0.63661861       -1.86437213        3.44514702
 C           -0.34375715       -1.13810224        4.10435916
 C            1.24253034       -3.50950647        1.77517781
 C            0.27081514       -2.89939771        2.57772237
 C            1.63815483       -3.95885278       -0.56109709
 C            0.85903103       -4.12812643        0.58890180
 C            1.08424490       -4.18670452       -1.81635332
 C            2.38385157       -2.29768686       -2.65000519
 C            2.25734880       -1.05779372       -3.28420496
 C            1.46270043       -3.30803007       -2.90610662
 C            1.24982762       -0.85322650       -4.21581948
 C            1.28594007        1.54795430       -3.69697595
 C            0.69633648        0.47757535       -4.36350152
 C            0.89637514        3.70220471       -2.59317368
 C            0.53451072        2.70862950       -3.57946894
 C           -0.39158840        4.68468913       -0.73661190
 C           -0.33075350        4.28846570       -2.07284129
 C           -1.60661771        4.19440217        1.34385180
 C           -1.60499345        4.59482605       -0.05605644
 C           -2.68387820        2.22501506        2.31806944
 C           -2.79418993        3.39478444        1.57786058
 C           -3.61519279        1.19667013        2.13553717
 C           -2.44429911       -0.15178348        3.75407311
 C           -1.73963391       -1.42173454        3.84804598
 C           -3.46734208       -0.01293143        2.82145988
 C           -1.07887411       -3.23483380        2.40434356
 C           -2.08299211       -2.45037180        2.98149605
 C           -0.42946522       -4.63527787        0.49200611
 C           -1.42478039       -4.19663117        1.45601327
 C           -0.33708504       -4.45846852       -1.94405521
 C           -1.07818405       -4.71394458       -0.80576378
 C            0.26390951       -3.01914385       -3.67607250
 C            0.14789002       -1.79318989       -4.30360698
 C           -0.86621215       -3.52484852       -2.91979141
 C           -0.75459252        0.35810617       -4.34072121
 C           -1.07818083       -1.03602466       -4.13003911
 C           -0.91599361        2.60188815       -3.59920967
 C           -1.44988774        3.56790574       -2.66189225
 C           -1.48837299        1.33930736       -3.68785526
 C           -2.73592079        3.94341151       -0.69480855
 C           -3.57606470        3.39681774        0.35413304
 C           -2.52681178        3.21834233       -1.86250058
 C           -4.53202064        1.27941723        1.08839441
 C           -4.36857007        2.29959962        0.07104052
 C           -4.92709809        0.07012964        0.39778596
 C           -4.06983438       -1.16815449        2.32390213
 C           -3.35889360       -2.43445678        2.42254939
 C           -4.74067450       -1.14287280        1.03294768
 C           -2.68732366       -4.08017670        0.74726766
 C           -2.37784292       -4.08608780       -0.66919343
 C           -3.63216725       -3.18454121        1.20928000
 C           -4.23019146       -2.26116451        0.26353419
 C           -1.89561294       -2.65784441       -2.55103564
 C           -1.95504532       -1.38022977       -3.10979569
 C           -2.68749185       -2.96715408       -1.44437244
 C           -3.59801207       -2.02785060       -0.95805396
 C           -2.46384780        0.96846413       -2.75624236
 C           -3.11152119        1.95832259       -2.00896478
 C           -4.18621528        1.61242105       -1.19770797
 C           -4.48863958        0.21026175       -0.98052824
 C           -2.70998908       -0.38785538       -2.48777195
 C           -3.65634583       -0.75692212       -1.53326969




