%chk=000083.chk
%mem=8GB
%Nproc=16
#p B3LYP/6-31G* opt pop=NPA

Template file

0 1
 C           -5.40217751        0.39083857        0.11164018
 C           -4.94315456        1.48348475        0.95200961
 C           -4.22550241        0.90924788        2.07896798
 C           -5.15143606       -0.84883927        0.82767566
 C           -4.35739959       -0.53287897        2.00424560
 C           -4.87025109       -2.00914660        0.11999560
 C           -4.65072638       -1.94787601       -1.31677212
 C           -5.20721686        0.44773261       -1.26463800
 C           -4.77770024       -0.73959651       -1.98544649
 C           -4.52996228        1.59203807       -1.85504662
 C           -4.45437701        2.64327590        0.36710778
 C           -4.20149489        2.68261503       -1.06597183
 C           -3.37000969        3.35400059        1.01982451
 C           -3.01374022        1.46835728        2.46807614
 C           -2.74941707        2.79890855        2.13550894
 C           -1.97183510        0.63446206        2.89093792
 C           -3.27157079       -1.33776525        2.32827949
 C           -2.11686944       -0.75589090        2.86488790
 C           -3.91521227       -2.95402834        0.67037327
 C           -3.23193544       -2.64653739        1.84168634
 C           -3.53113292       -2.81781108       -1.63391997
 C           -3.16851250       -3.53998158       -0.43098394
 C           -2.51783338       -2.37095877       -2.46714866
 C           -3.74763423       -0.34017962       -2.92836004
 C           -3.55355592        1.09147060       -2.80768884
 C           -2.62680411       -1.13664750       -3.11512720
 C           -2.25177929        1.59367016       -2.80529150
 C           -2.92130567        3.33694985       -1.27086475
 C           -2.53726408        3.94538905       -0.01462824
 C           -1.94263853        2.72083844       -2.03993941
 C           -1.18924008        4.14058035        0.26142255
 C           -1.55751152        3.37383393        2.55210496
 C           -0.81157857        4.17588611        1.59610204
 C           -0.75643144        1.18858560        3.28889542
 C           -0.59911917        2.56346363        3.27569512
 C            0.36523530        0.37369714        3.40702398
 C           -1.05750342       -1.56816595        3.27608008
 C            0.18539165       -0.99800832        3.56435341
 C           -2.15398798       -3.45238211        2.17223864
 C           -1.14508850       -2.94130377        3.07343064
 C           -1.83736716       -3.89399816       -0.21327203
 C           -1.45864352       -4.14878464        1.09860468
 C           -1.26932305       -2.97855932       -2.37451607
 C           -0.86381243       -3.52474061       -1.15182518
 C           -0.32037819       -2.65755654       -3.33252404
 C           -1.47595521       -0.54064860       -3.61870410
 C           -1.21714336        0.79885098       -3.31299823
 C           -0.43561640       -1.37239994       -3.99717742
 C            0.10068806        1.26855595       -3.26360036
 C           -0.61062926        3.05745372       -1.82965429
 C           -0.23324504        3.78468974       -0.69261931
 C            0.36064263        2.48948411       -2.64422263
 C            1.12468301        3.95643287       -0.40277619
 C            0.59077320        4.07517602        1.93800990
 C            0.71519378        3.11703534        3.02622440
 C            1.54498939        4.06020727        0.92848982
 C            1.65278432        0.90828709        3.24074170
 C            1.82594528        2.28244244        3.04786815
 C            2.75860041        0.05610875        3.14822512
 C            1.29430090       -1.81925764        3.74248125
 C            2.62072932       -1.28323020        3.49409751
 C            0.06082919       -3.69891706        2.80652999
 C           -0.05476082       -4.19446936        1.44610535
 C            1.27077639       -3.17091030        3.20971852
 C            0.49811767       -3.52484610       -0.80108341
 C            0.89509796       -3.81611330        0.50493985
 C            1.07982572       -2.87648345       -3.04528302
 C            1.46605198       -3.16687337       -1.74143336
 C            0.89696846       -0.82846913       -4.14365713
 C            1.15878629        0.46409305       -3.70518563
 C            1.82455460       -1.89221580       -3.80948064
 C            2.48160472        0.83514351       -3.44774534
 C            1.65746093        2.97209138       -2.58003830
 C            2.05986686        3.73069537       -1.41025444
 C            2.75524552        2.10474493       -2.95634994
 C            3.41539983        3.33391417       -1.06859471
 C            3.81054253        2.26651370       -1.96874094
 C            2.82579782        3.64705658        1.28231635
 C            2.97180028        2.73297614        2.40356662
 C            3.78337142        3.26543626        0.26097784
 C            3.90483243        0.46888755        2.46339925
 C            4.02824111        1.79681729        2.08119186
 C            4.50628743        2.10119392        0.74056276
 C            4.68506760       -0.47170957        1.79692284
 C            3.36174797       -2.28940403        2.75003940
 C            2.39837575       -3.27630546        2.30766210
 C            2.16741252       -3.44365990        0.94144718
 C            4.33605954       -1.87939372        1.85966070
 C            2.75858087       -2.84422096       -1.32165602
 C            3.10189763       -2.95939454        0.02600014
 C            4.27666905       -2.36745521        0.49406584
 C            3.09546186       -1.55295683       -3.38817700
 C            3.46134673       -0.14796032       -3.31706304
 C            3.62620222       -2.19316334       -2.20014787
 C            4.46188572        1.13491075       -1.47981007
 C            4.80580240        1.04993637       -0.12426832
 C            5.12496297       -0.18443792        0.43983207
 C            4.97989331       -1.40442419       -0.33446080
 C            4.46772582       -0.00925762       -2.27512543
 C            4.65727632       -1.31824634       -1.67397208




