%chk=000404.chk
%mem=8GB
%Nproc=16
#p B3LYP/6-31G* opt pop=NPA

Template file

0 1
 C            3.45389028       -3.42857950        0.04098861
 C            3.54054528       -3.05746379       -1.36072432
 C            2.29382494       -3.45962985       -1.99578617
 C            2.29408886       -4.28612432        0.19845318
 C            1.49922322       -4.17027525       -1.01166923
 C            1.64459424       -4.31347910        1.41912304
 C            1.99887525       -3.32331609        2.42421227
 C            3.74646123       -2.47432194        1.00928488
 C            2.87704584       -2.29857083        2.08765743
 C            4.62444782       -1.45504376        0.67134387
 C            4.12503686       -1.84076755       -1.70648574
 C            4.81821893       -1.12459926       -0.73299497
 C            3.68915685       -1.18599675       -2.85481027
 C            1.66989512       -2.58536763       -2.87509494
 C            2.43653022       -1.58942550       -3.47415954
 C            0.27871481       -2.45849495       -2.85669449
 C            0.13872570       -3.90055210       -0.91365732
 C           -0.48481068       -3.15259431       -1.90867893
 C            0.20019079       -4.44085429        1.43558682
 C           -0.53253688       -4.15018323        0.28417106
 C            0.79237936       -3.00519014        3.16564858
 C           -0.24585245       -3.91149376        2.70876252
 C            0.48102890       -1.67161080        3.40198698
 C            2.68166445       -1.02126489        2.62277900
 C            1.47218149       -0.70392389        3.25778823
 C            4.60399624       -0.21747511        1.42516060
 C            3.65002348       -0.03412980        2.41733122
 C            4.93520049        0.32217885       -0.83928960
 C            4.88505522        0.87432661        0.50621174
 C            3.78516391        0.26332657       -2.94651985
 C            4.30972240        0.99258235       -1.88441167
 C            1.78452729       -0.39635306       -3.98602401
 C            2.59653399        0.74979341       -3.63120730
 C           -0.31526403       -1.45314497       -3.61790268
 C            0.40680567       -0.30177502       -3.89681844
 C           -1.69262178       -1.41440616       -3.73945415
 C           -1.86638670       -2.97535818       -1.86356912
 C           -2.49288456       -2.26924291       -2.88652474
 C           -1.87729915       -3.79627075        0.40846744
 C           -2.56176500       -3.26702608       -0.68821060
 C           -1.56755806       -3.52546249        2.82874402
 C           -2.43818095       -3.69510797        1.68279443
 C           -0.85408784       -1.27453231        3.49905785
 C           -1.86779509       -2.21797997        3.38573191
 C           -1.17086417        0.08057183        3.43546234
 C            1.17112506        0.61779959        3.57333999
 C           -0.16309918        1.01615052        3.65569008
 C            3.41918073        1.26169632        2.86061771
 C            2.17783741        1.57352262        3.53930834
 C            4.29063999        2.11359102        0.72630290
 C            3.73440647        2.37490709        1.97618967
 C            3.89853670        2.30850911       -1.69984895
 C            3.90476137        2.88848321       -0.36518599
 C            1.97922651        1.91178389       -3.18434494
 C            2.71330062        2.79100432       -2.39200889
 C           -0.18743033        0.94240231       -3.68837650
 C            0.58367674        2.00840511       -3.20716895
 C           -2.34706242       -0.12012888       -3.81840636
 C           -1.58275572        1.04049800       -3.71381549
 C           -3.74678969       -1.58393546       -2.63223109
 C           -3.60258145       -0.21350723       -3.08952088
 C           -3.86743546       -2.80367151       -0.52065325
 C           -4.41773809       -1.83393820       -1.45147073
 C           -3.57356221       -2.81991344        1.89845550
 C           -3.15418479       -1.80617107        2.85354473
 C           -4.32920141       -2.43747260        0.80575717
 C           -2.43162575        0.49057574        2.97476242
 C           -3.36844528       -0.46322300        2.55980840
 C           -2.71752727        1.85099317        2.81829857
 C           -0.47925764        2.36746315        3.67243673
 C           -1.74261388        2.79628086        3.11387393
 C            1.84561429        2.95303621        3.23140035
 C            2.65830051        3.34461155        2.09375998
 C            0.51854037        3.34024984        3.26663336
 C            2.74887757        3.76734635       -0.25543071
 C            2.01519539        3.70120128       -1.50209762
 C            2.04722126        3.82703906        0.93987142
 C           -0.03355844        3.05734760       -2.52668547
 C            0.63170297        3.66911336       -1.47382374
 C           -2.19983984        2.20211771       -3.26214762
 C           -1.40019147        3.23639217       -2.63617515
 C           -3.99254346        0.84493379       -2.27238393
 C           -3.45302703        2.10368156       -2.52947652
 C           -4.92762961       -0.71699638       -0.67546391
 C           -4.81709669       -1.07251024        0.73090878
 C           -4.35343136       -0.11708329        1.63101166
 C           -4.65051483        0.59367000       -1.06151838
 C           -3.72299227        2.23098756        1.93884542
 C           -4.54655111        1.21892477        1.31003826
 C           -4.72330691        1.58723443       -0.08659958
 C           -2.12694792        3.73477468       -1.48252760
 C           -3.44372329        3.12288012       -1.49551791
 C           -3.42836896        3.25098737        0.94538534
 C           -4.07963894        2.87170700       -0.29548969
 C           -1.45734317        3.83159620        2.13022798
 C           -0.02635657        4.05253458        2.12576737
 C            0.66446676        4.02962795        0.92090713
 C           -0.04840473        3.90507178       -0.27692967
 C           -2.15554957        3.81652394        0.93048483
 C           -1.45012576        3.90550304       -0.27438846




