%chk=000367.chk
%mem=8GB
%Nproc=16
#p B3LYP/6-31G* opt pop=NPA

Template file

0 1
 C           -4.62612493       -0.18846492       -1.64775264
 C           -4.52453955       -1.59162033       -1.27856823
 C           -3.59484245       -2.22392527       -2.20575769
 C           -3.89842887       -0.01267935       -2.89351457
 C           -3.07774548       -1.19473779       -3.08392570
 C           -3.35981387        1.22704718       -3.18340707
 C           -3.55119583        2.30496895       -2.23403442
 C           -4.55323860        0.78764972       -0.65648432
 C           -3.90800569        1.99961245       -0.92169965
 C           -4.81666922        0.42252618        0.65817163
 C           -4.50526265       -1.95164623        0.06799321
 C           -4.76141186       -0.98267924        1.03610473
 C           -3.84615780       -3.12031911        0.44524736
 C           -2.73022333       -3.19943276       -1.73458742
 C           -3.04039055       -3.82850021       -0.53353761
 C           -1.41684706       -3.23558771       -2.20692634
 C           -1.70049931       -1.06206310       -3.23170437
 C           -0.86445486       -2.10400001       -2.81811327
 C           -1.98231355        1.30291927       -3.63690454
 C           -1.15496305        0.19077515       -3.51769419
 C           -2.50549808        3.27726858       -2.48866249
 C           -1.46646493        2.60384719       -3.24937068
 C           -2.13486796        4.13874072       -1.47392131
 C           -3.39426275        2.76482757        0.13210549
 C           -2.66196748        3.91679871       -0.13752253
 C           -4.23686007        1.19867014        1.73836955
 C           -3.37583898        2.24256663        1.42444754
 C           -4.08099456       -1.06664034        2.31782725
 C           -3.90252509        0.28489303        2.81638404
 C           -3.12271557       -3.15671368        1.70885148
 C           -3.07192019       -2.01021911        2.48515329
 C           -2.00412554       -4.53953881        0.19235095
 C           -1.91675017       -3.93640405        1.51040957
 C           -0.58286673       -4.25615820       -1.76835010
 C           -0.82914635       -4.85186298       -0.46513850
 C            0.85459837       -4.12444681       -1.91861323
 C            0.52471220       -1.95226810       -2.91140712
 C            1.38551110       -2.95938171       -2.45862666
 C            0.21596231        0.37899828       -3.39304022
 C            1.04535327       -0.73428543       -3.34642150
 C           -0.14027790        2.70559476       -2.84012693
 C            0.72549033        1.64237384       -3.07495368
 C           -0.73483132        4.49147821       -1.33209350
 C            0.24243245        3.71569066       -1.95668777
 C           -1.64157282        4.32880427        0.80913736
 C           -0.54379870        4.89651533        0.04687983
 C           -2.34437354        2.59133089        2.30374639
 C           -1.37469301        3.50854780        1.90049170
 C           -2.81212987        0.56421101        3.62027515
 C           -2.09830595        1.81400711        3.43012822
 C           -1.86376376       -1.63315458        3.07536669
 C           -1.82214799       -0.47422701        3.84277495
 C           -0.69510479       -3.43399262        1.95062492
 C           -0.66650849       -2.24997845        2.68889678
 C            0.41399541       -4.75854476        0.27109537
 C            1.46255349       -4.68692636       -0.72484396
 C            0.48414966       -3.93293411        1.39425418
 C            2.70320654       -4.22227607       -0.33209544
 C            2.73886814       -2.68084696       -2.25032527
 C            3.41432392       -3.30355204       -1.20285710
 C            2.41823050       -0.55047199       -3.40844742
 C            3.29151650       -1.53097432       -2.79622048
 C            2.07903540        1.79345440       -2.79081047
 C            2.95763092        0.76807574       -3.12907616
 C            1.54789833        3.73522040       -1.45836919
 C            2.48788840        2.81508356       -1.93142280
 C            0.73283740        4.84925119        0.57386062
 C            1.82368400        4.45933982       -0.29725887
 C           -0.06529633        3.38768006        2.38069569
 C            0.94658109        4.17240222        1.84172799
 C           -0.72420410        1.60179218        3.83916436
 C           -0.55164433        0.17984962        4.07565654
 C            0.28271121        2.30160680        3.18205563
 C            0.56271571       -1.68717481        3.04549660
 C            0.61114375       -0.42032250        3.63054882
 C            1.71203674       -3.37391092        1.75005442
 C            2.85163393       -3.71867253        1.02032700
 C            1.75219526       -2.28941509        2.62854639
 C            4.30579598       -2.51351556       -0.36683361
 C            4.00471283       -2.83743833        1.01799082
 C            4.30617802       -0.81094477       -2.04290314
 C            4.19022124        0.59481081       -2.38139810
 C            4.58236353       -1.19797818       -0.73272282
 C            3.74194274        2.74932739       -1.32293582
 C            4.54392211        1.54473382       -1.44272926
 C            2.90650329        4.03535244        0.56811878
 C            2.30679889        3.65943799        1.83748278
 C            3.89820878        3.23255591        0.03621357
 C            1.54485037        1.71377297        3.04104343
 C            1.72385053        0.38237819        3.42245451
 C            2.56296155        2.39517305        2.36281967
 C            2.96298339       -1.63783842        2.86945509
 C            4.08725739       -1.84520781        1.97437524
 C            2.94795126       -0.23276903        3.23447305
 C            4.80164918       -0.22829337        0.25333403
 C            4.89798251        1.11609376       -0.09979526
 C            4.40422530        2.12452603        0.82604447
 C            3.72116390        1.71763633        1.97016178
 C            4.59616209       -0.54008145        1.59613768
 C            3.97200461        0.44479898        2.46526680




