%chk=000422.chk
%mem=8GB
%Nproc=16
#p B3LYP/6-31G* opt pop=NPA

Template file

0 1
 C            4.51670844       -1.65646782        1.09198995
 C            3.69023430       -2.34517416        2.07079697
 C            3.20617184       -3.57066863        1.45902725
 C            4.45043551       -2.41067811       -0.14823456
 C            3.48959566       -3.48431070        0.03871264
 C            4.47387697       -1.73015510       -1.35027135
 C            4.67394823       -0.29407139       -1.33854526
 C            4.50886386       -0.26229856        1.07065947
 C            4.49955901        0.41889522       -0.15166995
 C            4.10880034        0.39667763        2.22550318
 C            2.84753467       -1.59323838        2.88604291
 C            3.19966846       -0.27510965        3.14166269
 C            1.52102863       -1.99570480        3.06216220
 C            1.98629424       -4.08474271        1.86284161
 C            1.17604126       -3.31477807        2.78983330
 C            1.08989056       -4.63632329        0.86130679
 C            2.44992746       -3.65559456       -0.87336313
 C            1.32404153       -4.39188497       -0.49095507
 C            3.45324801       -2.01836913       -2.34346234
 C            2.39888136       -2.86427105       -2.02584924
 C            4.10117255        0.21635954       -2.56969968
 C            3.15815416       -0.78120082       -3.04360247
 C            3.74691664        1.54987818       -2.62941521
 C            4.13601708        1.77169430       -0.21203545
 C            3.96449810        2.37654946       -1.45836379
 C            3.72479130        1.78989033        2.16174748
 C            3.77030243        2.46319563        0.94866957
 C            2.17077187        0.67274792        3.51704459
 C            2.56950648        1.97624384        3.02746223
 C            0.51170473       -1.03940905        3.22776319
 C            0.84166866        0.29993937        3.42009770
 C           -0.83401308       -1.40286824        3.12396711
 C           -0.21148493       -3.65265652        2.54154478
 C           -0.26326470       -4.52280237        1.38161054
 C           -1.18393018       -2.67760210        2.67418588
 C           -1.32404153       -4.39188497        0.49095507
 C            0.26326470       -4.52280237       -1.38161054
 C           -1.08989056       -4.63632329       -0.86130679
 C            1.18393018       -2.67760210       -2.67418588
 C            0.21148493       -3.65265652       -2.54154478
 C            1.82650905       -0.42739607       -3.25826203
 C            0.83401308       -1.40286824       -3.12396711
 C            2.44268061        1.90434202       -3.16029581
 C            1.46869115        0.92218468       -3.30206688
 C            3.08184172        3.51918184       -1.58817554
 C            2.07325189        3.18229470       -2.58128235
 C            3.06707505        3.66261721        0.85297999
 C            2.69697472        4.19660644       -0.44650684
 C            1.59373044        2.89260976        2.65211860
 C            1.95886440        3.89857430        1.76669560
 C           -0.12573096        1.27785462        3.22112024
 C            0.24295267        2.55453719        2.77504247
 C           -1.82650905       -0.42739607        3.25826203
 C           -1.46869115        0.92218468        3.30206688
 C           -3.15815416       -0.78120082        3.04360247
 C           -2.39888136       -2.86427105        2.02584924
 C           -2.44992746       -3.65559456        0.87336313
 C           -3.45324801       -2.01836913        2.34346234
 C           -3.48959566       -3.48431070       -0.03871264
 C           -1.98629424       -4.08474271       -1.86284161
 C           -1.17604126       -3.31477807       -2.78983330
 C           -3.20617184       -3.57066863       -1.45902725
 C           -0.51170473       -1.03940905       -3.22776319
 C           -1.52102863       -1.99570480       -3.06216220
 C            0.12573096        1.27785462       -3.22112024
 C           -0.84166866        0.29993937       -3.42009770
 C            0.73360630        3.44021134       -2.30882092
 C           -0.24295267        2.55453719       -2.77504247
 C            1.33829164        4.69751092       -0.34778230
 C            0.93153849        4.62360176        1.04586918
 C            0.40585969        4.38357806       -1.33266361
 C           -0.73360630        3.44021134        2.30882092
 C           -0.40585969        4.38357806        1.33266361
 C           -2.44268061        1.90434202        3.16029581
 C           -2.07325189        3.18229470        2.58128235
 C           -4.10117255        0.21635954        2.56969968
 C           -3.74691664        1.54987818        2.62941521
 C           -4.47387697       -1.73015510        1.35027135
 C           -4.45043551       -2.41067811        0.14823456
 C           -4.67394823       -0.29407139        1.33854526
 C           -3.69023430       -2.34517416       -2.07079697
 C           -2.84753467       -1.59323838       -2.88604291
 C           -4.51670844       -1.65646782       -1.09198995
 C           -2.17077187        0.67274792       -3.51704459
 C           -3.19966846       -0.27510965       -3.14166269
 C           -1.59373044        2.89260976       -2.65211860
 C           -2.56950648        1.97624384       -3.02746223
 C           -0.93153849        4.62360176       -1.04586918
 C           -1.33829164        4.69751092        0.34778230
 C           -1.95886440        3.89857430       -1.76669560
 C           -3.08184172        3.51918184        1.58817554
 C           -3.96449810        2.37654946        1.45836379
 C           -2.69697472        4.19660644        0.44650684
 C           -3.06707505        3.66261721       -0.85297999
 C           -4.49955901        0.41889522        0.15166995
 C           -4.50886386       -0.26229856       -1.07065947
 C           -4.10880034        0.39667763       -2.22550318
 C           -3.72479130        1.78989033       -2.16174748
 C           -4.13601708        1.77169430        0.21203545
 C           -3.77030243        2.46319563       -0.94866957




