%chk=000356.chk
%mem=8GB
%Nproc=16
#p B3LYP/6-31G* opt pop=NPA

Template file

0 1
 C            4.30158007       -1.17197021        2.00940389
 C            4.94293030       -0.72752959        0.78161919
 C            4.94293030        0.72752959        0.78161919
 C            4.02357544       -0.00000000        2.82071824
 C            4.30158007        1.17197021        2.00940389
 C            2.91076440       -0.00000000        3.64161915
 C            2.04983275       -1.16881914        3.64969209
 C            3.38219971       -2.21569072        1.95018505
 C            2.16860485       -2.11010159        2.63418617
 C            3.50457404       -3.12602414        0.91295021
 C            4.70222672       -1.42559427       -0.39797684
 C            4.16265134       -2.70702130       -0.31705047
 C            4.60652367       -0.72730841       -1.59980293
 C            4.70222672        1.42559427       -0.39797684
 C            4.60652367        0.72730841       -1.59980293
 C            4.16265134        2.70702130       -0.31705047
 C            3.38219971        2.21569072        1.95018505
 C            3.50457404        3.12602414        0.91295021
 C            2.04983275        1.16881914        3.64969209
 C            2.16860485        2.11010159        2.63418617
 C            0.73501133       -0.72563817        4.05727719
 C            0.73501133        0.72563817        4.05727719
 C           -0.38700951       -1.37321447        3.56665278
 C            1.01960901       -2.74271417        2.13969855
 C           -0.24016630       -2.43313808        2.66625850
 C            2.36982406       -3.95164634        0.55233081
 C            1.12862859       -3.70347399        1.13230690
 C            3.37170488       -3.21471733       -1.42315978
 C            2.45054678       -4.19432819       -0.87731900
 C            3.66171039       -1.17016489       -2.61615682
 C            2.93221749       -2.32914507       -2.40206887
 C            3.66171039        1.17016489       -2.61615682
 C            2.98141288        0.00000000       -3.13314133
 C            3.37170488        3.21471733       -1.42315978
 C            2.93221749        2.32914507       -2.40206887
 C            2.36982406        3.95164634        0.55233081
 C            2.45054678        4.19432819       -0.87731900
 C            1.01960901        2.74271417        2.13969855
 C            1.12862859        3.70347399        1.13230690
 C           -0.38700951        1.37321447        3.56665278
 C           -0.24016630        2.43313808        2.66625850
 C           -1.60191611       -0.69888803        3.62791266
 C           -1.60191611        0.69888803        3.62791266
 C           -2.76058620       -1.39936438        3.32877904
 C           -1.38186371       -3.04972449        2.14440633
 C           -2.64201359       -2.63781374        2.58210500
 C           -0.02098558       -4.17690694        0.49834226
 C           -1.27809995       -3.86294592        1.01424895
 C            1.28060971       -4.45686112       -1.56400064
 C            0.07387135       -4.68598905       -0.79788326
 C            1.60641020       -2.39020977       -2.83322600
 C            0.91046481       -3.58008811       -2.66283060
 C            1.59441674        0.00000000       -3.20672324
 C            0.90379951       -1.20738697       -3.09153411
 C            1.60641020        2.39020977       -2.83322600
 C            0.90379951        1.20738697       -3.09153411
 C            1.28060971        4.45686112       -1.56400064
 C            0.91046481        3.58008811       -2.66283060
 C           -0.02098558        4.17690694        0.49834226
 C            0.07387135        4.68598905       -0.79788326
 C           -1.38186371        3.04972449        2.14440633
 C           -1.27809995        3.86294592        1.01424895
 C           -2.76058620        1.39936438        3.32877904
 C           -2.64201359        2.63781374        2.58210500
 C           -3.92859081       -0.69102763        2.83322206
 C           -3.92859081        0.69102763        2.83322206
 C           -3.77679678       -2.70470411        1.67716293
 C           -4.38267995       -1.38789069        1.64552393
 C           -2.41365682       -4.13278919        0.24770482
 C           -3.64263625       -3.40195533        0.49368361
 C           -1.02551883       -4.48492581       -1.71813766
 C           -0.53756198       -3.58394936       -2.74856547
 C           -2.28444558       -4.26833049       -1.19123325
 C           -0.49255560       -1.20683762       -3.15160044
 C           -1.21578723       -2.39316938       -2.97552397
 C           -0.49255560        1.20683762       -3.15160044
 C           -1.16821587        0.00000000       -3.33507028
 C           -0.53756198        3.58394936       -2.74856547
 C           -1.02551883        4.48492581       -1.71813766
 C           -1.21578723        2.39316938       -2.97552397
 C           -2.41365682        4.13278919        0.24770482
 C           -2.28444558        4.26833049       -1.19123325
 C           -3.77679678        2.70470411        1.67716293
 C           -4.38267995        1.38789069        1.64552393
 C           -3.64263625        3.40195533        0.49368361
 C           -4.47594601       -0.70114382        0.43436358
 C           -4.47594601        0.70114382        0.43436358
 C           -4.02309284       -2.75777959       -0.75317982
 C           -3.12866078       -3.24930957       -1.78973656
 C           -2.58224026       -2.34052108       -2.69307413
 C           -4.38905890       -1.41272914       -0.76696835
 C           -2.55449199        0.00000000       -3.39470745
 C           -3.28029902       -1.16772066       -2.93920939
 C           -4.26709372       -0.72318253       -1.96612570
 C           -2.58224026        2.34052108       -2.69307413
 C           -3.12866078        3.24930957       -1.78973656
 C           -4.02309284        2.75777959       -0.75317982
 C           -4.38905890        1.41272914       -0.76696835
 C           -3.28029902        1.16772066       -2.93920939
 C           -4.26709372        0.72318253       -1.96612570




