%chk=000166.chk
%mem=8GB
%Nproc=16
#p B3LYP/6-31G* opt pop=NPA

Template file

0 1
 C            5.06797072       -0.61283262        1.14905319
 C            4.62933663        0.61135691        1.79352405
 C            3.69465399        0.25065805        2.84912568
 C            4.41350253       -1.72649424        1.81901031
 C            3.45501484       -1.17593145        2.75940405
 C            4.06763804       -2.85954450        1.09977419
 C            4.28922034       -2.90019046       -0.33845243
 C            5.23054788       -0.63226612       -0.22659326
 C            4.76555105       -1.77532589       -0.99570167
 C            4.93254288        0.56286324       -0.99168090
 C            4.38692528        1.76060267        1.04263048
 C            4.55838544        1.74238575       -0.34964294
 C            3.64420038        2.77573089        1.64440326
 C            2.63154033        1.10294506        3.12321474
 C            2.73672530        2.43379150        2.72733323
 C            1.36624632        0.56824965        3.37605741
 C            2.14472328       -1.63964075        2.76241996
 C            1.13215701       -0.80315849        3.21539729
 C            2.78853784       -3.49649073        1.36573281
 C            1.81342718       -2.81898453        2.09201493
 C            3.18600872       -3.63825893       -0.92700818
 C            2.39964700       -4.19639794        0.15957521
 C            2.51883580       -3.12189867       -2.03558021
 C            4.02769400       -1.27180087       -2.14250127
 C            4.20796545        0.16017216       -2.18830128
 C            2.78560357       -1.81391019       -2.44039325
 C            3.17855099        0.97086581       -2.64279128
 C            3.96585910        2.72713396       -1.13711169
 C            3.28469444        2.32254353       -2.35780773
 C            3.00707951        3.80117072        0.83926276
 C            3.19545341        3.79627606       -0.52846752
 C            1.53232005        3.23302243        2.57225226
 C            1.67278551        4.03053413        1.37040371
 C            0.28399966        1.43465434        3.51769287
 C            0.30565608        2.65547766        2.85460427
 C           -0.93431934        0.92682129        3.93841502
 C           -0.16434773       -1.29866684        3.30251221
 C           -1.14440637       -0.50642546        3.88169643
 C            0.46961384       -3.14603554        1.88882965
 C           -0.52816427       -2.39752680        2.52449250
 C            1.05351019       -4.44042087       -0.06603279
 C            0.13141330       -4.10298214        0.92506224
 C            1.31017194       -3.70274067       -2.38436985
 C            0.62384303       -4.50735644       -1.38835534
 C            0.30967427       -2.89770397       -3.05477361
 C            1.73624976       -0.97262016       -2.83658578
 C            1.91309655        0.41692297       -2.87907330
 C            0.48970565       -1.51951631       -3.14174070
 C            0.80572178        1.25454178       -3.09353831
 C            2.13893781        3.17800296       -2.53596312
 C            2.06975445        4.08023057       -1.39826110
 C            0.95562135        2.64678070       -3.02428227
 C            0.58961947        4.14272374        0.50255396
 C            0.81801537        4.36417856       -0.85976693
 C           -0.82765876        3.07405333        2.15765014
 C           -0.68556527        3.77169558        0.94891426
 C           -2.15421521        1.57487288        3.49262608
 C           -2.07989460        2.60846017        2.56517624
 C           -2.53599231       -0.74245281        3.55791014
 C           -3.17185976        0.54823228        3.33589138
 C           -1.88006900       -2.70825680        2.33434618
 C           -2.87165303       -1.81201191        2.74207225
 C           -1.20294272       -4.43115172        0.72362210
 C           -2.22978040       -3.76330463        1.49973086
 C           -0.79493764       -4.45792450       -1.68390485
 C           -0.99385342       -3.42064724       -2.68130885
 C           -1.69642346       -4.56191049       -0.63861349
 C           -2.04610543       -2.52779669       -2.54282174
 C           -0.63184170       -0.69289067       -3.20407466
 C           -0.47326329        0.69556732       -3.24077165
 C           -1.90564967       -1.25542047       -3.08003180
 C           -1.59668065        1.52313103       -3.37160902
 C           -0.17079435        3.44406643       -2.88997912
 C           -0.25691295        4.32680912       -1.73722842
 C           -1.47755126        2.87809175       -3.11581315
 C           -1.79691372        4.00774057        0.13581504
 C           -1.60418373        4.24179901       -1.21635465
 C           -2.40081590        3.50050089       -2.17992156
 C           -3.20489202        2.89854903        1.80818369
 C           -3.05494271        3.58798463        0.54435402
 C           -4.13145467        0.67882538        2.33396886
 C           -4.24022331        1.88758183        1.65095544
 C           -4.08261711       -1.76257643        2.05774181
 C           -4.68272246       -0.46924456        1.77143793
 C           -3.39784850       -3.63384856        0.64616948
 C           -2.94364071       -3.82680898       -0.71577482
 C           -3.07427711       -2.78153349       -1.62788607
 C           -4.29795586       -2.61522808        0.90252533
 C           -5.07735142       -0.46623849        0.37019371
 C           -4.06661070       -1.81807366       -1.41966951
 C           -4.72617031       -1.76085875       -0.19322785
 C           -3.02790117       -0.45434013       -3.16627883
 C           -2.86935863        0.97661173       -3.28515986
 C           -4.13460496       -0.71602365       -2.26595398
 C           -3.50188305        2.77387213       -1.73480558
 C           -3.93927267        2.95467871       -0.42431335
 C           -4.66061724        1.89116146        0.25776315
 C           -4.89708206        0.68389140       -0.39035619
 C           -3.85194531        1.61290406       -2.41972469
 C           -4.59578138        0.56194647       -1.74313637




