%chk=000135.chk
%mem=8GB
%Nproc=16
#p B3LYP/6-31G* opt pop=NPA

Template file

0 1
 C            5.00647563       -1.06899957        0.97873474
 C            4.45264274       -2.25667123        0.35238773
 C            3.61227086       -2.92077180        1.33572489
 C            4.37029326       -0.92244273        2.27982198
 C            3.38910515       -1.98454383        2.41833351
 C            4.06348182        0.33911394        2.76067085
 C            4.37941608        1.51766418        1.96692665
 C            5.25735433        0.05059247        0.19836415
 C            4.95929728        1.37736731        0.71583763
 C            4.87524536        0.02808299       -1.20202054
 C            4.03398264       -2.21726614       -0.97725996
 C            4.06463241       -1.00399721       -1.67228065
 C            3.20545506       -3.23980794       -1.42888617
 C            2.54918427       -3.68757665        0.88692070
 C            2.54964005       -4.08569345       -0.44694463
 C            1.33857016       -3.63415647        1.57668177
 C            2.08110028       -1.68173299        2.79114233
 C            1.04856453       -2.53073287        2.38884748
 C            2.77171234        0.55835930        3.38511893
 C            1.78147053       -0.42441201        3.31968165
 C            3.30012770        2.47160921        2.14259176
 C            2.40188017        1.94096073        3.14678679
 C            2.75387377        3.12198798        1.04312844
 C            4.46791088        2.18471073       -0.38772346
 C            4.60790010        1.39844058       -1.60037815
 C            3.33826695        2.98548569       -0.22292434
 C            3.73893161        1.63469715       -2.65095472
 C            3.10723360       -0.74249641       -2.65956072
 C            3.02360267        0.51680416       -3.23942437
 C            2.23142192       -2.95179501       -2.46423064
 C            2.06244405       -1.63792918       -2.86253468
 C            1.32518554       -4.58453802       -1.04611994
 C            1.06607939       -3.78266593       -2.22985510
 C            0.31305904       -4.47659942        1.17086930
 C            0.26290246       -4.90467175       -0.21695819
 C           -1.04301055       -4.20912497        1.60058941
 C           -0.27713029       -2.21554989        2.70926932
 C           -1.30132807       -3.12670051        2.42747747
 C            0.44925601       -0.03910236        3.47454909
 C           -0.57522930       -0.96777890        3.27187641
 C            1.05392240        2.24609345        3.06718917
 C            0.14911648        1.32115502        3.56442467
 C            1.47980024        3.67262864        1.16293478
 C            0.60796984        3.20077280        2.14931885
 C            0.98846008        4.43952032        0.12165896
 C            2.65482666        3.43137058       -1.35842389
 C            2.81103352        2.74832673       -2.56259737
 C            1.52973996        4.23307893       -1.20665353
 C            1.72337782        0.99534487       -3.67288916
 C            1.62793029        2.40154201       -3.33386071
 C            0.78283503       -1.15520116       -3.14821742
 C            0.61187477        0.18554604       -3.49102272
 C           -0.20442857       -3.25177256       -2.42157179
 C           -0.34302990       -1.95378666       -2.92684345
 C           -1.08811815       -4.66968168       -0.69203606
 C           -1.92857083       -4.45684809        0.47234662
 C           -1.29416508       -3.88503829       -1.82106117
 C           -3.08840411       -3.69584515        0.34169000
 C           -2.62374662       -2.72996297        2.55100088
 C           -3.53876440       -2.97556152        1.44622561
 C           -1.90325095       -0.59978365        3.51890691
 C           -2.93265214       -1.43332154        3.10672280
 C           -1.15890419        1.72742237        3.74057374
 C           -2.21509733        0.73858316        3.72622915
 C           -0.76015578        3.50208984        2.09346016
 C           -1.61931255        2.89575551        3.01101167
 C           -0.44058825        4.63750821       -0.00636837
 C           -1.29203627        4.18382969        0.99335349
 C            0.40637192        4.03680516       -2.10967664
 C            0.40107476        2.92821164       -2.94615104
 C           -0.80164543        4.39477498       -1.39468345
 C           -0.63873231        0.77317952       -3.33940850
 C           -0.74332454        2.12891996       -3.00084507
 C           -1.61685086       -1.41675293       -3.12546885
 C           -1.76625064       -0.04204104       -3.32207095
 C           -2.57144187       -3.39713814       -2.04886584
 C           -3.50799062       -3.32160517       -0.93500915
 C           -2.73376475       -2.19650159       -2.84322610
 C           -4.30041537       -2.11410820       -1.11154649
 C           -3.96328295       -1.55885512       -2.41137349
 C           -4.33203931       -1.77102197        1.25255832
 C           -4.03177190       -0.86466375        2.34092785
 C           -4.50626677       -1.26573555       -0.02673268
 C           -3.34794438        1.30911471        3.01596886
 C           -3.01329523        2.67848518        2.66731987
 C           -4.04892671        0.50587339        2.11927135
 C           -2.63995872        4.03511681        0.66958162
 C           -3.50876106        3.21429144        1.49405938
 C           -1.98485213        3.72021438       -1.66632560
 C           -1.96557170        2.64572246       -2.55955912
 C           -3.00154323        3.80662890       -0.71941391
 C           -3.02550078        0.54078488       -3.22705679
 C           -4.11533343       -0.20041942       -2.61637375
 C           -3.13012965        1.91653391       -2.77709764
 C           -4.56325719        0.11624626       -0.22493525
 C           -4.36045419        0.99667495        0.84704233
 C           -4.29346416        2.37004606        0.60960155
 C           -4.10400960        2.86216668       -0.74403933
 C           -4.61861792        0.61213359       -1.52734055
 C           -4.20498367        1.97503397       -1.79890941




