%chk=000098.chk
%mem=8GB
%Nproc=16
#p B3LYP/6-31G* opt pop=NPA

Template file

0 1
 C            5.18609834       -0.46824339        0.51396133
 C            4.77113754       -1.83577780        0.24659043
 C            3.94917906       -2.27816147        1.35896929
 C            4.68340808       -0.10167381        1.82896621
 C            3.81103116       -1.16939431        2.28477743
 C            4.33135068        1.21241089        2.09281544
 C            4.42487918        2.21423212        1.04170622
 C            5.18609834        0.46824339       -0.51396133
 C            4.77113754        1.83577780       -0.24659043
 C            4.68340808        0.10167381       -1.82896621
 C            4.42487918       -2.21423212       -1.04170622
 C            4.33135068       -1.21241089       -2.09281544
 C            3.33746470       -3.15722099       -1.23437896
 C            2.83909250       -3.07868910        1.12825825
 C            2.59324490       -3.60232563       -0.14619698
 C            1.80238079       -3.03943311        2.05468134
 C            2.54672138       -0.87086056        2.79426522
 C            1.54841644       -1.84882420        2.73888358
 C            3.11931665        1.47726875        2.84636099
 C            2.20289954        0.45513199        3.07160146
 C            3.33746470        3.15722099        1.23437896
 C            2.62815817        2.77845382        2.43998207
 C            2.59324490        3.60232563        0.14619698
 C            3.94917906        2.27816147       -1.35896929
 C            3.81103116        1.16939431       -2.28477743
 C            2.83909250        3.07868910       -1.12825825
 C            2.54672138        0.87086056       -2.79426522
 C            3.11931665       -1.47726875       -2.84636099
 C            2.62815817       -2.77845382       -2.43998207
 C            2.20289954       -0.45513199       -3.07160146
 C            1.26578093       -3.02677087       -2.49755717
 C            1.35929842       -4.20590625       -0.39641519
 C            0.71993706       -3.95555366       -1.61629571
 C            0.81749019       -4.00878836        1.97150259
 C            0.62111515       -4.66166575        0.69297069
 C           -0.48665368       -3.75071269        2.54707562
 C            0.24530896       -1.53109233        3.13342840
 C           -0.77778725       -2.48274521        3.03734578
 C            0.87070490        0.78326861        3.30901642
 C           -0.04149486       -0.23585300        3.55718118
 C            1.26578093        3.02677087        2.49755717
 C            0.42496644        2.09766788        3.11224250
 C            1.35929842        4.20590625        0.39641519
 C            0.71993706        3.95555366        1.61629571
 C            0.62111515        4.66166575       -0.69297069
 C            1.80238079        3.03943311       -2.05468134
 C            1.54841644        1.84882420       -2.73888358
 C            0.81749019        4.00878836       -1.97150259
 C            0.24530896        1.53109233       -3.13342840
 C            0.87070490       -0.78326861       -3.30901642
 C            0.42496644       -2.09766788       -3.11224250
 C           -0.04149486        0.23585300       -3.55718118
 C           -0.92323470       -2.42046330       -3.30086105
 C           -0.59580981       -4.35317173       -1.81377682
 C           -1.45043320       -3.54160240       -2.66207793
 C           -0.79469655       -4.95134790        0.55174982
 C           -1.47096851       -4.44736272        1.73672256
 C           -1.39111137       -4.82299668       -0.69303624
 C           -2.74948153       -3.91855427        1.63154824
 C           -2.11460860       -2.09421466        3.16321107
 C           -3.08924968       -2.73820228        2.40428581
 C           -1.32941494        0.08839743        3.94608476
 C           -2.41119419       -0.82407891        3.63669179
 C           -0.92323470        2.42046330        3.30086105
 C           -1.81161622        1.43655461        3.72255210
 C           -0.59580981        4.35317173        1.81377682
 C           -1.45043320        3.54160240        2.66207793
 C           -0.79469655        4.95134790       -0.55174982
 C           -1.39111137        4.82299668        0.69303624
 C           -0.48665368        3.75071269       -2.54707562
 C           -0.77778725        2.48274521       -3.03734578
 C           -1.47096851        4.44736272       -1.73672256
 C           -2.11460860        2.09421466       -3.16321107
 C           -1.32941494       -0.08839743       -3.94608476
 C           -1.81161622       -1.43655461       -3.72255210
 C           -2.41119419        0.82407891       -3.63669179
 C           -3.10844063       -1.33956658       -3.06946013
 C           -3.44951171        0.06189098       -2.96231029
 C           -2.74589871       -3.42949457       -2.01130481
 C           -2.71863705       -4.23858695       -0.80689007
 C           -3.37699331       -3.78468943        0.32583552
 C           -3.38715659       -2.19440189       -2.01342456
 C           -4.00406742       -1.93057799        1.61301167
 C           -4.05172074       -2.49733799        0.28197575
 C           -3.87383538       -1.66340081       -0.81425353
 C           -3.44951171       -0.06189098        2.96231029
 C           -3.10844063        1.33956658        3.06946013
 C           -3.97002107       -0.55128113        1.77151541
 C           -2.74589871        3.42949457        2.01130481
 C           -2.71863705        4.23858695        0.80689007
 C           -3.38715659        2.19440189        2.01342456
 C           -2.74948153        3.91855427       -1.63154824
 C           -3.08924968        2.73820228       -2.40428581
 C           -3.37699331        3.78468943       -0.32583552
 C           -3.97002107        0.55128113       -1.77151541
 C           -3.97534345       -0.27772653       -0.64561827
 C           -3.97534345        0.27772653        0.64561827
 C           -3.87383538        1.66340081        0.81425353
 C           -4.00406742        1.93057799       -1.61301167
 C           -4.05172074        2.49733799       -0.28197575




