%chk=000248.chk
%mem=8GB
%Nproc=16
#p B3LYP/6-31G* opt pop=NPA

Template file

0 1
 C            5.09131789        0.06482295        0.05408422
 C            4.66052484        1.42644545        0.31083914
 C            4.17497405        1.49860457        1.68011378
 C            4.84870174       -0.70939575        1.26128095
 C            4.17043665        0.15237146        2.21396796
 C            4.46604382       -2.03831253        1.16563912
 C            4.30232868       -2.65400969       -0.14183764
 C            4.84813360       -0.49639971       -1.19068403
 C            4.44447999       -1.89039636       -1.29095239
 C            4.09105476        0.26217930       -2.17202154
 C            3.98539953        2.14516822       -0.67087264
 C            3.53088920        1.48645080       -1.81813282
 C            3.36187381        3.31844211       -0.27191307
 C            3.11386940        2.35627967        1.96295334
 C            2.93558022        3.43966335        1.11386005
 C            2.03187176        1.88941527        2.72227286
 C            3.03374491       -0.29725212        2.86783776
 C            2.12516573        0.64072601        3.34618421
 C            3.40230179       -2.52903175        2.02478224
 C            2.65131588       -1.63802538        2.77543060
 C            3.20198769       -3.59622834       -0.04990918
 C            2.71486361       -3.59115004        1.32094781
 C            2.27653469       -3.69928710       -1.08495107
 C            3.43930469       -1.99027889       -2.33384760
 C            3.30288238       -0.67813034       -2.94269974
 C            2.29818970       -2.76576764       -2.12696239
 C            2.05679852       -0.29107326       -3.40213982
 C            2.36543568        1.91991453       -2.46344236
 C            1.67130355        1.04753289       -3.31680841
 C            2.33315528        3.90145381       -1.10603885
 C            1.87363153        3.20361188       -2.21225667
 C            1.68926341        4.17010203        1.13460237
 C            1.37127208        4.55496577       -0.23265576
 C            0.80960469        2.58483697        2.72081597
 C            0.66598771        3.75824296        1.97281118
 C           -0.27739751        2.09780638        3.46010335
 C            1.09727572        0.19678263        4.16257310
 C           -0.10564963        0.99062363        4.28410160
 C            1.37176106       -2.01239813        3.17223105
 C            0.70525712       -1.19950444        4.07527474
 C            1.35503887       -3.79660444        1.54170979
 C            0.65786303       -2.94434612        2.41018614
 C            1.10401223       -4.39313706       -0.81692802
 C            0.65814497       -4.49223000        0.56437037
 C           -0.06519240       -4.16889674       -1.64132493
 C            1.11300285       -2.41334880       -2.78420864
 C            1.08698658       -1.26753510       -3.58216897
 C           -0.06925166       -3.11732801       -2.53941424
 C           -0.07128090       -0.92763777       -4.26148322
 C            0.47352526        1.44633322       -3.92031985
 C           -0.39242979        0.47837043       -4.42629422
 C            0.66793414        3.60218801       -2.76852139
 C           -0.05345729        2.69978120       -3.63882746
 C            0.03655879        4.63631415       -0.62583087
 C           -0.30329969        4.29507438       -1.93408687
 C           -0.60393653        4.25166231        1.71595118
 C           -0.95432463        4.62588366        0.35436241
 C           -1.57049816        2.56802129        3.20867817
 C           -1.75448140        3.60795562        2.30926664
 C           -2.66418033        1.74353188        3.45831181
 C           -1.20976520        0.06989608        4.48865613
 C           -0.73683112       -1.26394339        4.16055746
 C           -2.47684897        0.44686124        4.08426213
 C           -0.74874761       -2.91906995        2.40262277
 C           -1.44134972       -2.03525665        3.24272769
 C           -0.78550049       -4.47678629        0.56682697
 C           -1.23521615       -4.38299457       -0.81408500
 C           -1.46353007       -3.75923246        1.54074511
 C           -2.40166607       -3.67701758       -1.08820527
 C           -1.29103516       -2.59118572       -2.95235893
 C           -1.30018266       -1.63800304       -3.96327885
 C           -2.44820943       -2.82844848       -2.19973573
 C           -1.82025800        0.63319357       -4.20109686
 C           -2.39665476       -0.69065944       -4.05626993
 C           -1.47062508        2.81419699       -3.32908343
 C           -1.61017420        3.71640733       -2.20592840
 C           -2.25961193        1.67553671       -3.39110490
 C           -2.25110103        4.03595261        0.05640396
 C           -2.77112849        3.46572577        1.27807004
 C           -2.42907836        3.36484859       -1.14248380
 C           -3.67916908        1.60440226        2.42539507
 C           -3.51117207        2.29289343        1.23107809
 C           -3.30507237       -0.50903946        3.37209698
 C           -2.79111136       -1.75282103        3.01362828
 C           -4.10575803        0.22222094        2.40260634
 C           -2.81454375       -3.52541396        1.32430324
 C           -3.30744828       -3.49453386       -0.04477066
 C           -3.49135311       -2.48437923        2.06604873
 C           -4.39657742       -0.38401309        1.18953909
 C           -4.32802863       -2.46297830       -0.13167222
 C           -4.36582780       -1.77505676        1.14519409
 C           -3.58462645       -2.04906446       -2.41508970
 C           -3.49759122       -0.85673492       -3.23584286
 C           -4.44774957       -1.72648125       -1.29658251
 C           -3.16018828        1.40940058       -2.35681434
 C           -3.08659437        2.13086798       -1.15936364
 C           -3.63787190        1.60224326        0.02100721
 C           -4.25960667        0.34722847        0.00624321
 C           -3.94425066        0.26405511       -2.42385001
 C           -4.52014864       -0.27667027       -1.20840480




