%chk=000092.chk
%mem=8GB
%Nproc=16
#p B3LYP/6-31G* opt pop=NPA

Template file

0 1
 C            4.83489489        1.91422440        1.06647682
 C            5.08719060        0.48331349        1.07603881
 C            4.22775857       -0.11693681        2.08542682
 C            3.95256401        2.21012734        2.18296809
 C            3.45758815        0.94611417        2.70031401
 C            3.08283480        3.28773034        2.10694318
 C            2.97540879        4.04727688        0.86998356
 C            4.66302221        2.57561503       -0.14511173
 C            3.67649559        3.63832005       -0.25415074
 C            4.63027042        1.81671618       -1.38618541
 C            5.28186233       -0.18726876       -0.12345693
 C            4.96061342        0.47187247       -1.38079856
 C            4.83804426       -1.56424879       -0.23324289
 C            3.61213177       -1.33452414        1.81570804
 C            4.15366280       -2.15496812        0.82428661
 C            2.30565642       -1.56099608        2.26699484
 C            2.09182630        0.77121676        2.88916203
 C            1.53517001       -0.50233288        2.75537310
 C            1.74321606        3.14676870        2.64829800
 C            1.25559664        1.88590405        2.97397438
 C            1.59002291        4.46190656        0.72680623
 C            0.88094989        4.05747743        1.92343850
 C            0.94181952        4.32897567       -0.49735883
 C            2.96008450        3.45368087       -1.50392465
 C            3.46049187        2.24397388       -2.13126038
 C            1.59677312        3.70465311       -1.56497867
 C            2.54781543        1.29715929       -2.60139981
 C            4.15013431       -0.44726414       -2.16050161
 C            4.32402427       -1.76097865       -1.57849359
 C            2.88293922       -0.05889599       -2.58400333
 C            3.33541735       -2.71737936       -1.75998201
 C            3.55978227       -3.38362785        0.57802712
 C            3.24934131       -3.72233312       -0.80097188
 C            1.72564283       -2.81753448        2.09450987
 C            2.42143992       -3.78564038        1.37570101
 C            0.36611288       -3.00285695        2.35715194
 C            0.17539157       -0.68440186        3.00374532
 C           -0.42219104       -1.92176984        2.75093113
 C           -0.12057325        1.69636633        3.03568430
 C           -0.60901319        0.42583811        3.30758303
 C           -0.46473313        3.74576849        1.80702626
 C           -0.98406119        2.68454926        2.54864159
 C           -0.45366080        4.39438639       -0.51409852
 C           -1.15445112        4.17967059        0.67915704
 C           -1.10006979        4.22189707       -1.73557883
 C            0.84689887        2.99263535       -2.49359386
 C            1.22331127        1.68471698       -2.80689655
 C           -0.44764953        3.41231943       -2.74510068
 C            0.24478123        0.71779828       -3.04994635
 C            1.88441224       -1.02617727       -2.70688290
 C            2.18958098       -2.37513583       -2.48154893
 C            0.57216124       -0.63650885       -2.98964913
 C            1.20905886       -3.34280257       -2.67973531
 C            2.10548420       -4.61569253       -0.79109186
 C            1.68691994       -4.76476488        0.59504907
 C            1.15051939       -4.49138916       -1.79052679
 C           -0.25554969       -4.17636250        1.94076275
 C            0.35068129       -4.97251864        0.88944537
 C           -1.68188964       -4.17088219        1.69673098
 C           -1.81260000       -2.06854790        2.84284123
 C           -2.44819753       -3.12080489        2.18043377
 C           -1.95946035        0.27023641        3.56430306
 C           -2.58305230       -1.01537654        3.32455962
 C           -2.36456568        2.46364321        2.54397190
 C           -2.87534492        1.30695296        3.12554693
 C           -2.53741707        4.04262982        0.66585932
 C           -3.16160097        3.15739538        1.63514890
 C           -2.52111184        3.92598086       -1.77887912
 C           -3.24189700        3.89533573       -0.59494522
 C           -1.41492313        2.45092804       -3.22898089
 C           -1.09144790        1.09849043       -3.20086190
 C           -2.72428132        2.88927074       -2.77928016
 C           -2.10180499        0.14777794       -3.04802226
 C           -0.45157142       -1.58130738       -3.01980697
 C           -0.15153757       -2.93111412       -2.96105415
 C           -1.75873244       -1.17295333       -2.78903050
 C           -0.24654192       -4.75435024       -1.48727672
 C           -0.61898094       -5.07694267       -0.19082331
 C           -1.88601006       -4.58918938        0.31884335
 C           -1.05470390       -3.81161031       -2.24212240
 C           -2.64155091       -2.01218478       -2.09727299
 C           -2.71658003       -3.81810817       -0.48940659
 C           -2.20683024       -3.27182405       -1.67251368
 C           -3.66855487       -2.88638810        1.55346186
 C           -3.78599213       -3.18865604        0.13686815
 C           -3.89691329       -0.77091734        2.75182794
 C           -4.01926297        0.65364674        2.51014909
 C           -4.39483168       -1.65689074        1.81496059
 C           -4.25209118        2.45968374        0.97017170
 C           -4.29263922        2.90663017       -0.41067171
 C           -4.49061539        1.12380648        1.28593950
 C           -3.72091976        1.94287798       -2.60058788
 C           -3.41996170        0.54940805       -2.87535901
 C           -4.55963421        1.98728354       -1.41236632
 C           -3.87409439       -1.52476592       -1.65666867
 C           -4.42699857       -2.05659961       -0.50068938
 C           -4.87939917       -1.14853511        0.54363102
 C           -4.87680185        0.22083568        0.28509191
 C           -4.29148799       -0.25837188       -2.04850031
 C           -4.88301558        0.61984428       -1.05035871




