%chk=000022.chk
%mem=8GB
%Nproc=16
#p B3LYP/6-31G* opt pop=NPA

Template file

0 1
 C            5.40842788       -0.02962604        0.78965315
 C            4.99611048       -1.36353027        1.20062710
 C            4.65594916       -2.11579965        0.00627303
 C            5.37464103        0.02138149       -0.66436901
 C            4.86104030       -1.25019531       -1.14211045
 C            4.98581166        1.18663294       -1.30788692
 C            4.67919673        2.37545044       -0.52823020
 C            5.01600066        1.07867917        1.53319849
 C            4.61216722        2.29962207        0.85575628
 C            4.15078308        0.90702674        2.68822799
 C            4.23009376       -1.53061540        2.34254759
 C            3.81331523       -0.36826243        3.11477860
 C            3.12111519       -2.46894212        2.31465666
 C            3.55732869       -2.97352464       -0.00070662
 C            2.69825407       -3.00842699        1.10282893
 C            3.08251998       -3.37649999       -1.24080804
 C            3.92318985       -1.28302372       -2.17066572
 C            3.24582849       -2.47462287       -2.37274568
 C            4.01695156        1.10053794       -2.38865525
 C            3.33667985       -0.09037595       -2.59888335
 C            3.65299556        3.10967921       -1.24135456
 C            3.28922295        2.34866937       -2.42568693
 C            2.63645511        3.74488573       -0.53765688
 C            3.43985208        2.82687036        1.53748961
 C            3.11739442        1.92674512        2.62922693
 C            2.40465830        3.38342751        0.79280015
 C            1.78851682        1.57675955        2.84753156
 C            2.46570468       -0.61865179        3.58931706
 C            2.13231806       -1.99038173        3.25554248
 C            1.47782004        0.35812849        3.45468883
 C            0.80124058       -2.28789025        3.04072281
 C            1.34818282       -3.35566936        0.94196979
 C            0.43575832       -3.10960484        1.97338169
 C            1.76758202       -3.97101510       -1.34569238
 C            0.90241970       -3.91409439       -0.25765305
 C            1.99132244       -2.45677695       -3.09190940
 C            1.26523507       -3.63596711       -2.66603424
 C            1.98231076       -0.05910811       -2.95931376
 C            1.31120190       -1.25075982       -3.23427745
 C            1.95872622        2.36172828       -2.82410244
 C            1.27288422        1.14759745       -2.94927935
 C            1.57253811        4.21704624       -1.29020613
 C            1.24223877        3.50956895       -2.51966880
 C            0.32295180        4.52207179       -0.63086742
 C            1.09106857        3.26940744        1.26252820
 C            0.77839119        2.31930349        2.23839412
 C            0.06551403        3.95958132        0.61492906
 C           -0.55227702        2.03019886        2.52258635
 C            0.14327220       -0.04338287        3.53557052
 C           -0.13918666       -1.40921729        3.55288391
 C           -0.87092732        0.86303436        3.22278519
 C           -1.45138421       -1.83582711        3.60129544
 C           -0.91944323       -3.40298200        1.79339565
 C           -1.83522165       -2.93845575        2.74100877
 C           -0.46562413       -4.07955380       -0.48124815
 C           -1.37407939       -3.86333584        0.55585756
 C           -0.09746986       -3.67311552       -2.87086805
 C           -0.93236265       -4.16166399       -1.79447539
 C           -0.08293688       -1.25982185       -3.31376450
 C           -0.75053250       -2.48017595       -3.38032358
 C           -0.12958461        1.12211459       -2.94661429
 C           -0.79825770       -0.09944489       -3.01728123
 C           -0.19742583        3.50958239       -2.64607817
 C           -0.69498587        4.44977125       -1.65899788
 C           -0.86490205        2.30365768       -2.82399359
 C           -2.00981375        4.33668953       -1.26029340
 C           -1.26206369        3.76356588        1.00323741
 C           -1.55729270        2.85350201        2.01974203
 C           -2.28166958        4.20735304        0.15800324
 C           -2.88248094        2.59631461        2.35266291
 C           -2.20581212        0.48894104        3.40390093
 C           -2.51649472       -0.85485691        3.57742613
 C           -3.22110799        1.33939644        2.98747007
 C           -3.22859949       -2.74648656        2.38215012
 C           -3.62732651       -1.42401733        2.83126125
 C           -2.74365587       -3.88996910        0.28136588
 C           -3.67632570       -3.20868467        1.16220921
 C           -2.27479293       -3.71665531       -2.10234245
 C           -2.14063398       -2.55724781       -2.97141956
 C           -3.20346472       -3.67690206       -1.07912720
 C           -2.17656300       -0.15736073       -2.77881119
 C           -2.82057423       -1.39224252       -2.64552737
 C           -2.22615618        2.24369118       -2.52143595
 C           -2.83647914        3.34360049       -1.91396500
 C           -2.89165087        1.01819861       -2.54950939
 C           -3.61493139        3.64101240        0.27089937
 C           -3.93474548        2.90645446        1.40130813
 C           -3.98196741        3.13965415       -1.04744479
 C           -4.36361932        0.77477737        2.28331338
 C           -4.37559108       -0.59099361        2.00238661
 C           -4.79108715        1.73647326        1.28490630
 C           -4.51808170       -2.35245362        0.34481908
 C           -4.15992631       -2.58554901       -1.04483920
 C           -3.98592366       -1.48904638       -1.88399407
 C           -4.80833957       -1.05018267        0.75027461
 C           -4.19643135        0.93691978       -2.06810017
 C           -4.69233726        1.95712235       -1.16218175
 C           -5.17881198        1.28588608        0.03324402
 C           -4.69821230       -0.33598410       -1.59474334
 C           -5.18361599       -0.13973884       -0.23689045




