%chk=000066.chk
%mem=8GB
%Nproc=16
#p B3LYP/6-31G* opt pop=NPA

Template file

0 1
 C            4.82165445       -2.04967590        0.95393035
 C            5.16552450       -0.64893388        0.77011568
 C            4.47726139        0.12171931        1.79397812
 C            4.01853146       -2.15124997        2.16150251
 C            3.68400526       -0.80243118        2.58241759
 C            3.05733902       -3.14464982        2.27019162
 C            2.82474827       -4.05357896        1.15752705
 C            4.51215124       -2.83541681       -0.15131948
 C            3.46667358       -3.84155503       -0.05285643
 C            4.41401247       -2.22587269       -1.46864941
 C            5.26412372       -0.12778274       -0.51158845
 C            4.79723566       -0.90723934       -1.64880388
 C            4.87269851        1.25041807       -0.74060486
 C            3.93845658        1.36474200        1.47279512
 C            4.34872806        2.00893240        0.30270664
 C            2.77476149        1.78717692        2.12204797
 C            2.36400584       -0.47439005        2.87165771
 C            1.96131607        0.85140056        2.77205352
 C            1.76353043       -2.80899012        2.83711362
 C            1.39613872       -1.47526082        2.97833537
 C            1.41303103       -4.39548935        1.15796082
 C            0.80087966       -3.74667956        2.29945387
 C            0.69803552       -4.42905440       -0.03673730
 C            2.67650314       -3.78357057       -1.27016305
 C            3.17540531       -2.68169020       -2.07256932
 C            1.30387631       -3.98193524       -1.21663930
 C            2.26702134       -1.75528507       -2.58882325
 C            3.95667691       -0.04176717       -2.45671090
 C            4.22264979        1.31878404       -2.03916133
 C            2.64701856       -0.41940235       -2.73764339
 C            3.24785322        2.28685471       -2.23076751
 C            3.76664566        3.22500638       -0.03397063
 C            3.27858696        3.39715840       -1.39157960
 C            2.32536020        3.09729634        1.94455808
 C            2.79297648        3.82510514        0.85776896
 C            1.13624960        3.50208183        2.54272578
 C            0.65693297        1.18201032        3.11285734
 C            0.30862158        2.51660660        3.21175044
 C            0.04094990       -1.13372938        2.94800957
 C           -0.33399568        0.20553994        3.04558461
 C           -0.52144889       -3.35589960        2.18024372
 C           -0.91923114       -2.10867604        2.66619685
 C           -0.69803552       -4.42905440        0.03673730
 C           -1.30387631       -3.98193524        1.21663930
 C           -1.41303103       -4.39548935       -1.15796082
 C            0.52144889       -3.35589960       -2.18024372
 C            0.91923114       -2.10867604       -2.66619685
 C           -0.80087966       -3.74667956       -2.29945387
 C           -0.04094990       -1.13372938       -2.94800957
 C            1.67427262        0.56941198       -2.88867272
 C            2.03857513        1.92060215       -2.82387395
 C            0.33399568        0.20553994       -3.04558461
 C            1.07788002        2.90210942       -3.04241935
 C            2.14613519        4.30441469       -1.35054491
 C            1.84375836        4.57303029        0.04494299
 C            1.10594003        4.11544748       -2.24182297
 C            0.25013974        4.39157585        1.80977449
 C            0.52005765        4.66278142        0.46979513
 C           -1.07788002        2.90210942        3.04241935
 C           -1.10594003        4.11544748        2.24182297
 C           -1.67427262        0.56941198        2.88867272
 C           -2.03857513        1.92060215        2.82387395
 C           -2.26702134       -1.75528507        2.58882325
 C           -2.64701856       -0.41940235        2.73764339
 C           -2.67650314       -3.78357057        1.27016305
 C           -3.17540531       -2.68169020        2.07256932
 C           -2.82474827       -4.05357896       -1.15752705
 C           -3.46667358       -3.84155503        0.05285643
 C           -1.76353043       -2.80899012       -2.83711362
 C           -1.39613872       -1.47526082       -2.97833537
 C           -3.05733902       -3.14464982       -2.27019162
 C           -2.36400584       -0.47439005       -2.87165771
 C           -0.65693297        1.18201032       -3.11285734
 C           -0.30862158        2.51660660       -3.21175044
 C           -1.96131607        0.85140056       -2.77205352
 C           -0.25013974        4.39157585       -1.80977449
 C           -0.52005765        4.66278142       -0.46979513
 C           -1.13624960        3.50208183       -2.54272578
 C           -2.14613519        4.30441469        1.35054491
 C           -1.84375836        4.57303029       -0.04494299
 C           -3.24785322        2.28685471        2.23076751
 C           -3.27858696        3.39715840        1.39157960
 C           -3.95667691       -0.04176717        2.45671090
 C           -4.22264979        1.31878404        2.03916133
 C           -4.41401247       -2.22587269        1.46864941
 C           -4.51215124       -2.83541681        0.15131948
 C           -4.79723566       -0.90723934        1.64880388
 C           -4.01853146       -2.15124997       -2.16150251
 C           -3.68400526       -0.80243118       -2.58241759
 C           -4.82165445       -2.04967590       -0.95393035
 C           -4.87269851        1.25041807        0.74060486
 C           -5.26412372       -0.12778274        0.51158845
 C           -4.47726139        0.12171931       -1.79397812
 C           -5.16552450       -0.64893388       -0.77011568
 C           -2.77476149        1.78717692       -2.12204797
 C           -2.32536020        3.09729634       -1.94455808
 C           -2.79297648        3.82510514       -0.85776896
 C           -3.76664566        3.22500638        0.03397063
 C           -3.93845658        1.36474200       -1.47279512
 C           -4.34872806        2.00893240       -0.30270664




