%chk=000120.chk
%mem=8GB
%Nproc=16
#p B3LYP/6-31G* opt pop=NPA

Template file

0 1
 C            4.95279475       -1.57124969       -0.50954764
 C            4.92042064       -0.25315455       -1.11932722
 C            5.05465379        0.73323498       -0.06081181
 C            4.93033786       -1.39096184        0.93450684
 C            4.87931559        0.03578190        1.20248735
 C            4.18893763       -2.25251553        1.72822592
 C            3.51298696       -3.39150816        1.12694352
 C            4.22290262       -2.59783306       -1.09048023
 C            3.53945796       -3.56633666       -0.24825294
 C            3.35016047       -2.29012674       -2.21042184
 C            4.04731330        0.00648801       -2.17067996
 C            3.11349396       -0.96243360       -2.54554889
 C            3.82565498        1.33165106       -2.51091510
 C            4.47796190        1.98998437       -0.23233874
 C            4.05533428        2.36247103       -1.50737940
 C            3.95500841        2.64929717        0.87959088
 C            3.97791119        0.54224181        2.13364111
 C            3.71756746        1.90459106        2.10765577
 C            3.30963281       -1.69564303        2.74113710
 C            3.09262775       -0.31937075        2.78910485
 C            2.26827589       -3.59846336        1.84388944
 C            2.18023508       -2.59587120        2.88822743
 C            1.11085168       -3.93936866        1.15528175
 C            2.32663533       -3.97021557       -0.93571117
 C            2.24426788       -3.22394010       -2.17528692
 C            1.15055504       -4.18312876       -0.22338187
 C            0.99085256       -2.81560378       -2.60083424
 C            1.84509387       -0.57999056       -2.99965038
 C            0.80706443       -1.51410853       -3.07589023
 C            2.62350915        1.68390072       -3.23776562
 C            1.60011087        0.74833893       -3.35120552
 C            3.00649793        3.35785536       -1.65808295
 C            2.30158088        3.05582519       -2.89113689
 C            2.85934617        3.59383863        0.71493395
 C            2.29221127        3.77271880       -0.53751823
 C            2.50382086        2.41336006        2.71124722
 C            1.99749764        3.48350318        1.87295283
 C            1.87393944        0.15978923        3.28536589
 C            1.59303883        1.53011031        3.27193779
 C            0.93968918       -2.05910126        3.20063296
 C            0.88088346       -0.75003715        3.66481775
 C           -0.11626932       -3.69852439        1.76996464
 C           -0.22043312       -2.66672284        2.70980477
 C           -1.26326029       -4.20564309        1.17329251
 C           -0.04835110       -4.20854940       -0.93710753
 C           -0.11489646       -3.53929925       -2.16518024
 C           -1.21488347       -4.51013889       -0.24303330
 C           -1.34134147       -3.27727321       -2.76068264
 C           -0.47992270       -1.08081032       -3.40232320
 C           -1.52574482       -1.99567064       -3.41547453
 C            0.28657340        1.18684087       -3.52842148
 C           -0.76386118        0.28226558       -3.39720710
 C            0.99473959        3.48186600       -3.02997728
 C            0.01514204        2.54874170       -3.55458499
 C            0.92648049        4.04796518       -0.64753560
 C            0.36686449        4.16429518       -1.91396533
 C            0.62437948        3.59762598        1.71667441
 C            0.08636702        3.91239629        0.46465766
 C            0.28114859        1.96372401        3.45114766
 C           -0.19517428        3.03492449        2.68909867
 C           -0.32215517       -0.28469666        4.17540474
 C           -0.60806906        1.13419913        4.12039724
 C           -1.46782659       -2.09917329        2.99290158
 C           -1.54096698       -0.99813767        3.83837976
 C           -2.54192253       -3.58151500        1.44893889
 C           -2.56681781       -2.40935785        2.19393963
 C           -2.51133858       -4.19603102       -0.81632551
 C           -2.57381639       -3.61610343       -2.07459033
 C           -3.36030083       -3.70026279        0.25526886
 C           -2.87012616       -1.53365457       -3.12788131
 C           -3.53525894       -2.55866258       -2.33989456
 C           -2.05881465        0.73322257       -3.09605070
 C           -3.07398188       -0.19103716       -2.82514959
 C           -1.28232116        3.01278343       -3.11677316
 C           -1.06269795        4.00831723       -2.07647668
 C           -2.31568794        2.09998806       -2.95164889
 C           -1.30573262        4.00656587        0.31653818
 C           -1.88341880        3.98869976       -0.95752908
 C           -1.55041073        3.33023802        2.66465545
 C           -2.12089589        3.85971802        1.43953755
 C           -2.03754252        1.29211370        3.92460611
 C           -2.58534768       -0.01581848        3.61493742
 C           -2.50540612        2.39676996        3.23702270
 C           -3.54254513       -1.43835031        1.94298251
 C           -3.42845799       -0.17540702        2.52013626
 C           -4.30840994       -2.72443071       -0.00927316
 C           -4.42944816       -2.17548285       -1.35129214
 C           -4.47539574       -1.63172797        0.93317450
 C           -4.16409040        0.17820045       -2.03087852
 C           -4.77772955       -0.77301972       -1.22123675
 C           -4.94673153       -0.47988766        0.19342610
 C           -3.39530829        2.50138481       -2.17733766
 C           -3.16883096        3.47913245       -1.12476054
 C           -4.32412949        1.51018796       -1.67596801
 C           -3.44966443        3.28908451        1.29688937
 C           -3.57944746        2.22653706        2.27696031
 C           -3.94208190        0.94706592        1.85692546
 C           -4.63209410        0.79628413        0.64896349
 C           -3.96129201        3.09072509        0.02795919
 C           -4.61147463        1.82950615       -0.28643840




