%chk=000305.chk
%mem=8GB
%Nproc=16
#p B3LYP/6-31G* opt pop=NPA

Template file

0 1
 C            4.87135821       -1.81406289        0.18985402
 C            5.00244305       -0.47925184       -0.36899848
 C            5.11057958        0.43225972        0.75234226
 C            4.58152171       -1.66458799        1.60976361
 C            4.50659610       -0.24156269        1.88542032
 C            3.66872758       -2.50874550        2.22066045
 C            3.10545720       -3.62526730        1.47795365
 C            4.21946542       -2.78873671       -0.54852684
 C            3.35972671       -3.75177309        0.12138312
 C            3.57838389       -2.41268144       -1.79535917
 C            4.23384435       -0.10763183       -1.47176950
 C            3.46797293       -1.07048086       -2.14104654
 C            4.03519622        1.25218027       -1.73305566
 C            4.80963648        1.76501181        0.55055583
 C            4.38425198        2.19839305       -0.77078031
 C            3.93752632        2.42213154        1.50322579
 C            3.35240101        0.29503953        2.46002851
 C            3.07849243        1.65071615        2.28735380
 C            2.60175040       -1.92376134        3.01248183
 C            2.35057010       -0.55779671        2.92499118
 C            1.75816240       -3.84479806        1.97058521
 C            1.49029653       -2.85053327        2.99153449
 C            0.72973638       -4.17725239        1.09242910
 C            2.26674622       -4.07209677       -0.77837981
 C            2.43342917       -3.28255152       -1.98367471
 C            0.97836420       -4.25581130       -0.28454862
 C            1.29506252       -2.78490282       -2.60241897
 C            2.43094288       -0.67728495       -2.98437775
 C            1.30306620       -1.49043167       -3.13150782
 C            3.18598428        1.63785309       -2.76398250
 C            2.38775864        0.63388234       -3.43835086
 C            2.36289021        2.82787114       -2.60186583
 C            3.54119755        3.37217556       -0.58931545
 C            3.42898797        3.60691785        0.84268033
 C            2.42816006        3.54512729       -1.41180624
 C            2.27815872        4.18944275        1.33483924
 C            1.81862427        2.15124915        2.61883150
 C            1.54362871        3.49362804        2.37742504
 C            1.03925623       -0.09143674        3.04240625
 C            0.76916216        1.26620878        2.87487301
 C            0.20033278       -2.35992982        3.09127546
 C           -0.00737502       -0.99020800        3.26661899
 C           -0.58464753       -4.01834724        1.53720411
 C           -0.83692044       -3.14294599        2.59867628
 C           -1.62239107       -4.41013114        0.69775817
 C           -0.08910438       -4.15055383       -1.17719218
 C            0.07716465       -3.41448577       -2.35557340
 C           -1.36545721       -4.47034909       -0.72648535
 C           -1.02707365       -3.03494910       -3.10757766
 C            0.12294276       -0.94479817       -3.64421959
 C           -1.00408977       -1.74306650       -3.76683778
 C            1.10356367        1.22706686       -3.76441707
 C            1.06933149        2.56114001       -3.20158712
 C           -0.03098486        0.43594793       -3.68898593
 C           -0.07540336        2.98601627       -2.54666965
 C            1.26881155        4.13306360       -0.89570776
 C            1.29384425        4.67070902        0.39034265
 C            0.03864272        3.93368721       -1.53266063
 C            0.16604385        3.93769617        2.29432518
 C            0.05657495        4.80566182        1.13225851
 C           -0.55006731        1.72804486        2.93622564
 C           -0.85893081        3.03973119        2.55848802
 C           -1.31245772       -0.51719209        3.41243391
 C           -1.58093567        0.84458047        3.26075542
 C           -2.13683694       -2.77564930        2.91317930
 C           -2.36724458       -1.43253781        3.41478154
 C           -2.95759969       -3.86853884        0.88610688
 C           -3.22268845       -3.10131929        2.00442771
 C           -2.53488687       -3.94730015       -1.41206606
 C           -2.36819611       -3.25511600       -2.59712967
 C           -3.43600565       -3.41355571       -0.40679368
 C           -2.31252977       -1.13509959       -3.61016229
 C           -3.13233320       -2.04120170       -2.82187492
 C           -1.24835488        1.00546251       -3.30816397
 C           -1.26688739        2.27174959       -2.70382366
 C           -2.41285953        0.23344343       -3.37437711
 C           -2.45456529        2.79161949       -2.18107771
 C           -1.11876456        4.46551254       -0.97611381
 C           -1.13546600        4.82468952        0.43118661
 C           -2.39875151        3.85661631       -1.29060582
 C           -2.14463325        3.34875033        2.11485623
 C           -2.30144507        4.19512136        1.02309926
 C           -3.17569501        3.78659651       -0.06161011
 C           -2.90139190        1.27612453        3.15659386
 C           -3.18998794        2.49934268        2.43595652
 C           -3.67952754       -1.02243041        2.94932633
 C           -4.03900188       -1.91098439        1.86119028
 C           -3.94332245        0.32631088        2.81556901
 C           -3.93560846       -2.11819081       -0.54669803
 C           -3.92986619       -1.51468377       -1.80837952
 C           -4.27285728       -1.37704615        0.59440716
 C           -3.58044815        0.70086067       -2.78634571
 C           -3.60246551        2.01341074       -2.17894046
 C           -4.35235215       -0.19887769       -1.94232371
 C           -4.04297697        2.71393495        0.13439528
 C           -4.18758933        2.19117380        1.41944488
 C           -4.57284031        0.79966220        1.59462401
 C           -4.64590651       -0.03526286        0.48258053
 C           -4.39909057        1.93346047       -0.96375451
 C           -4.77595392        0.54091490       -0.77178635




