%chk=000325.chk
%mem=8GB
%Nproc=16
#p B3LYP/6-31G* opt pop=NPA

Template file

0 1
 C           -4.66538675       -1.46838177       -0.97922324
 C           -4.87930160       -0.05557743       -1.25682566
 C           -5.05261335        0.62721466        0.01707254
 C           -4.83305762       -1.67025299        0.45059637
 C           -4.88676625       -0.35924369        1.07174590
 C           -4.11789640       -2.67711334        1.07420397
 C           -3.30609215       -3.55562675        0.25797653
 C           -3.66977426       -2.15684019       -1.66924331
 C           -2.91747633       -3.13644256       -1.01345702
 C           -3.21824471       -1.63565606       -2.87516966
 C           -4.16057124        0.55908787       -2.27749858
 C           -3.44822714       -0.23020037       -3.17682252
 C           -3.85839441        1.91369241       -2.17580948
 C           -4.52603200        1.90310432        0.19614704
 C           -4.05345073        2.60503591       -0.90987830
 C           -4.12015939        2.28835473        1.47225114
 C           -4.05012223       -0.06528892        2.14379990
 C           -3.86748646        1.26683681        2.47951446
 C           -3.32932953       -2.34776305        2.24984329
 C           -3.11436484       -1.01212424        2.56504537
 C           -2.32799120       -4.15271826        1.14532889
 C           -2.22387075       -3.28461504        2.30658055
 C           -1.16725162       -4.67047607        0.60021882
 C           -1.66237255       -3.50912103       -1.50992248
 C           -0.87664359       -4.41045507       -0.79904858
 C           -1.89246339       -1.98254801       -3.34718231
 C           -1.08807465       -2.79888090       -2.56255007
 C           -2.24126755        0.29630897       -3.79558838
 C           -1.31186003       -0.80234322       -3.96168476
 C           -2.63778844        2.42485629       -2.78072595
 C           -1.76356842        1.54265917       -3.41089976
 C           -2.96606954        3.56000189       -0.74981424
 C           -2.10337950        3.45457767       -1.90774263
 C           -3.09944500        3.31203847        1.62360678
 C           -2.39826376        3.74716599        0.50230047
 C           -2.67815037        1.65262610        3.21060144
 C           -2.38551437        3.02950514        2.85629598
 C           -1.85344084       -0.59990038        3.01238605
 C           -1.63474985        0.74066030        3.33840609
 C           -0.96829945       -2.84394293        2.70601827
 C           -0.78864930       -1.50537484        3.07246814
 C            0.07605815       -4.52070593        1.33404502
 C            0.14150956       -3.63591597        2.40760650
 C            0.56691839       -4.35562652       -0.94654732
 C            1.15910251       -4.53282169        0.36562193
 C            0.30158100       -2.66176073       -2.63677698
 C            1.12784444       -3.42383405       -1.80581511
 C            0.04348197       -0.57351225       -3.79904143
 C            0.84910828       -1.63525771       -3.41028762
 C           -0.38441417        1.75846923       -3.31933847
 C            0.51176827        0.73183007       -3.64424840
 C           -0.73183357        3.53318073       -1.74100854
 C            0.07945074        2.90420571       -2.67393863
 C           -1.03585677        4.04110380        0.60778623
 C           -0.19700500        3.89846208       -0.50344543
 C           -1.08814460        3.48518661        2.99224800
 C           -0.47495932        4.17344349        1.87162961
 C           -0.33054062        1.21016600        3.50646241
 C           -0.08868911        2.57761749        3.52334579
 C            0.48577796       -1.03880681        3.39391250
 C            0.73860000        0.32889230        3.37709998
 C            1.39497510       -3.24162664        2.85339378
 C            1.54953819       -1.92618054        3.44245345
 C            2.33523658       -3.85760866        0.67213407
 C            2.54469092       -3.47297795        1.99558609
 C            2.44937397       -3.03552545       -1.60264334
 C            3.04468648       -3.21882382       -0.34886894
 C            2.22423762       -1.47452045       -3.46704066
 C            3.06087109       -2.23334686       -2.55837673
 C            1.89148084        0.95771557       -3.57780701
 C            2.76318679       -0.12942497       -3.55833814
 C            1.43197579        3.18952243       -2.66780819
 C            2.36703473        2.19250850       -3.14931105
 C            1.19425328        4.00036587       -0.36274310
 C            2.00077794        3.81175973       -1.48598699
 C            0.95811886        4.04454673        2.03055328
 C            1.19888924        3.06663135        3.08248931
 C            1.77652578        4.02514957        0.90933849
 C            2.02553362        0.80532710        3.08288949
 C            2.25320163        2.17603110        2.92811131
 C            2.88130419       -1.44553515        3.12272641
 C            3.53420905       -2.45778337        2.30865436
 C            3.05957518       -0.09961124        2.81797945
 C            4.22168627       -2.54241505       -0.03242981
 C            4.41912743       -2.05859336        1.32218555
 C            4.19226824       -1.40067047       -2.19449393
 C            3.95344619       -0.07009365       -2.72350123
 C            4.75230393       -1.53859734       -0.93942563
 C            3.54856185        2.24416418       -2.30187185
 C            3.35366136        3.30681773       -1.33197798
 C            4.16738550        1.05299121       -1.92788826
 C            3.07437927        3.55034141        1.08376520
 C            3.32419912        2.59454369        2.15042608
 C            3.87787260        3.16531357       -0.06231300
 C            4.14163709        0.28746398        2.02175256
 C            4.79247508       -0.65891972        1.23557066
 C            5.05190463       -0.34963157       -0.16190186
 C            4.71210840        0.91367328       -0.64443049
 C            4.28020675        1.62144102        1.66493419
 C            4.59120287        1.94842279        0.28158334




