%chk=000394.chk
%mem=8GB
%Nproc=16
#p B3LYP/6-31G* opt pop=NPA

Template file

0 1
 C            4.81704617       -1.19376813        0.69584414
 C            4.26910437       -1.20265575        2.04284907
 C            3.39101467       -2.35908248        2.15603600
 C            4.41508375       -2.42789706        0.04727536
 C            3.45231510       -3.09466043        0.90837988
 C            4.21003359       -2.43387833       -1.31962036
 C            4.30590991       -1.18873975       -2.05902299
 C            4.84495193        0.00000000       -0.02045359
 C            4.61894139       -0.00000000       -1.40380381
 C            4.81704617        1.19376813        0.69584414
 C            3.90278592        0.00000000        2.64501124
 C            4.26910437        1.20265575        2.04284907
 C            2.87224267        0.00000000        3.58160445
 C            2.17548464       -2.22497771        2.81190737
 C            2.02333769       -1.17393191        3.71025232
 C            1.04014049       -2.86565799        2.30976021
 C            2.28186322       -3.60889743        0.36107228
 C            1.10994245       -3.61199437        1.12518755
 C            3.09283068       -3.18299638       -1.86356475
 C            2.22092252       -3.85555873       -1.01319141
 C            3.24786892       -1.17708398       -3.05948183
 C            2.52812701       -2.41954664       -2.96486227
 C            2.55283749       -0.00000000       -3.28115735
 C            4.30590991        1.18873975       -2.05902299
 C            3.24786892        1.17708398       -3.05948183
 C            4.41508375        2.42789706        0.04727536
 C            4.21003359        2.43387833       -1.31962036
 C            3.39101467        2.35908248        2.15603600
 C            3.45231510        3.09466043        0.90837988
 C            2.02333769        1.17393191        3.71025232
 C            2.17548464        2.22497771        2.81190737
 C            0.68927100       -0.72409054        4.06669700
 C            0.68927100        0.72409054        4.06669700
 C           -0.19879921       -2.60144300        2.89194290
 C           -0.40520208       -1.39171561        3.54231128
 C           -1.29920802       -3.35692080        2.52954646
 C           -0.02806715       -4.26421834        0.64112462
 C           -1.21946352       -4.19771624        1.35302074
 C            1.02688960       -4.29554039       -1.56614859
 C           -0.08782921       -4.61410694       -0.69918174
 C            1.15300981       -2.43027452       -3.13404445
 C            0.49986850       -3.57858910       -2.71668645
 C            1.15010171       -0.00000000       -3.22757217
 C            0.44988390       -1.21577031       -3.17443257
 C            0.44988390        1.21577031       -3.17443257
 C            2.52812701        2.41954664       -2.96486227
 C            3.09283068        3.18299638       -1.86356475
 C            1.15300981        2.43027452       -3.13404445
 C            2.28186322        3.60889743        0.36107228
 C            2.22092252        3.85555873       -1.01319141
 C            1.04014049        2.86565799        2.30976021
 C            1.10994245        3.61199437        1.12518755
 C           -0.40520208        1.39171561        3.54231128
 C           -0.19879921        2.60144300        2.89194290
 C           -1.60148140       -0.70093571        3.34163312
 C           -1.60148140        0.70093571        3.34163312
 C           -2.61298987       -2.73984659        2.55740916
 C           -2.73965288       -1.41112151        2.95088495
 C           -2.47862756       -4.07993361        0.62918894
 C           -3.35436818       -3.20692432        1.39660817
 C           -1.30674698       -4.35269286       -1.44641691
 C           -0.93576529       -3.58388547       -2.62426649
 C           -2.46966796       -4.01032401       -0.76210054
 C           -0.94905995       -1.21509750       -3.05555815
 C           -1.63961847       -2.42877110       -2.91378110
 C           -0.94905995        1.21509750       -3.05555815
 C           -1.64904595       -0.00000000       -3.00627906
 C           -1.63961847        2.42877110       -2.91378110
 C            0.49986850        3.57858910       -2.71668645
 C            1.02688960        4.29554039       -1.56614859
 C           -0.93576529        3.58388547       -2.62426649
 C           -0.02806715        4.26421834        0.64112462
 C           -0.08782921        4.61410694       -0.69918174
 C           -1.30674698        4.35269286       -1.44641691
 C           -1.29920802        3.35692080        2.52954646
 C           -1.21946352        4.19771624        1.35302074
 C           -2.73965288        1.41112151        2.95088495
 C           -2.61298987        2.73984659        2.55740916
 C           -3.88333541       -0.72392016        2.56976879
 C           -3.88333541        0.72392016        2.56976879
 C           -4.21252741       -2.32905435        0.74118968
 C           -4.62399636       -1.17542014        1.40167568
 C           -3.40394603       -3.20838959       -1.41231875
 C           -2.97776517       -2.42098181       -2.56009709
 C           -4.33662476       -2.40136918       -0.64153876
 C           -3.04475006       -0.00000000       -2.85913527
 C           -3.70219177       -1.17740702       -2.54575522
 C           -4.60851709       -1.19479020       -1.40739174
 C           -2.97776517        2.42098181       -2.56009709
 C           -3.70219177        1.17740702       -2.54575522
 C           -2.46966796        4.01032401       -0.76210054
 C           -2.47862756        4.07993361        0.62918894
 C           -3.35436818        3.20692432        1.39660817
 C           -3.40394603        3.20838959       -1.41231875
 C           -4.62399636        1.17542014        1.40167568
 C           -5.01325345       -0.00000000        0.63664074
 C           -4.88380420       -0.00000000       -0.74906217
 C           -4.60851709        1.19479020       -1.40739174
 C           -4.21252741        2.32905435        0.74118968
 C           -4.33662476        2.40136918       -0.64153876




