%chk=000225.chk
%mem=8GB
%Nproc=16
#p B3LYP/6-31G* opt pop=NPA

Template file

0 1
 C            5.09797828       -0.01258151        0.80722811
 C            4.39451100        0.02182431        2.07519394
 C            3.87187018       -1.30968620        2.33911560
 C            4.96351593       -1.35513707        0.26313292
 C            4.13950633       -2.13173668        1.17621859
 C            4.80807957       -1.53492680       -1.10340644
 C            4.68521955       -0.38070712       -1.97932024
 C            5.02641977        1.08835468       -0.03349034
 C            4.85197949        0.89723962       -1.46526189
 C            4.22084057        2.23105328        0.36730924
 C            3.61623723        1.12468624        2.41626028
 C            3.38407170        2.12820543        1.47039822
 C            2.73678357        0.97567085        3.47753997
 C            2.65508501       -1.42744887        2.99971345
 C            2.23683569       -0.35478134        3.78536624
 C            1.70808080       -2.35104277        2.54676712
 C            3.13215467       -2.94546401        0.67092892
 C            1.97355776       -3.15355561        1.42761767
 C            3.88375366       -2.54566477       -1.58026498
 C            3.16756499       -3.32276110       -0.67461483
 C            3.58277980       -0.63019862       -2.89458741
 C            3.17936618       -2.00725200       -2.73302039
 C            2.61457851        0.34658612       -3.07257942
 C            3.99442655        1.96365845       -1.94735764
 C            3.72606606        2.86262258       -0.83663519
 C            2.96093033        1.67761542       -2.83599097
 C            2.50789106        3.52825430       -0.81393177
 C            2.20450468        2.88174456        1.51300533
 C            1.75157614        3.55311427        0.36273602
 C            1.64522126        1.91189339        3.63777719
 C            1.44924455        2.90701872        2.69013690
 C            0.83575033       -0.23038592        4.14431815
 C            0.49013546        1.17592012        4.12726238
 C            0.42573196       -2.32879631        3.09428556
 C           -0.06403770       -1.15189193        3.64370129
 C           -0.46613216       -3.34038426        2.79084110
 C            1.02809500       -4.09022642        0.99891347
 C           -0.16538056       -4.23833645        1.69532177
 C            2.12071492       -4.07242768       -1.19067669
 C            1.08619020       -4.56188773       -0.30357983
 C            1.85021795       -2.36411033       -2.91219381
 C            1.47371823       -3.59765472       -2.40329321
 C            1.26585965       -0.02273955       -3.18227466
 C            0.87971422       -1.36358912       -3.05941929
 C            0.29629302        0.95727562       -3.39150992
 C            2.01464123        2.66545130       -3.04763815
 C            1.85975753        3.69323859       -2.03088801
 C            0.68868825        2.28599715       -3.48854051
 C            0.48145560        4.12462596       -2.05206394
 C           -0.21780612        3.32493728       -3.04643493
 C            0.48776712        4.15738867        0.35285650
 C           -0.16242021        4.41803243       -0.85850232
 C            0.23041079        3.57046528        2.71317369
 C           -0.20895749        4.30238715        1.54538130
 C           -0.77532321        1.56796531        3.70645857
 C           -0.92595765        2.88085761        3.26827671
 C           -1.37723997       -0.76371450        3.38205320
 C           -1.70063468        0.59821698        3.30056353
 C           -1.88443202       -3.03309579        2.75087150
 C           -2.31417322       -1.73606529        3.01847654
 C           -1.39887647       -4.47616891        0.95738741
 C           -2.46905179       -3.75743646        1.63345382
 C           -0.14018397       -4.65864765       -1.07772298
 C            0.07527286       -3.93549398       -2.32132971
 C           -1.36892144       -4.53439665       -0.43413520
 C           -0.48405115       -1.68951254       -2.97642885
 C           -0.87333577       -3.01280421       -2.72623348
 C           -1.04917135        0.66022661       -3.17548689
 C           -1.45118564       -0.67406074       -3.04041974
 C           -1.54684166        3.00569432       -2.82047659
 C           -1.98103554        1.70156190       -3.05914912
 C           -1.55146924        4.51436608       -0.89195340
 C           -2.26834765        3.81468612       -1.94536257
 C           -1.66083585        4.27070538        1.53678985
 C           -2.08103663        3.24335576        2.47149764
 C           -2.32518859        4.38582817        0.33029423
 C           -2.87973536        0.99658866        2.66688116
 C           -2.94795946        2.24284971        2.05269011
 C           -3.56314417       -1.34895608        2.55033181
 C           -3.85954162        0.05938098        2.38594005
 C           -3.48306042       -3.15929356        0.89210664
 C           -4.15570261       -2.06770806        1.43247754
 C           -2.44719442       -4.03718979       -1.16183707
 C           -2.18620433       -3.28641808       -2.38095387
 C           -3.55810417       -3.39632098       -0.47541999
 C           -2.81148036       -0.98847848       -2.92264960
 C           -3.18338655       -2.25195379       -2.49405700
 C           -4.08726928       -2.36984157       -1.36016464
 C           -3.32227453        1.40638484       -2.86264775
 C           -3.73602135        0.02748761       -2.73748212
 C           -3.52334149        3.34043751       -1.38882268
 C           -3.44400918        3.50074962        0.05143961
 C           -3.68202318        2.39971825        0.87251407
 C           -4.08308207        2.18162684       -1.89776071
 C           -4.65076952        0.21732044        1.18037827
 C           -4.78101013       -1.09092415        0.55338926
 C           -4.64983881       -1.21331102       -0.82855175
 C           -4.65982916       -0.06473503       -1.61575188
 C           -4.45341291        1.34040005        0.38589099
 C           -4.70062234        1.24023169       -0.98038902




