%chk=000065.chk
%mem=8GB
%Nproc=16
#p B3LYP/6-31G* opt pop=NPA

Template file

0 1
 C            4.96680019       -1.63552428        0.89070205
 C            5.14947246       -0.19518000        0.94951601
 C            4.33673515        0.31651686        2.04197852
 C            4.15981028       -2.02410141        2.03584795
 C            3.67037023       -0.81106984        2.66635836
 C            3.31594584       -3.12017071        1.94556159
 C            3.16505312       -3.81806743        0.67733680
 C            4.77135484       -2.25753214       -0.33799962
 C            3.82013137       -3.35066031       -0.45181661
 C            4.67075554       -1.45706953       -1.54911263
 C            5.23456503        0.53610623       -0.22640820
 C            4.92301452       -0.09682176       -1.49987277
 C            4.68109487        1.87612610       -0.26108309
 C            3.63608737        1.50722683        1.87621505
 C            3.99561391        2.37612416        0.84250829
 C            2.41302308        1.67621461        2.53283125
 C            2.32406707       -0.69911901        2.99687881
 C            1.74154115        0.56262181        3.05662725
 C            2.00576167       -3.05383311        2.56788881
 C            1.51099203       -1.83466375        3.03129220
 C            1.77925392       -4.24005096        0.56760990
 C            1.12094480       -3.92477906        1.81699840
 C            1.07849595       -4.03886529       -0.61410871
 C            3.06599634       -3.15803596       -1.67745814
 C            3.52232769       -1.92994204       -2.30074871
 C            1.70813193       -3.43743254       -1.70911624
 C            2.57367115       -1.02272436       -2.77900838
 C            4.05614013        0.80301075       -2.24047797
 C            4.11883440        2.09172869       -1.58436276
 C            2.83081644        0.34855517       -2.72140218
 C            3.04554175        2.96090516       -1.70773867
 C            3.26796484        3.54433563        0.65931144
 C            2.84351239        3.88778815       -0.68779701
 C            1.79394449        2.92863182        2.52041633
 C            2.17422176        3.85539099        1.55821730
 C            0.53994229        3.08068850        3.10120142
 C            0.42912263        0.67792576        3.50072611
 C           -0.10594801        1.93613867        3.70979370
 C            0.12809442       -1.69004503        3.17882745
 C           -0.41426671       -0.42898848        3.44251093
 C           -0.23006756       -3.61738260        1.80026010
 C           -0.70302891       -2.72643189        2.75277718
 C           -0.31632694       -4.07392327       -0.57371547
 C           -0.97584674       -3.81587188        0.63396704
 C           -1.00482319       -3.94323737       -1.77150488
 C            0.93115463       -2.77660052       -2.65135339
 C            1.27466214       -1.47343551       -3.01976535
 C           -0.35837026       -3.23211473       -2.85686528
 C            0.27790626       -0.56522080       -3.38783439
 C            1.78533178        1.25932862       -2.88358106
 C            1.96986107        2.60004011       -2.51931414
 C            0.53672264        0.81075844       -3.33102409
 C            0.92627578        3.50259210       -2.67084182
 C            1.57964923        4.59855501       -0.59296568
 C            1.13931721        4.52989923        0.78908468
 C            0.64814938        4.44834074       -1.60427380
 C           -0.47796711        3.82494014        2.37480665
 C           -0.19400210        4.26303189        1.08997182
 C           -1.53684851        2.12400142        3.58829375
 C           -1.75839933        3.21556181        2.65359054
 C           -1.80221087       -0.26515624        3.54233526
 C           -2.36618148        1.01418465        3.50916642
 C           -2.07135341       -2.62025919        2.91814474
 C           -2.62935369       -1.37634175        3.40894481
 C           -2.34262403       -3.50298652        0.64656963
 C           -2.92659374       -3.10631882        1.85094050
 C           -2.40253838       -3.56668565       -1.76090854
 C           -3.04543140       -3.34199251       -0.55287689
 C           -1.33348900       -2.35355722       -3.46363098
 C           -0.99370983       -1.03541996       -3.73304986
 C           -2.62701289       -2.64623563       -2.86616698
 C           -2.02554861       -0.13639824       -3.94489316
 C           -0.47528087        1.73343810       -3.62248518
 C           -0.34423402        3.04211978       -3.18075040
 C           -1.76949572        1.28106880       -3.83301119
 C           -0.75254503        4.30453498       -1.25060229
 C           -1.10110162        3.99723443        0.05789925
 C           -1.39236701        3.59535479       -2.33532012
 C           -2.67121539        3.03426223        1.62323417
 C           -2.25173221        3.23624022        0.30349739
 C           -3.61560858        1.19687077        2.92122327
 C           -3.75487928        2.20649046        1.88342995
 C           -3.94845602       -1.22485165        2.81926532
 C           -4.12822636       -2.29178857        1.84644933
 C           -4.42001517        0.05024477        2.54319545
 C           -4.23211225       -2.61463872       -0.57727338
 C           -4.76169067       -2.03056497        0.64202544
 C           -3.56428614       -1.62443159       -2.72736233
 C           -3.33127115       -0.40342546       -3.35958327
 C           -4.46235711       -1.67330810       -1.66213496
 C           -2.84085236        1.86988330       -3.04523603
 C           -2.51038923        2.81353765       -2.08154808
 C           -2.92496331        2.60746473       -0.76065967
 C           -3.79101149        0.82571572       -2.73119940
 C           -4.48139801        1.60994083        0.78464647
 C           -5.01764868        0.34104016        1.24937091
 C           -5.21097531       -0.68124086        0.33302054
 C           -4.93175892       -0.43142772       -1.06953590
 C           -3.96482016        1.70620671       -0.50024010
 C           -4.34554236        0.76700653       -1.46324683




