%chk=000435.chk
%mem=8GB
%Nproc=16
#p B3LYP/6-31G* opt pop=NPA

Template file

0 1
 C            3.70272933       -3.08438209        0.85414238
 C            2.63038853       -4.02840942        0.57430783
 C            1.86320220       -4.18840799        1.79808401
 C            3.53921152       -2.63573707        2.22809231
 C            2.23800771       -3.09517205        2.67329432
 C            3.93977998       -1.35846712        2.56595093
 C            4.60939313       -0.55641931        1.56343903
 C            4.08248328       -2.17923871       -0.13622986
 C            4.45040580       -0.87687848        0.21517104
 C            3.74660667       -2.46832392       -1.45211561
 C            1.97426220       -3.96349003       -0.65368038
 C            2.63315605       -3.36659376       -1.72005457
 C            0.58831277       -4.14137913       -0.70910978
 C            0.52723537       -4.52638248        1.70840921
 C           -0.06192903       -4.68429088        0.39188168
 C           -0.42548663       -3.77336403        2.50122946
 C            1.27150683       -2.16379363        3.05616674
 C           -0.07867476       -2.50653418        2.96262944
 C            2.98811878       -0.48742450        3.23343119
 C            1.63875681       -0.82991512        3.23897163
 C            4.48497608        0.82143353        1.99379872
 C            3.37654235        0.87821801        2.93457412
 C            4.61273498        1.82439707        1.05089520
 C            4.45571698        0.14497263       -0.74507625
 C            4.71019956        1.45935587       -0.35179262
 C            3.70703888       -1.40320104       -2.43220037
 C            4.04661775       -0.11099432       -2.05767505
 C            1.85851633       -2.80418795       -2.80613878
 C            2.53573104       -1.60737155       -3.27107673
 C           -0.16408714       -3.51019310       -1.70692944
 C            0.47763131       -2.79511784       -2.72066447
 C           -1.56502590       -3.52566685       -1.65884253
 C           -1.48893896       -4.48786435        0.54411521
 C           -1.72040572       -3.96935876        1.88514511
 C           -2.22804181       -3.96190037       -0.50725860
 C           -2.70457751       -3.00840427        2.06076835
 C           -1.05500965       -1.51057421        3.00313712
 C           -2.39264523       -1.84355542        2.76416852
 C            0.67496822        0.17066374        3.12504151
 C           -0.67496822       -0.17066374        3.12504151
 C            2.39264523        1.84355542        2.76416852
 C            1.05500965        1.51057421        3.00313712
 C            3.74964602        2.98827244        1.14192304
 C            2.70457751        3.00840427        2.06076835
 C            4.16507468        2.56046656       -1.12761848
 C            3.49401694        3.46168749       -0.20775339
 C            3.59905851        0.93514073       -2.86140144
 C            3.58364116        2.29485266       -2.35281459
 C            1.78388558       -0.50190536       -3.66533648
 C            2.39992906        0.74492144       -3.66127757
 C           -0.21945594       -1.81621220       -3.41479423
 C            0.38699437       -0.58393758       -3.65720359
 C           -2.28361412       -2.86673250       -2.65645142
 C           -1.59097383       -1.94096247       -3.53527182
 C           -3.58364116       -2.29485266       -2.35281459
 C           -3.49401694       -3.46168749       -0.20775339
 C           -3.74964602       -2.98827244        1.14192304
 C           -4.16507468       -2.56046656       -1.12761848
 C           -4.61273498       -1.82439707        1.05089520
 C           -4.71019956       -1.45935587       -0.35179262
 C           -3.37654235       -0.87821801        2.93457412
 C           -4.48497608       -0.82143353        1.99379872
 C           -1.63875681        0.82991512        3.23897163
 C           -2.98811878        0.48742450        3.23343119
 C            0.07867476        2.50653418        2.96262944
 C           -1.27150683        2.16379363        3.05616674
 C            1.72040572        3.96935876        1.88514511
 C            0.42548663        3.77336403        2.50122946
 C            2.22804181        3.96190037       -0.50725860
 C            1.48893896        4.48786435        0.54411521
 C            2.28361412        2.86673250       -2.65645142
 C            1.59097383        1.94096247       -3.53527182
 C            1.56502590        3.52566685       -1.65884253
 C           -0.38699437        0.58393758       -3.65720359
 C            0.21945594        1.81621220       -3.41479423
 C           -2.39992906       -0.74492144       -3.66127757
 C           -3.59905851       -0.93514073       -2.86140144
 C           -1.78388558        0.50190536       -3.66533648
 C           -4.45571698       -0.14497263       -0.74507625
 C           -4.04661775        0.11099432       -2.05767505
 C           -4.60939313        0.55641931        1.56343903
 C           -3.93977998        1.35846712        2.56595093
 C           -4.45040580        0.87687848        0.21517104
 C           -2.23800771        3.09517205        2.67329432
 C           -3.53921152        2.63573707        2.22809231
 C           -0.52723537        4.52638248        1.70840921
 C            0.06192903        4.68429088        0.39188168
 C           -1.86320220        4.18840799        1.79808401
 C            0.16408714        3.51019310       -1.70692944
 C           -0.47763131        2.79511784       -2.72066447
 C           -0.58831277        4.14137913       -0.70910978
 C           -2.53573104        1.60737155       -3.27107673
 C           -3.70703888        1.40320104       -2.43220037
 C           -1.85851633        2.80418795       -2.80613878
 C           -4.08248328        2.17923871       -0.13622986
 C           -3.70272933        3.08438209        0.85414238
 C           -2.63038853        4.02840942        0.57430783
 C           -1.97426220        3.96349003       -0.65368038
 C           -3.74660667        2.46832392       -1.45211561
 C           -2.63315605        3.36659376       -1.72005457




