%chk=000262.chk
%mem=8GB
%Nproc=16
#p B3LYP/6-31G* opt pop=NPA

Template file

0 1
 C            4.74691671       -1.52491542       -1.12038586
 C            3.82533963       -2.55450403       -1.56757053
 C            3.38050642       -3.30217387       -0.40310262
 C            4.80409108       -1.58358133        0.33172657
 C            3.88558571       -2.61920002        0.77193883
 C            4.90675641       -0.41332972        1.06981614
 C            4.95352743        0.87255896        0.39244766
 C            4.74460609       -0.29616848       -1.76410213
 C            4.91406534        0.92554181       -0.99301679
 C            3.74473168       -0.04329858       -2.78905714
 C            2.89909336       -2.27248257       -2.56675307
 C            2.70753667       -0.94791323       -2.96438953
 C            1.87553969       -3.18558452       -2.75736186
 C            2.08359684       -3.81407923       -0.40156196
 C            1.48849246       -4.03210658       -1.63770106
 C            1.27574580       -3.63938089        0.72978459
 C            3.01358710       -2.37130838        1.81982909
 C            1.83919821       -3.11325789        1.89616247
 C            4.09622036       -0.25506467        2.26340706
 C            3.16059390       -1.22501139        2.60830980
 C            4.15339307        1.81380196        1.15990498
 C            3.71140976        1.13970370        2.36407990
 C            3.27759283        2.67172823        0.50246327
 C            4.12937599        1.96104313       -1.63627241
 C            3.45777863        1.37305615       -2.78449332
 C            3.43323246        2.89136340       -0.87025096
 C            2.18156643        1.82115248       -3.09705161
 C            1.41887920       -0.47796126       -3.25242212
 C            1.13974870        0.89435990       -3.23012580
 C            0.66045326       -2.75175479       -3.41050995
 C            0.39364358       -1.38867222       -3.50743906
 C            0.05947626       -4.24118400       -1.72167007
 C           -0.38535329       -3.65591136       -2.97452594
 C           -0.11209999       -3.84976377        0.65295826
 C           -0.72345306       -4.08292380       -0.58592798
 C           -0.89983787       -3.76791303        1.80758563
 C            1.08223808       -3.02929714        3.05187990
 C           -0.32794419       -3.34898880        3.00283986
 C            2.14216159       -0.87559399        3.49313873
 C            1.25196643       -1.86450186        3.90013044
 C            2.46286684        1.43870213        2.88722991
 C            1.81078997        0.47396001        3.65176573
 C            2.11569844        3.10200667        1.15660654
 C            1.73822047        2.51948803        2.37797107
 C            1.31434130        4.08021992        0.56248378
 C            2.50121113        3.67203774       -1.53783662
 C            1.88151751        3.12605607       -2.73498695
 C            1.47575313        4.36156786       -0.78514293
 C            0.51276422        3.58017774       -2.77396380
 C            0.29928445        4.45838015       -1.63386790
 C           -0.19352941        1.33072347       -3.24602010
 C           -0.49002199        2.69459472       -3.13124453
 C           -0.93139053       -0.95192099       -3.54977483
 C           -1.22946306        0.39127228       -3.31827912
 C           -1.69805486       -3.24091298       -3.08073350
 C           -1.96192429       -1.89004944       -3.54061952
 C           -2.09744096       -3.88775004       -0.74068015
 C           -2.60498227       -3.50215799       -1.97737355
 C           -2.28009768       -3.64968476        1.68589737
 C           -2.89604040       -3.71855141        0.37798772
 C           -2.96531935       -2.61830903        2.44973125
 C           -1.03552662       -2.36526796        3.80699504
 C           -0.05014730       -1.50160780        4.43123750
 C           -2.22209519       -1.82995341        3.31453421
 C            0.65789669        0.83396344        4.33479609
 C           -0.35298712       -0.16586616        4.62549847
 C            0.54738963        2.89982566        3.00879717
 C           -0.02784633        2.05156048        3.95141123
 C            0.12220745        4.45524211        1.16204329
 C           -0.28440358        3.82923817        2.40096507
 C           -0.96425941        4.50838618       -1.04986218
 C           -1.06404601        4.63330878        0.33649909
 C           -1.79342012        3.09354235       -2.87903428
 C           -2.04586566        3.99726398       -1.76553028
 C           -2.55911482        0.78035342       -3.10910826
 C           -2.86222410        2.12022439       -2.91559136
 C           -3.26222498       -1.51045820       -3.02568838
 C           -3.65561152       -2.49924254       -2.03067314
 C           -3.52316875       -0.17310293       -2.78207733
 C           -3.98085633       -2.74845652        0.33953459
 C           -3.94668709       -1.99836719        1.58528983
 C           -4.26778075       -2.08008378       -0.84917439
 C           -4.04776165       -0.61476807        1.54325264
 C           -2.39878147       -0.44398115        3.30080052
 C           -1.62554161        0.34264398        4.14385810
 C           -1.44707236        1.74607964        3.84106558
 C           -3.15456653        0.16085506        2.28932745
 C           -1.70714164        3.53858459        2.31363141
 C           -2.18591264        4.02458967        1.03680497
 C           -2.17213261        2.32637544        2.80954276
 C           -2.99353006        1.52839799        2.00516239
 C           -3.19960110        3.48481005       -1.04782452
 C           -3.82631350        2.48479635       -1.89162234
 C           -3.10146967        3.26980930        0.32227020
 C           -3.59968391        2.08779663        0.87410162
 C           -4.51114838        0.14398789       -1.85561998
 C           -4.79578617       -0.79228260       -0.78335570
 C           -4.72164672       -0.05260477        0.46919482
 C           -4.56967820        1.48139643       -1.29481682
 C           -4.52560130        1.34667803        0.15150366




