%chk=000145.chk
%mem=8GB
%Nproc=16
#p B3LYP/6-31G* opt pop=NPA

Template file

0 1
 C            5.15876857       -0.81014197        0.48403977
 C            4.47268588       -2.08165928        0.62958956
 C            3.81048671       -2.08730297        1.92472768
 C            4.87318467       -0.01968227        1.67123296
 C            3.89617125       -0.74695609        2.46298132
 C            4.75877009        1.35750107        1.57295155
 C            4.82588077        2.00187288        0.26782353
 C            5.19799230       -0.20120434       -0.76189316
 C            5.00223266        1.23705312       -0.87361302
 C            4.50556824       -0.82814366       -1.87443280
 C            3.81710491       -2.65531916       -0.45794703
 C            3.66756485       -1.91821423       -1.63788310
 C            2.94391557       -3.70419746       -0.19407999
 C            2.62712600       -2.80218335        2.05516469
 C            2.40721494       -3.83170629        1.15174556
 C            1.52567980       -2.20806127        2.67752853
 C            2.73162596       -0.11063890        2.87334389
 C            1.57592616       -0.86233906        3.07057982
 C            3.71602528        2.02653470        2.32981501
 C            2.65602110        1.28456135        2.85373789
 C            3.82696903        3.05582138        0.25514717
 C            3.43440705        3.26717118        1.63480287
 C            2.84885291        3.07505193       -0.74193215
 C            4.13628982        1.47548201       -2.01372816
 C            4.07187678        0.23527501       -2.76376944
 C            2.98437976        2.24978730       -1.85968005
 C            2.98489208        0.01530330       -3.58669923
 C            2.55694428       -2.12880832       -2.46538263
 C            2.30975121       -1.26764060       -3.52688719
 C            1.86254818       -3.97750269       -1.11898951
 C            1.57340257       -3.04532472       -2.09960818
 C            1.08845792       -4.41737249        1.04939045
 C            0.77888393       -4.57223619       -0.36350637
 C            0.31756599       -2.91050314        2.75769699
 C            0.08174681       -3.99845691        1.90970571
 C           -0.73181325       -2.37155949        3.49665138
 C            0.42273255       -0.21899137        3.50824193
 C           -0.68402050       -0.97026235        3.86823092
 C            1.43198604        1.91768582        3.08758130
 C            0.28651564        1.15155861        3.30370371
 C            2.23098019        3.89567103        1.88092635
 C            1.30646820        3.27357448        2.81080392
 C            1.63133799        3.71067822       -0.48753749
 C            1.43809503        4.32469621        0.74553398
 C            0.52202055        3.44100068       -1.29037851
 C            1.89496936        2.04020262       -2.70677952
 C            1.95688644        1.03574557       -3.67259787
 C            0.65864550        2.61604756       -2.41034101
 C            0.94010845       -1.05576115       -3.94966948
 C            0.73196119        0.37422391       -4.08133055
 C            0.24531827       -2.84160481       -2.48798063
 C           -0.07133219       -1.81619695       -3.38404091
 C           -0.53212850       -4.38003324       -0.77886307
 C           -0.78459725       -3.59451714       -1.90768361
 C           -1.22452302       -4.33911665        1.56896063
 C           -1.53723009       -4.56642930        0.16793291
 C           -2.10438479       -2.68578464        3.13905856
 C           -2.34616485       -3.63981166        2.16882179
 C           -2.00495049       -0.40639154        3.67030459
 C           -2.84889252       -1.44123856        3.10498216
 C           -0.99041063        1.71193043        3.14350907
 C           -2.11670281        0.88427510        3.17321351
 C           -0.00200220        3.81508460        2.51610251
 C            0.09049765        4.50755184        1.23805711
 C           -1.13506379        3.05446037        2.77341596
 C           -0.73563227        3.95446041       -0.94410888
 C           -0.97577806        4.40217591        0.35860152
 C           -1.81090105        3.76464739       -1.80806691
 C           -0.47482636        2.17911662       -3.09835036
 C           -0.47780591        0.91347651       -3.67040729
 C           -1.68946415        2.80740131       -2.88929964
 C           -1.36650198       -1.31403870       -3.41418940
 C           -1.56736871        0.06777899       -3.44704021
 C           -2.10382454       -3.34466602       -2.28430995
 C           -2.40633506       -2.15398829       -3.05977958
 C           -2.87561635       -4.06214640       -0.07773932
 C           -3.30715600       -3.35527964        1.11631398
 C           -3.17395561       -3.52644949       -1.31803209
 C           -3.63994535       -1.12873005        2.00326361
 C           -3.85275523       -2.07823671        0.99468486
 C           -3.23292497        1.21497030        2.40849426
 C           -3.97009976        0.20617021        1.78015010
 C           -2.31979290        3.46826016        2.17062025
 C           -2.23249677        4.21082356        0.92363334
 C           -3.42904771        2.54272887        2.05471418
 C           -3.15753379        3.65580638       -1.27126222
 C           -3.35683556        3.82957801        0.09026680
 C           -4.15214281        2.86778457        0.83761034
 C           -2.89839465        2.00225833       -2.92006925
 C           -2.78863778        0.61674415       -3.03848813
 C           -3.83462955        2.57440170       -1.96966279
 C           -3.63882465       -1.58473807       -2.55380854
 C           -4.03838248       -2.36249205       -1.39278502
 C           -4.40918399       -1.69148341       -0.22965058
 C           -3.79325055       -0.20442884       -2.51517777
 C           -4.82495664        0.51899330        0.73106697
 C           -4.82418571        1.85802481        0.16744409
 C           -4.69051418        1.73167712       -1.27593389
 C           -4.95032702       -0.41862139       -0.36427336
 C           -4.70119214        0.31551237       -1.59523168




