%chk=000185.chk
%mem=8GB
%Nproc=16
#p B3LYP/6-31G* opt pop=NPA

Template file

0 1
 C            4.30166778       -2.81663955        0.68962215
 C            3.23981717       -3.78780700        0.50437248
 C            2.92472506       -3.83943186       -0.91429724
 C            4.61815823       -2.26584727       -0.61939633
 C            3.58943590       -2.71632443       -1.53995019
 C            5.07315248       -0.96260855       -0.72616983
 C            5.18869550       -0.13515836        0.46655804
 C            4.26611031       -1.98486443        1.79886289
 C            4.72350071       -0.60981412        1.68402132
 C            3.09186368       -1.99939129        2.65677070
 C            2.19176475       -3.86036834        1.41735940
 C            2.01723854       -2.82548455        2.34143460
 C            1.09496946       -4.63050924        1.05202777
 C            1.62277219       -4.14357374       -1.28401735
 C            0.84690473       -4.84242305       -0.36425195
 C            0.98694647       -3.34006899       -2.23156969
 C            2.82781445       -1.77832242       -2.23140015
 C            1.49132028       -2.06543879       -2.51079097
 C            4.52164217       -0.12524595       -1.77359031
 C            3.30178822       -0.47156867       -2.35786360
 C            4.88754069        1.23277554        0.07680001
 C            4.75389099        1.24668499       -1.36834675
 C            4.01163402        2.00208882        0.84086360
 C            3.83481464        0.22119370        2.47384997
 C            2.83191298       -0.63583261        3.07878727
 C            3.43855009        1.46445311        1.99994787
 C            1.51758140       -0.18799158        3.14590234
 C            0.72745600       -2.43816465        2.71801378
 C            0.47879178       -1.11186542        3.10074573
 C           -0.18458223       -4.40478214        1.69238742
 C           -0.33067341       -3.33801569        2.56825595
 C           -0.58764866       -4.94635155       -0.56024696
 C           -1.22940189       -4.65316566        0.70969027
 C           -0.30790985       -3.66086482       -2.62019461
 C           -1.14186653       -4.44988725       -1.72553648
 C           -1.14765695       -2.63392634       -3.20657306
 C            0.62831454       -1.03872480       -2.90590577
 C           -0.70199431       -1.31592012       -3.21911385
 C            2.44792612        0.53614927       -2.80709988
 C            1.08447197        0.27662397       -2.94193658
 C            3.98940486        2.24085726       -1.94887772
 C            2.90195201        1.85003139       -2.82816634
 C            3.46036439        3.15555314        0.27242286
 C            3.48903585        3.31617150       -1.11055926
 C            2.56039878        3.91444681        1.01269048
 C            2.26196274        2.01147892        2.49671370
 C            1.24068903        1.16414963        2.93478740
 C            1.98449327        3.33523843        2.21004769
 C           -0.08598444        1.61136202        2.95625839
 C           -0.82587677       -0.66518128        3.28183238
 C           -1.12726804        0.68350082        3.08974340
 C           -1.62280290       -2.93775863        2.88359109
 C           -1.85282696       -1.59107055        3.36298837
 C           -2.38539886       -3.87568852        0.75341711
 C           -2.69978939       -3.26919929        1.96198751
 C           -2.43881512       -3.80704113       -1.66268742
 C           -2.51390503       -2.92179129       -2.80826636
 C           -2.94274364       -3.38151616       -0.43221137
 C           -3.42776677       -1.88764012       -2.78026547
 C           -1.63058183       -0.27476086       -3.26795296
 C           -2.99328866       -0.56009484       -3.17625295
 C            0.16530535        1.32532844       -3.05610639
 C           -1.20163766        1.03960275       -3.07918778
 C            1.94161016        2.93300008       -2.82768416
 C            2.33136290        3.87443458       -1.78722440
 C            0.59445902        2.65510428       -3.00177120
 C            1.50940621        4.65633957        0.32856472
 C            1.33776919        4.50707743       -1.04510233
 C            0.63007379        3.82403786        2.34305995
 C           -0.36747698        2.97224867        2.79623925
 C            0.34985911        4.68817473        1.20731442
 C           -1.67861323        3.38017246        2.60269454
 C           -2.46208972        1.08570333        2.95568895
 C           -2.75718673        2.42524807        2.74246857
 C           -3.18739870       -1.20338961        2.95528348
 C           -3.66094608       -2.18943409        1.99589979
 C           -3.45854327        0.13632230        2.72129106
 C           -3.86537128       -2.32620303       -0.40059051
 C           -4.25485245       -1.72648899       -1.59918943
 C           -4.24962601       -1.75227269        0.81669381
 C           -3.86745007        0.39138338       -2.51430015
 C           -4.71677519       -0.35207809       -1.59940206
 C           -2.12392994        2.00878349       -2.67813602
 C           -3.33498952        1.61284537       -2.12529662
 C           -0.30920514        3.64494631       -2.63997532
 C            0.05641177        4.57497990       -1.58360565
 C           -1.70832860        3.31279884       -2.47991523
 C           -0.93480500        4.69633905        0.67177928
 C           -1.98233671        4.23641177        1.46550770
 C           -1.09745436        4.73192087       -0.71068374
 C           -2.21599634        4.03042054       -1.32680915
 C           -3.78196002        2.77799232        1.77550371
 C           -3.81480797        2.26305061       -0.98328604
 C           -3.18357218        3.71279293        0.83831137
 C           -3.16912233        3.41543766       -0.52183531
 C           -4.51070350        0.44787130        1.86360942
 C           -4.88163288       -0.50946457        0.83355177
 C           -5.08205675        0.23001199       -0.40107224
 C           -4.60562688        1.77827310        1.28757753
 C           -4.72445397        1.61564367       -0.14912811




