%chk=000247.chk
%mem=8GB
%Nproc=16
#p B3LYP/6-31G* opt pop=NPA

Template file

0 1
 C            5.01594742       -0.89090733        0.24855266
 C            4.37241612       -2.18096112        0.08337068
 C            3.76814390       -2.55316019        1.35314575
 C            4.78290128       -0.45461578        1.61627575
 C            3.90549151       -1.42427325        2.24935436
 C            4.60665409        0.89242108        1.89165369
 C            4.66171106        1.86694971        0.81323690
 C            4.96461753        0.02657085       -0.79054182
 C            4.78803488        1.44115364       -0.50052184
 C            4.18373389       -0.29010109       -1.97417652
 C            3.68446661       -2.47546099       -1.08958423
 C            3.42089750       -1.45420900       -2.00813440
 C            2.86975371       -3.59816166       -1.07351576
 C            2.57785102       -3.27722530        1.33324447
 C            2.32383206       -4.03862178        0.20108869
 C            1.50929624       -2.87371927        2.14651406
 C            2.78889607       -0.99495853        2.94965743
 C            1.71766525       -1.86997738        3.09899647
 C            3.54620298        1.29306438        2.79979975
 C            2.60894693        0.36324191        3.22475692
 C            3.71786589        2.92405966        1.12608642
 C            3.08719588        2.60742072        2.39772885
 C            2.93722860        3.48886747        0.12202570
 C            3.90763766        1.99923984       -1.51176873
 C            3.60883864        0.94555976       -2.46605586
 C            2.89753027        2.88805062       -1.14074055
 C            2.35314248        0.91744453       -3.04398922
 C            2.25308242       -1.48792460       -2.78125715
 C            1.75878653       -0.30650412       -3.35617469
 C            1.83467203       -3.74532235       -2.07419486
 C            1.55897863       -2.69137669       -2.93151388
 C            0.99357696       -4.54876001       -0.03633784
 C            0.73047740       -4.47022616       -1.46567349
 C            0.20986094       -3.35464799        1.90312190
 C           -0.02611071       -4.24732855        0.85165797
 C           -0.85908854       -2.93293779        2.70698966
 C            0.69013510       -1.50270181        3.95310734
 C           -0.61304862       -2.11244362        3.80203824
 C            1.35768547        0.81724235        3.62685242
 C            0.49273519       -0.08858179        4.22096997
 C            1.75077220        2.95675411        2.57978881
 C            0.85584496        2.00698824        3.09035044
 C            1.87344641        4.28244676        0.52748045
 C            1.26601187        4.01662253        1.82434261
 C            0.80437906        4.57571469       -0.40296707
 C            1.72967836        2.94770386       -1.91268520
 C            1.56840856        2.06016739       -2.97869726
 C            0.70369620        3.83907256       -1.57664971
 C            0.43159134        2.12068496       -3.76281937
 C            0.55930402       -0.31415415       -4.07756838
 C           -0.11997524        0.88430091       -4.28474593
 C            0.34997561       -2.71139053       -3.60973467
 C           -0.17382955       -1.48859059       -4.17670874
 C           -0.57031159       -4.23235015       -1.90605063
 C           -0.76599554       -3.46036774       -3.05055621
 C           -1.32566617       -4.46530078        0.42055980
 C           -1.62058861       -4.37819395       -1.00175923
 C           -2.17944235       -3.13889030        2.29413424
 C           -2.42857601       -3.87016736        1.14158585
 C           -3.18566391       -2.28655412        2.74411887
 C           -1.59819729       -1.11711944        4.18588535
 C           -0.93008951        0.17098488        4.19215516
 C           -2.87143641       -1.20080610        3.65638026
 C           -0.52701606        2.15567692        2.89340538
 C           -1.41339417        1.20105942        3.39226299
 C           -0.16163681        4.20554195        1.68701632
 C           -0.38689152        4.81508019        0.38911799
 C           -1.02484698        3.21199319        2.13170073
 C           -1.62229456        4.65519567       -0.20839993
 C           -0.52625726        3.78429817       -2.24070128
 C           -0.66981238        2.96614055       -3.35388925
 C           -1.68304917        4.21504348       -1.59223192
 C           -1.55825480        0.91467420       -4.07007229
 C           -1.90018986        2.20633071       -3.51606613
 C           -1.60396167       -1.44549586       -3.91118578
 C           -1.95562512       -2.62856285       -3.15998793
 C           -2.18390447       -0.22727242       -3.58932705
 C           -2.81306017       -3.55886596       -1.15240353
 C           -3.36953882       -3.34146406        0.16596307
 C           -2.80883771       -2.52154842       -2.07347147
 C           -4.15732816       -1.78891376        1.78344667
 C           -4.01629648       -2.14658709        0.44521901
 C           -3.49307395        0.00198365        3.13126047
 C           -2.71681771        1.13722878        2.89464459
 C           -4.46733474       -0.41631079        2.13905706
 C           -2.31335032        3.13605164        1.60091570
 C           -2.65846975        3.94034584        0.51395508
 C           -3.15135116        2.08096187        1.96252484
 C           -2.90733591        3.44505525       -1.75393181
 C           -2.87638426        2.29270811       -2.53472802
 C           -3.59448888        3.43844684       -0.47509006
 C           -3.01579076       -0.12952071       -2.46856401
 C           -3.31241682       -1.27081006       -1.70271671
 C           -4.08794433       -1.16026682       -0.54191644
 C           -3.49564609        1.12634586       -2.07500159
 C           -4.81643194        0.47148143        1.13854052
 C           -4.29046348        1.81969528        1.19880264
 C           -4.38428877        2.35376574       -0.14462179
 C           -4.72036972        0.04135210       -0.24763982
 C           -4.42782390        1.21542793       -1.04777093




