%chk=000322.chk
%mem=8GB
%Nproc=16
#p B3LYP/6-31G* opt pop=NPA

Template file

0 1
 C            4.68336671        1.40665583        0.19751954
 C            3.82331804        2.57661067        0.19114718
 C            3.35459885        2.78266011       -1.16554936
 C            4.67806800        0.84332100       -1.14306881
 C            3.80000361        1.65744258       -1.96409900
 C            4.68336671       -0.53227097       -1.31695945
 C            4.67806800       -1.41158713       -0.15880301
 C            4.67806800        0.56826612        1.30187182
 C            4.68336671       -0.87438485        1.11943991
 C            3.80000361        0.87223834        2.41743688
 C            2.93420142        2.79875943        1.23743174
 C            2.89244111        1.91847200        2.32491667
 C            1.86525786        3.66802499        1.02329007
 C            2.06879383        3.27759994       -1.34942648
 C            1.44896360        3.93046027       -0.28668194
 C            1.29429889        2.81646368       -2.42014695
 C            2.89244111        1.05420090       -2.82390382
 C            1.77506865        1.78123936       -3.22815322
 C            3.82331804       -1.12276702       -2.32698388
 C            2.93420142       -0.32773240       -3.04251263
 C            3.80000361       -2.52968092       -0.45333788
 C            3.35459885       -2.40072540       -1.82707966
 C            2.89244111       -2.97267290        0.49898715
 C            3.82331804       -1.45384365        2.13583671
 C            3.35459885       -0.38193470        2.99262902
 C            2.93420142       -2.47102703        1.80508090
 C            2.06879383       -0.47016236        3.51319805
 C            1.77506865        1.90504302        3.15667515
 C            1.29429889        0.68767690        3.64920257
 C            1.02950116        3.96665302        2.09425635
 C            0.97048097        3.03328240        3.20309486
 C           -0.31371194        4.46367892        1.85467488
 C            0.25123017        4.59234155       -0.52096628
 C           -0.69753767        4.77807209        0.56330935
 C           -0.00829072        3.30220746       -2.59564050
 C           -0.50250860        4.26623974       -1.71855677
 C           -0.89418451        2.64590257       -3.45451341
 C            0.97048097        1.25732032       -4.22844704
 C           -0.41483434        1.67232074       -4.31964759
 C            1.86525786       -0.94781730       -3.68824786
 C            1.02950116       -0.16964731       -4.48235046
 C            2.06879383       -2.80743758       -2.16377157
 C            1.44896360       -2.21350398       -3.26053747
 C            1.77506865       -3.68628238        0.07147807
 C            1.29429889       -3.50414057       -1.22905562
 C            0.97048097       -4.29060271        1.02535218
 C            1.86525786       -2.72020769        2.66495779
 C            1.44896360       -1.71695629        3.54721941
 C            1.02950116       -3.79700571        2.38809411
 C            0.25123017       -1.84500074        4.23756758
 C           -0.00829072        0.59678688        4.15761580
 C           -0.50250860       -0.64480605        4.55395038
 C           -0.41483434        2.90476418        3.60809604
 C           -1.22055235        3.70270590        2.69700250
 C           -0.89418451        1.66874509        4.01867555
 C           -2.38142476        3.15068625        2.15689728
 C           -1.98968209        4.32239484        0.08951439
 C           -1.91029884        4.24822828       -1.35755383
 C           -2.66619051        3.33186678        0.79987398
 C           -2.25869959        2.65593614       -3.17624299
 C           -2.76129421        3.39090307       -2.03040916
 C           -3.00571400        1.41185255       -3.26645857
 C           -1.22055235        0.48431973       -4.55513863
 C           -0.31371194       -0.62564389       -4.79299678
 C           -2.38142476        0.29258471       -3.80702297
 C            0.25123017       -2.74734080       -3.71660130
 C           -0.69753767       -1.90119583       -4.41958648
 C           -0.00829072       -3.89899434       -1.56197530
 C           -0.50250860       -3.62143369       -2.83539361
 C           -0.41483434       -4.57708492        0.71155155
 C           -0.89418451       -4.31464766       -0.56416214
 C           -0.31371194       -3.83803502        2.93832189
 C           -0.69753767       -2.87687625        3.85627713
 C           -1.22055235       -4.18702563        1.85813612
 C           -1.91029884       -0.94843804        4.35785053
 C           -1.98968209       -2.23871916        3.69854654
 C           -2.25869959        1.42273905        3.88822966
 C           -3.00571400        2.12290982        2.85592946
 C           -2.76129421        0.06293437        3.95181278
 C           -3.77222581        1.13301138        2.12383014
 C           -3.59838555       -0.14817711        2.78427508
 C           -3.42419404        2.37795521        0.11080971
 C           -3.59838555        2.48534150       -1.26381240
 C           -3.77222581        1.27278517       -2.04313170
 C           -3.77679137        1.18646747        0.73797314
 C           -3.77679137        0.04586975       -1.39649754
 C           -3.81921586       -0.00000000        0.00000000
 C           -2.66619051       -0.97322220       -3.28541826
 C           -1.98968209       -2.08367568       -3.78806094
 C           -1.91029884       -3.29979024       -3.00029670
 C           -3.42419404       -1.09301358       -2.11477448
 C           -2.25869959       -4.07867519       -0.71198667
 C           -2.76129421       -3.45383744       -1.92140362
 C           -3.59838555       -2.33716439       -1.52046268
 C           -2.38142476       -3.44327096        1.65012569
 C           -2.66619051       -2.35864457        2.48554428
 C           -3.42419404       -1.28494163        2.00396476
 C           -3.77679137       -1.23233722        0.65852440
 C           -3.00571400       -3.53476237        0.41052911
 C           -3.77222581       -2.40579654       -0.08069843




