%chk=000057.chk
%mem=8GB
%Nproc=16
#p B3LYP/6-31G* opt pop=NPA

Template file

0 1
 C            5.01441505       -1.01803093        1.44388482
 C            4.76321856        0.29896852        2.00643825
 C            3.61802343        0.19303704        2.89307145
 C            4.15960651       -1.96569346        2.14098856
 C            3.26300775       -1.21023280        2.99797897
 C            3.67405046       -3.07984700        1.47368562
 C            3.92066432       -3.23635299        0.04817895
 C            5.23165567       -1.15634377        0.07721379
 C            4.61490429       -2.25643373       -0.64550025
 C            5.18892391        0.01446758       -0.78387885
 C            4.89176522        1.42545388        1.20970464
 C            5.11122685        1.27899549       -0.22346041
 C            3.95936410        2.52383791        1.39302156
 C            2.59713905        1.13831524        2.82779175
 C            2.77070384        2.31463378        2.09299086
 C            1.32063291        0.77951231        3.24862738
 C            1.91657806       -1.55066300        3.06749657
 C            0.99663921       -0.56963621        3.42215937
 C            2.31727923       -3.52623828        1.73825873
 C            1.45389872       -2.73129039        2.48441942
 C            2.72541035       -3.80994745       -0.54477349
 C            1.81591849       -4.15035182        0.53086164
 C            2.19464070       -3.26955400       -1.71185180
 C            4.04623177       -1.72117384       -1.87007710
 C            4.34144723       -0.30029099       -1.92039387
 C            2.79896755       -2.15265184       -2.29988947
 C            3.33783851        0.58991277       -2.30505202
 C            4.30668803        2.28911695       -0.88627405
 C            3.91988504        3.24295138        0.13557095
 C            3.37075253        1.91095663       -1.85136334
 C            2.83995876        4.06504306       -0.11681904
 C            1.66968999        3.13983265        1.83270565
 C            1.77684173        4.13870374        0.87040748
 C            0.30955161        1.73154637        3.21712371
 C            0.40920156        2.79152871        2.32199535
 C           -0.91374598        1.42943786        3.79280967
 C           -0.32723138       -0.93655918        3.64175066
 C           -1.22966042        0.03815232        4.05439914
 C            0.07913876       -2.92226732        2.34927409
 C           -0.78845728       -2.13914165        3.10655075
 C            0.45420862       -4.10266254        0.27421720
 C           -0.41644602       -3.67606820        1.27784518
 C            0.87345174       -3.57740322       -2.04128410
 C            0.02381640       -4.07940860       -1.04897856
 C            0.33487542       -3.02441801       -3.19965207
 C            2.03191354       -1.28776885       -3.07350433
 C            2.18447967        0.09239362       -2.91492485
 C            0.90347056       -1.79007618       -3.70195422
 C            1.12122590        0.95256914       -3.19875000
 C            2.30270765        2.76711879       -2.12661033
 C            2.18763722        3.95657586       -1.40506096
 C            1.21593833        2.30670776       -2.87350838
 C            0.58359413        4.57860129        0.17226782
 C            0.88854662        4.57860808       -1.25082451
 C           -0.74963942        3.33369451        1.74643714
 C           -0.65941211        4.12368353        0.59557618
 C           -2.10982396        2.07334554        3.28951103
 C           -2.00929952        2.98278482        2.24298246
 C           -2.65265353       -0.14715309        3.83519672
 C           -3.17532601        1.08159350        3.26623686
 C           -2.14939133       -2.41473955        3.07459057
 C           -3.10853030       -1.36163150        3.35691194
 C           -1.79537596       -3.77935825        1.07007220
 C           -2.67523106       -3.21651932        1.98724950
 C           -1.33392197       -4.22999566       -1.30214323
 C           -2.27163316       -4.08950750       -0.20007032
 C           -1.10488818       -2.95327655       -3.37396540
 C           -1.92509879       -3.60863426       -2.47393861
 C           -0.18937862       -0.89355723       -4.01701288
 C           -0.09544215        0.43794348       -3.65341334
 C           -1.43617634       -1.59530941       -3.76823259
 C           -1.26766740        1.14338348       -3.41934854
 C            0.09981102        3.12730210       -3.04443243
 C           -0.11216527        4.24799642       -2.14498732
 C           -1.19519164        2.51972421       -3.30089030
 C           -1.73161383        4.17375802       -0.29570955
 C           -1.47871187        4.16724466       -1.66459735
 C           -2.18528746        3.21398187       -2.50271446
 C           -3.13740965        3.20993114        1.46265261
 C           -2.98631608        3.76532923        0.13208969
 C           -4.03739531        1.03841785        2.17286665
 C           -4.17886505        2.19343113        1.40723675
 C           -4.10789531       -1.37809038        2.30465491
 C           -3.89229233       -2.57651902        1.50729215
 C           -4.47740217       -0.19386971        1.67325925
 C           -3.45377824       -3.40678617       -0.70269031
 C           -3.16577431       -2.97819781       -2.06134474
 C           -4.16514221       -2.55656751        0.14063052
 C           -2.47830618       -0.92622125       -3.12740382
 C           -2.40287714        0.46361979       -2.97180666
 C           -3.43596055       -1.66270823       -2.42491303
 C           -3.23862070        2.49651841       -1.95102874
 C           -3.80562648        2.97463732       -0.77138477
 C           -4.64683443        2.10833553        0.03472111
 C           -3.42013386        1.15801516       -2.30767068
 C           -5.04898593       -0.27214529        0.40666420
 C           -4.81423368       -1.45237308       -0.40999621
 C           -4.44526620       -0.99861492       -1.74393008
 C           -5.02734451        0.88046166       -0.47444145
 C           -4.47767526        0.45016982       -1.74806960




