%chk=000391.chk
%mem=8GB
%Nproc=16
#p B3LYP/6-31G* opt pop=NPA

Template file

0 1
 C            4.71984298       -0.82227465        1.37209730
 C            4.35999405       -2.18476869        1.00888146
 C            3.39480627       -2.66142334        1.99081749
 C            4.05913663       -0.51547430        2.62843122
 C            3.08393906       -1.56060045        2.87935296
 C            3.71847842        0.79367102        2.90561524
 C            4.03922259        1.82927463        1.93920476
 C            4.81477211        0.15012112        0.38055567
 C            4.51301936        1.48464815        0.67516435
 C            4.94424353       -0.25961587       -0.94323707
 C            4.20355116       -2.52933717       -0.33401380
 C            4.53187333       -1.60205484       -1.32028411
 C            3.34986566       -3.57849763       -0.66579785
 C            2.37032990       -3.49690310        1.57800688
 C            2.51140483       -4.16319585        0.36515514
 C            1.09788396       -3.33838579        2.12675436
 C            1.75048209       -1.22622414        3.10551457
 C            0.75049681       -2.13391905        2.75210125
 C            2.39660737        1.07871455        3.43209826
 C            1.41220369        0.08815403        3.43089101
 C            3.03432353        2.87459188        2.06180115
 C            2.04047881        2.42160686        3.01230652
 C            2.62454191        3.55983005        0.92561332
 C            4.38313686        2.41339108       -0.35535294
 C            3.43322536        3.50762996       -0.20873211
 C            4.54936057        0.63046725       -2.01885290
 C            4.31834557        1.96277041       -1.73564603
 C            3.68161320       -1.48693084       -2.49736930
 C            3.58823539       -0.08301181       -2.84045866
 C            2.54343390       -3.48004757       -1.87330820
 C            2.55313056       -2.29000801       -2.59170563
 C            1.34125282       -4.72262488       -0.28874238
 C            1.28313234       -4.15928936       -1.62606105
 C            0.10288720       -4.22898902        1.75002452
 C            0.16831503       -4.84050192        0.43478934
 C           -1.28132062       -3.90043651        2.00606148
 C           -0.59499821       -1.79720654        2.94768251
 C           -1.59606642       -2.74659912        2.70975008
 C            0.07221954        0.47668462        3.43404258
 C           -0.93421469       -0.48249767        3.29451940
 C            0.70582079        2.69566604        2.77928709
 C           -0.23594230        1.83279057        3.31652218
 C            1.29539604        3.98083010        0.81242038
 C            0.33433584        3.53790362        1.72889554
 C            0.88089274        4.58915623       -0.36556178
 C            2.85936196        3.76306962       -1.51920212
 C            3.17574599        2.61545871       -2.34636822
 C            1.58870019        4.29965756       -1.59791571
 C            2.33700674        0.47531956       -3.07362081
 C            2.13884063        1.84215156       -2.86922522
 C            1.33999156       -1.73368369       -3.00777040
 C            1.23881243       -0.35918876       -3.25947886
 C            0.10373343       -3.57757453       -2.07711882
 C            0.18358650       -2.51466824       -2.97345723
 C           -1.09179337       -4.55986594       -0.22762349
 C           -2.04238978       -4.21031643        0.80430770
 C           -1.10008462       -3.83787158       -1.41338526
 C           -3.12555159       -3.40152244        0.48502693
 C           -2.92422180       -2.34632867        2.68288192
 C           -3.73412440       -2.71608540        1.53333506
 C           -2.27613006       -0.09770395        3.39856501
 C           -3.27541650       -0.99640312        3.05829985
 C           -1.55291297        2.24541450        3.34109260
 C           -2.60409791        1.25287709        3.39422675
 C           -1.02822563        3.79415518        1.51154822
 C           -1.96005999        3.29372156        2.42340758
 C           -0.52912079        4.61807180       -0.69135203
 C           -1.46648835        4.28741661        0.27740934
 C            0.63041233        3.67665223       -2.49277872
 C            0.84717885        2.37362875       -2.92228228
 C           -0.68407355        4.05326324       -2.02479954
 C           -0.00548086        0.20984233       -3.51253189
 C           -0.24295523        1.52801890       -3.13167150
 C           -0.98416095       -2.02468460       -3.53991959
 C           -1.06864021       -0.61051979       -3.85290460
 C           -2.25075615       -3.13489067       -1.76809955
 C           -3.26441006       -2.92138532       -0.82272805
 C           -2.25331087       -2.42582985       -2.96603427
 C           -4.31889438       -2.05880993       -1.12172743
 C           -4.65398301       -1.62678215        1.26032027
 C           -4.35527268       -0.55156954        2.18881986
 C           -4.96873987       -1.32252575       -0.05030684
 C           -3.69185964        1.70890766        2.54369541
 C           -3.31556780        2.99791130        1.99210011
 C           -4.37186597        0.77530622        1.76329647
 C           -2.75093271        3.98548367       -0.16946111
 C           -3.69724741        3.31743020        0.70471025
 C           -1.76462322        3.21542685       -2.26464479
 C           -1.54383752        1.94343339       -2.80295324
 C           -2.90556733        3.43445155       -1.50570005
 C           -2.41947788       -0.16789013       -3.56927305
 C           -3.18655488       -1.33314144       -3.16322141
 C           -4.22870916       -1.17301161       -2.26947120
 C           -2.61284297        1.04524499       -2.91612679
 C           -5.05374334        0.06925177       -0.45284024
 C           -4.72847812        1.08664564        0.44378053
 C           -4.42226312        2.33907390       -0.08614145
 C           -3.93852829        2.42253918       -1.45598691
 C           -4.57707076        0.16377117       -1.82354377
 C           -3.78659452        1.25157281       -2.18439161




