%chk=000009.chk
%mem=8GB
%Nproc=16
#p B3LYP/6-31G* opt pop=NPA

Template file

0 1
 C            5.53070602        0.40105313        0.03772575
 C            5.42554487       -1.01949717       -0.25552462
 C            4.92602974       -1.15407097       -1.61544256
 C            5.09171892        1.12987958       -1.14282683
 C            4.53654140        0.16635555       -2.07553900
 C            4.46797623        2.35908122       -1.00323338
 C            4.21692817        2.90055594        0.32405415
 C            5.20452166        0.87309575        1.30470273
 C            4.51854629        2.14684341        1.44797561
 C            4.66386916       -0.03710589        2.30272324
 C            4.99572777       -1.90078327        0.73089179
 C            4.56508735       -1.39100786        2.02358209
 C            4.12692473       -3.01299075        0.37992872
 C            4.13460990       -2.23892793       -1.95604409
 C            3.76037950       -3.21375815       -0.94165441
 C            2.97577186       -2.02233036       -2.80255404
 C            3.25918894        0.36772000       -2.60198893
 C            2.50473600       -0.72832709       -3.02684497
 C            3.30723777        2.65425260       -1.82340975
 C            2.67314840        1.63382561       -2.53388422
 C            2.95918214        3.62545020        0.27399645
 C            2.49375322        3.61091191       -1.09625247
 C            2.02176956        3.47329384        1.28718917
 C            3.51949443        2.00158875        2.49156624
 C            3.55758219        0.63134768        2.96568879
 C            2.28011418        2.61269774        2.35982179
 C            2.35272738       -0.04107608        3.17065585
 C            3.36051682       -2.10524975        2.40586704
 C            3.12164811       -3.14214815        1.41985251
 C            2.26713174       -1.41303682        2.91981518
 C            1.80536104       -3.44275117        1.08573648
 C            2.41306589       -3.66655917       -1.24134981
 C            2.02129357       -3.07196229       -2.50255677
 C            1.46237228       -3.76026865       -0.22962158
 C            0.67937562       -2.81401714       -2.71951876
 C            1.16535797       -0.55743378       -3.37973206
 C            0.33587096       -1.67849735       -3.43910676
 C            1.33329930        1.80066981       -2.88715891
 C            0.60787572        0.72315704       -3.40011714
 C            1.12918901        3.61758996       -1.33472899
 C            0.66276346        2.94520655       -2.45479210
 C            0.70462598        3.85694541        1.03291446
 C            0.24115777        3.88347683       -0.28765261
 C           -0.20552506        3.78460672        2.07700236
 C            1.20943186        2.08044834        3.07009098
 C            1.17873382        0.70615971        3.32400800
 C            0.03970986        2.81979522        3.13051781
 C           -0.04555569        0.04579594        3.48015869
 C            1.01258683       -2.00989039        2.85371803
 C            0.79650580       -3.07048131        1.96815424
 C           -0.07616140       -1.34619071        3.40609172
 C           -0.50266263       -3.50285741        1.72248498
 C            0.11280603       -3.77924725       -0.58319521
 C           -0.26949897       -3.38219504       -1.87093022
 C           -0.84602049       -3.87623999        0.42253855
 C           -1.62419801       -3.24006571       -2.18762605
 C           -0.98009146       -1.53740507       -3.84077163
 C           -1.99558419       -2.35465959       -3.19853632
 C           -0.72293766        0.90167911       -3.79517802
 C           -1.52463417       -0.20960660       -4.03086948
 C           -0.64510416        3.16186342       -2.84374533
 C           -1.35182535        2.11903007       -3.55884523
 C           -1.13398882        3.91239417       -0.56004713
 C           -1.55896309        3.74594740       -1.87878234
 C           -1.62512606        3.78535601        1.79532429
 C           -2.06721167        3.85810184        0.48138571
 C           -1.21045885        2.15210502        3.42409257
 C           -1.24275002        0.76993692        3.48668621
 C           -2.26097643        2.84236507        2.70336759
 C           -2.45415562        0.11706276        3.27377423
 C           -1.28973703       -2.01690758        3.49088586
 C           -1.49212459       -3.17746121        2.64474147
 C           -2.52094145       -1.25230304        3.49437595
 C           -2.89170114       -3.21539420        2.26095162
 C           -3.54041540       -2.04578875        2.83210555
 C           -2.17939752       -4.03024445        0.06398568
 C           -2.59031815       -3.64183056       -1.27104800
 C           -3.23254964       -3.64464796        0.98753632
 C           -3.81309450       -2.86318393       -1.14913610
 C           -4.25528234       -2.93828033        0.23191381
 C           -3.18409174       -1.53442209       -3.02318670
 C           -2.89444362       -0.21224691       -3.53862150
 C           -3.93001035       -1.67120466       -1.86115394
 C           -2.73144704        2.12285296       -3.09804919
 C           -2.88197766        3.21813438       -2.15569653
 C           -3.36982634        0.90583097       -2.86826364
 C           -3.38539326        3.48792166        0.22025988
 C           -3.78614981        3.09322763       -1.11906117
 C           -3.36469090        2.12262362        2.25961911
 C           -3.50482822        0.78057141        2.62705920
 C           -4.06787815        2.61186560        1.16004160
 C           -4.54617138       -1.39931414        2.13051258
 C           -4.90455789       -1.84915366        0.79292597
 C           -4.58537185        0.05266944        2.13032218
 C           -4.45715174       -0.53519484       -1.23908013
 C           -4.17536136        0.74456071       -1.73698358
 C           -4.55648455        1.86839648       -1.00393882
 C           -4.92770421        1.72634864        0.39181203
 C           -5.12601641       -0.66813676       -0.02192745
 C           -5.20194925        0.46370417        0.88307563




