%chk=000300.chk
%mem=8GB
%Nproc=16
#p B3LYP/6-31G* opt pop=NPA

Template file

0 1
 C            4.78804928       -2.00441794       -0.41297468
 C            3.95151345       -2.87048123        0.39630033
 C            3.27115715       -3.75862824       -0.52494494
 C            4.29943702       -2.09309326       -1.78264246
 C            3.21812366       -3.06281968       -1.79658324
 C            4.17972811       -0.94610566       -2.54890731
 C            4.62961118        0.33231489       -2.01894399
 C            5.17146804       -0.77936510        0.10761654
 C            5.13925080        0.40883844       -0.73217080
 C            4.67811710       -0.39790937        1.41788826
 C            3.24624559       -2.33692519        1.47724488
 C            3.58822132       -1.07587225        1.96715427
 C            2.05070875       -2.93868014        1.87458204
 C            2.13497370       -4.40602072       -0.08704949
 C            1.65284493       -4.11673962        1.25063083
 C            0.96950850       -4.40536159       -0.94916014
 C            1.97532729       -2.71645416       -2.33285143
 C            0.83784739       -3.41296681       -1.91635176
 C            2.94839421       -0.71588395       -3.28246068
 C            1.83980807       -1.53876390       -3.07154137
 C            3.70307217        1.35206098       -2.47426744
 C            2.75105498        0.71940009       -3.36503501
 C            3.24427097        2.32466413       -1.59420206
 C            4.76879715        1.53251543        0.11157585
 C            4.72954341        1.04986009        1.48019292
 C            3.80077655        2.44128163       -0.31421006
 C            3.91981121        1.70342447        2.38989350
 C            2.71467150       -0.40249929        2.82287469
 C            2.97241246        0.92538665        3.16798863
 C            1.11834165       -2.21015191        2.61554353
 C            1.45881003       -0.94503147        3.10442063
 C           -0.15365134       -2.74417835        2.86690721
 C            0.25633848       -4.49629900        1.27578024
 C           -0.16101698       -4.71741648       -0.10207436
 C           -0.61529714       -3.84084335        2.13345975
 C           -1.42627841       -4.29801203       -0.48226900
 C           -0.43397936       -2.91595675       -2.20780211
 C           -1.56187038       -3.50896597       -1.62623716
 C            0.56791009       -1.03360291       -3.34653743
 C           -0.56707155       -1.76868339       -2.99621948
 C            1.45146159        1.19590379       -3.40733802
 C            0.44029007        0.30268200       -3.72895913
 C            2.05503185        2.98453741       -1.89511554
 C            1.12170974        2.37986940       -2.74279236
 C            1.67532479        4.06512132       -1.11423703
 C            3.19548729        3.27249371        0.63250660
 C            3.24513024        2.92335192        1.98117608
 C            2.22556965        4.18055009        0.22258874
 C            1.85971725        1.79828935        3.49814499
 C            2.04378063        3.04963179        2.79028951
 C            0.48352769       -0.13260336        3.68558986
 C            0.59387535        1.24659944        3.57672785
 C           -1.05077949       -2.03273863        3.65752101
 C           -0.74690010       -0.66486368        4.02214502
 C           -2.47195949       -2.09857998        3.36656602
 C           -1.97834527       -3.96973059        1.87515834
 C           -2.40033379       -4.23092109        0.50976728
 C           -2.92681216       -3.04064386        2.46342011
 C           -3.62907558       -3.49494521        0.27252336
 C           -3.85262815       -2.63281897        1.42017325
 C           -2.83015235       -3.08334865       -2.00014824
 C           -3.87710465       -2.99777970       -0.99523030
 C           -1.83430557       -1.31208467       -3.37351742
 C           -2.96828588       -1.94086061       -2.88030920
 C           -0.80849388        0.81708008       -4.02356304
 C           -1.97622064       -0.02428404       -3.87366949
 C           -0.20729893        2.81876675       -2.75166570
 C           -1.13737180        2.14253427       -3.53255968
 C            0.27557683        4.44673593       -1.05822041
 C           -0.65699119        3.69691461       -1.76694063
 C            1.12406102        4.48377246        1.12121392
 C            0.93779360        3.69477345        2.25373364
 C           -0.01572207        4.85675285        0.30440557
 C           -0.51777072        1.99251624        3.17968880
 C           -0.34501183        3.24444530        2.57657887
 C           -1.93195102        0.14056046        3.78644115
 C           -2.96463694       -0.73668983        3.27120027
 C           -1.78672362        1.40448380        3.22370015
 C           -4.12122516       -1.28022629        1.21608020
 C           -3.68589788       -0.33308827        2.15217862
 C           -4.50715867       -1.69688615       -1.12855186
 C           -4.07202553       -1.12643966       -2.39141432
 C           -4.63178906       -0.86638275       -0.01872119
 C           -3.06698688        0.80823319       -3.39102274
 C           -2.52934287        2.13556528       -3.12752186
 C           -4.01206784        0.25882989       -2.52750278
 C           -1.98452899        3.63817446       -1.32529437
 C           -2.90463676        2.80864807       -1.97277282
 C           -1.28958873        4.65565194        0.80314663
 C           -1.44726531        3.90228445        2.03634670
 C           -2.33082442        4.21369528       -0.10388245
 C           -2.80647081        1.90249325        2.41498884
 C           -3.73375369        1.02477704        1.84246927
 C           -2.72483910        3.21478316        1.96603922
 C           -3.35241455        3.58583780        0.70909288
 C           -4.89192421        0.47982089       -0.23741451
 C           -4.57778694        1.05977441       -1.53654836
 C           -4.05669920        2.39841670       -1.30634815
 C           -4.52171405        1.44411793        0.77835755
 C           -4.22150282        2.69482874        0.10668357




