%chk=000418.chk
%mem=8GB
%Nproc=16
#p B3LYP/6-31G* opt pop=NPA

Template file

0 1
 C            3.52972022       -3.44189309        0.36808010
 C            2.60037936       -3.89260066        1.39242489
 C            1.59957124       -4.72103713        0.74349121
 C            3.01608225       -3.88995470       -0.91602012
 C            1.70909787       -4.47883410       -0.68298357
 C            3.20258008       -3.09267999       -2.02810643
 C            4.01122905       -1.89630494       -1.90152605
 C            4.10361875       -2.17748741        0.49446150
 C            4.27150028       -1.36968935       -0.63569366
 C            4.11988676       -1.60098289        1.75751334
 C            2.21796597       -3.00139748        2.39202034
 C            3.09255423       -1.97562775        2.71792291
 C            0.86464940       -2.87027903        2.71022697
 C            0.33679729       -4.80095926        1.30087043
 C            0.00863751       -3.92226434        2.41114776
 C           -0.80743429       -4.78567160        0.41286028
 C            0.59787899       -4.00564883       -1.38238249
 C           -0.67967441       -4.21978815       -0.85668084
 C            2.05210165       -2.75214453       -2.84762377
 C            0.77214620       -3.07153853       -2.40434622
 C            3.61065718       -1.00957336       -2.97665478
 C            2.29062447       -1.43414164       -3.40818484
 C            3.86929417        0.34118023       -2.84984433
 C            4.51592456        0.00451617       -0.50074274
 C            4.51181350        0.81357633       -1.63799254
 C            4.35664219       -0.18089754        1.89586325
 C            4.58420038        0.59444157        0.76651572
 C            2.56120775       -0.75577043        3.28953932
 C            3.45879070        0.32129421        2.92514764
 C            0.33473731       -1.60669588        2.99884107
 C            1.19197858       -0.53625850        3.25607269
 C           -1.04567940       -1.38600518        2.96116139
 C           -1.42342874       -3.69347267        2.37073499
 C           -1.94702907       -4.43460676        1.23524810
 C           -1.92531043       -2.42507344        2.63347629
 C           -3.08805339       -3.96768904        0.60951398
 C           -1.78649460       -3.59600045       -1.44036404
 C           -3.03027982       -3.69470215       -0.81446093
 C           -0.29487014       -2.25924597       -2.77325145
 C           -1.59008537       -2.64997655       -2.44829143
 C            1.24458565       -0.51737681       -3.43382361
 C           -0.05835249       -0.97481456       -3.27409411
 C            2.82020116        1.29161079       -3.17542748
 C            1.50613189        0.84976867       -3.32425974
 C            4.19278745        2.22309915       -1.51758780
 C            3.07359319        2.49432909       -2.40359126
 C            4.45902438        1.97670458        0.89931675
 C            4.21513571        2.80874206       -0.26662589
 C            2.95554950        1.60773395        2.79830579
 C            3.65488689        2.50176562        1.99116937
 C            0.71211656        0.76965731        3.16802289
 C            1.60696787        1.84311680        3.07329974
 C           -1.53879641       -0.09804025        3.17902795
 C           -0.66606464        0.99142891        3.14556866
 C           -2.90906379        0.13071477        3.10592458
 C           -3.23293962       -2.13280953        2.24188945
 C           -3.82216770       -2.87434585        1.22046794
 C           -3.76866684       -0.88909203        2.53956962
 C           -4.06967413       -2.72281386       -1.10601024
 C           -4.52998555       -2.17504731        0.15928970
 C           -2.66020896       -1.89501442       -2.92025683
 C           -3.91413508       -1.87886359       -2.18825509
 C           -1.10640836       -0.06879082       -3.37669713
 C           -2.40699058       -0.54796897       -3.39821234
 C            0.45598832        1.73409136       -3.05528270
 C           -0.86585171        1.27893658       -3.11763295
 C            1.98526438        3.22219731       -1.94113234
 C            0.74196931        2.99128093       -2.51832694
 C            3.18408918        3.77074448        0.08385886
 C            3.00834838        3.71557734        1.52319926
 C            2.06424109        3.92140740       -0.73198786
 C            1.11519150        3.13757677        2.95115941
 C            1.78051748        4.06803850        2.05620829
 C           -1.17136303        2.26874300        2.89190822
 C           -0.31197416        3.34993001        2.81987975
 C           -3.38393318        1.41997274        2.63648525
 C           -2.44677751        2.40517740        2.35833700
 C           -4.63252537       -0.24632374        1.56180578
 C           -4.75209814       -0.80580390        0.29068915
 C           -4.48641167        1.18750420        1.72055168
 C           -4.34201085       -0.49747027       -2.07482282
 C           -3.48355441        0.30304710       -2.93332419
 C           -4.73874501        0.01804320       -0.84196072
 C           -1.92698621        2.13261708       -2.79176536
 C           -3.20454695        1.61270656       -2.56825143
 C           -0.28760516        3.87048061       -2.23413717
 C           -1.66080387        3.44584765       -2.42065781
 C            0.91628214        4.52249282       -0.20602551
 C            0.76532281        4.62075653        1.17616635
 C           -0.52839007        4.33042518        1.77282130
 C           -0.21618053        4.63920203       -1.00564455
 C           -2.66570192        3.32110799        1.32324390
 C           -2.45539668        4.06347947       -1.37372391
 C           -1.64025108        4.19468323        0.94768325
 C           -1.53005154        4.58931175       -0.38469827
 C           -4.62852426        2.00597477        0.61635889
 C           -4.77894529        1.40354385       -0.69742060
 C           -4.04591334        2.22915422       -1.64473143
 C           -3.76229049        3.16406106        0.47760157
 C           -3.60183648        3.41967591       -0.94142619




