%chk=000046.chk
%mem=8GB
%Nproc=16
#p B3LYP/6-31G* opt pop=NPA

Template file

0 1
 C           -5.39893302        0.09622912       -0.11148349
 C           -5.08194335       -0.70147346        1.06121178
 C           -4.32335683        0.13549413        1.97424983
 C           -5.04922552        1.47511191        0.18795006
 C           -4.36453886        1.49579061        1.47072993
 C           -4.60331075        2.30919171       -0.82689518
 C           -4.30597880        1.75924038       -2.14094819
 C           -5.16261868       -0.41769195       -1.38229793
 C           -4.54135456        0.41725140       -2.39788841
 C           -4.63109344       -1.76295524       -1.53158840
 C           -4.71681761       -2.03027186        0.91273916
 C           -4.49258099       -2.57723647       -0.41922930
 C           -3.68508896       -2.57250481        1.77788916
 C           -3.13991745       -0.34281348        2.52814446
 C           -2.84186920       -1.70730005        2.47642418
 C           -2.15185342        0.56144333        2.90524956
 C           -3.25016402        2.31099164        1.64149309
 C           -2.23658249        1.90300134        2.51297200
 C           -3.58858958        3.30240924       -0.52688431
 C           -3.01240984        3.35091046        0.73870076
 C           -3.06674727        2.35998811       -2.60406651
 C           -2.72512791        3.43041231       -1.68982964
 C           -2.04884126        1.55737630       -3.10197922
 C           -3.50869178       -0.36878915       -3.05021330
 C           -3.55386211       -1.71229143       -2.50448692
 C           -2.26646488        0.19647964       -3.31600453
 C           -2.35261279       -2.37029185       -2.25028494
 C           -3.34352598       -3.46166437       -0.33563842
 C           -3.11036346       -3.70271185        1.07484079
 C           -2.25013541       -3.26351861       -1.18062335
 C           -1.86326678       -4.14854283        1.46432000
 C           -1.57449260       -2.15711219        2.86205865
 C           -1.19323820       -3.45562383        2.54876956
 C           -0.99054017        0.08061169        3.49689662
 C           -0.60808514       -1.23885320        3.27565616
 C           -0.08997756        0.97545580        4.04591286
 C           -1.21007517        2.79204761        2.83708824
 C           -0.17115677        2.37145827        3.66086052
 C           -1.86644154        4.12108703        0.88465744
 C           -0.98538975        3.88626206        2.01120775
 C           -1.38687256        3.75480187       -1.49080250
 C           -1.03629468        4.35940190       -0.28590783
 C           -0.74097086        2.03444277       -3.07729828
 C           -0.39974162        3.09869183       -2.23248567
 C            0.26687715        1.26733292       -3.66033790
 C           -1.16644698       -0.64349554       -3.45038597
 C           -1.19323438       -1.91583262       -2.87094110
 C            0.04936197       -0.09866930       -3.85140075
 C           -0.00140276       -2.59647087       -2.65252841
 C           -0.99165993       -3.73600914       -0.78881009
 C           -0.85969988       -4.37015110        0.43997214
 C            0.15353303       -3.32185865       -1.47410122
 C            0.21318465       -3.76623811        2.42846249
 C            0.42106061       -4.34576985        1.10870132
 C            0.75178487       -1.59095425        3.30196306
 C            1.15847024       -2.86993794        2.90694543
 C            1.31094152        0.60785566        4.11944580
 C            1.71602825       -0.62365003        3.61412526
 C            1.17854617        2.82125114        3.36518109
 C            2.09564595        1.79575566        3.82713361
 C            0.37296555        4.17853239        1.58094183
 C            0.35180005        4.35434684        0.14292742
 C            1.42089197        3.47877927        2.16145722
 C            0.94248193        3.32925046       -1.92832082
 C            1.29202992        3.69645296       -0.63375539
 C            1.55532957        1.78823443       -3.71358667
 C            1.92236633        2.82255602       -2.76651616
 C            2.69581042        0.90405192       -3.87351439
 C            1.12040938       -0.96000316       -4.06606251
 C            1.11263602       -2.24973992       -3.40127457
 C            2.48031822       -0.45458290       -4.05006452
 C            2.43141307       -2.47348354       -2.84600180
 C            3.30307864       -1.42025588       -3.33931472
 C            1.42239859       -3.43387019       -0.87937255
 C            1.55723585       -3.97636694        0.40318704
 C            2.54581306       -2.90469694       -1.52847117
 C            2.46373835       -3.05540830        2.47171457
 C            2.67293821       -3.64309224        1.15841421
 C            3.04163691       -0.79272817        3.20347266
 C            3.43742013       -1.99958772        2.64975696
 C            3.31442214        1.65304427        3.18746345
 C            3.84735464        0.31948453        2.98384282
 C            2.50607137        3.08987088        1.37261175
 C            2.40016925        3.10421359       -0.02307791
 C            3.55937628        2.41027664        1.97195651
 C            3.21117492        2.46998078       -2.19999815
 C            3.74366256        1.36367014       -2.97544302
 C            3.37393333        2.48517907       -0.81601121
 C            4.34827769       -0.98208941       -2.54087381
 C            4.57148602        0.44353709       -2.35114621
 C            3.70655204       -2.61058863       -0.80527287
 C            3.78408892       -2.95949161        0.53356382
 C            4.31279403       -1.99531363        1.48693615
 C            4.58930700       -1.64140941       -1.27040140
 C            4.69301792        0.35838642        1.80196457
 C            4.47515088        1.64259744        1.15114587
 C            4.35974206        1.68589442       -0.23044716
 C            4.94137627        0.65476997       -0.96234593
 C            4.83637227       -0.78888529        1.02228806
 C            5.10111139       -0.64860947       -0.33898297




