%chk=000424.chk
%mem=8GB
%Nproc=16
#p B3LYP/6-31G* opt pop=NPA

Template file

0 1
 C            4.63382796        1.69715970       -0.53290574
 C            4.18238264        1.66098537       -1.91390472
 C            4.36064685        0.30605806       -2.40555843
 C            5.06544462        0.35700978       -0.17278959
 C            4.72425076       -0.52750045       -1.27343280
 C            4.88438646       -0.08219290        1.12497977
 C            4.26541352        0.81069726        2.08690744
 C            3.92768815        2.47859770        0.38026692
 C            3.60407563        1.95268293        1.63628461
 C            3.20388315        3.55530436       -0.11939276
 C            3.04830690        2.38976396       -2.26373474
 C            2.74872537        3.50979254       -1.50228462
 C            2.03475241        1.77500302       -3.00356418
 C            3.47191224       -0.18971396       -3.34234639
 C            2.32728051        0.61981863       -3.72199275
 C            3.01911577       -1.56522706       -3.22616719
 C            4.01068153       -1.70042507       -1.03043805
 C            3.31278859       -2.30393040       -2.08267369
 C            4.34274356       -1.41061806        1.35026368
 C            3.82044208       -2.14097951        0.28595627
 C            3.65923933       -0.01931680        3.11110018
 C            3.60269449       -1.37736852        2.59735436
 C            2.58402611        0.47527096        3.82517570
 C            2.49934162        2.44281344        2.34702442
 C            2.06481184        1.79037756        3.49680080
 C            2.13125542        4.11916135        0.67202429
 C            1.67926434        3.41837494        1.78181483
 C            1.41095320        4.06278632       -1.54361942
 C            1.17192011        4.68762451       -0.25578259
 C            0.69744846        2.15341382       -2.82053810
 C            0.38935623        3.33648333       -2.14784897
 C           -0.33415124        1.34575122       -3.30783435
 C            1.25383150       -0.28327444       -4.08309814
 C            1.68014506       -1.63971190       -3.78614649
 C           -0.05035636        0.07152682       -3.79974732
 C            0.76834299       -2.54097147       -3.23710200
 C            2.56915313       -3.45357434       -1.84345532
 C            1.26675624       -3.59423416       -2.48062898
 C            2.88695026       -3.14107249        0.55556885
 C            2.44854388       -3.94613133       -0.48773006
 C            2.42089688       -2.10448840        2.68409796
 C            2.20714324       -3.14256781        1.77884237
 C            1.44915005       -0.39143657        4.08368228
 C            1.34721928       -1.61518225        3.43559973
 C            0.64767599        1.79565799        3.80889628
 C            0.26916796        0.44363464        4.17790946
 C            0.33268353        3.49888464        2.15405625
 C           -0.20953717        2.54127410        3.00792230
 C           -0.13487750        4.85427889        0.15924982
 C           -0.52673762        4.34382041        1.46252194
 C           -0.93477159        3.61571519       -1.80467211
 C           -1.19754417        4.50411920       -0.76060608
 C           -1.66564744        1.70229131       -3.08454854
 C           -1.96574330        2.81257340       -2.29340042
 C           -2.67177683        0.79217659       -3.41326049
 C           -0.98204334       -0.94136197       -3.63493256
 C           -0.57167925       -2.16192222       -3.10021948
 C           -2.32054047       -0.60045037       -3.62363019
 C           -1.42892422       -2.86960617       -2.24444657
 C            0.39283536       -4.29222498       -1.55950865
 C            1.17709398       -4.63751944       -0.38578766
 C           -0.91912533       -3.86232312       -1.39994263
 C            1.10471138       -3.96941753        1.96607950
 C            0.54658996       -4.70337803        0.84366448
 C            0.08763388       -2.19525122        3.29494045
 C            0.00308189       -3.47706628        2.77272949
 C           -0.94499198       -0.04912047        3.72442396
 C           -1.05504264       -1.39054458        3.34417601
 C           -1.52315964        2.10138844        2.81118689
 C           -1.91356737        0.85784293        3.31391662
 C           -1.93829798        4.00473555        1.38970664
 C           -2.38813136        4.32286483        0.04493005
 C           -2.39508484        2.83982011        2.00146372
 C           -3.25665780        2.97659411       -1.78725019
 C           -3.43964964        3.60532682       -0.49239412
 C           -3.93714848        0.82082206       -2.70309933
 C           -4.21034288        1.88537793       -1.86761919
 C           -3.25100741       -1.41802118       -2.87307205
 C           -2.77968175       -2.51433967       -2.15952768
 C           -4.21703698       -0.52818658       -2.24658382
 C           -3.54029052       -2.97095974       -1.09001839
 C           -1.61127758       -4.21960020       -0.24088019
 C           -0.89666217       -4.56556126        0.90279922
 C           -1.23339529       -3.91769633        2.15974663
 C           -2.92230840       -3.79819935       -0.07439179
 C           -2.28657306       -1.87989750        2.88927837
 C           -2.35204622       -3.09606355        2.20304222
 C           -3.32517546       -3.28219243        1.22348187
 C           -3.19680941        0.39267121        3.08586188
 C           -3.39350772       -1.03176558        2.88268384
 C           -3.60373289        2.27984075        1.57761336
 C           -4.14255943        2.65241987        0.34787918
 C           -4.69475647        1.62513812       -0.52248656
 C           -4.05610960        1.10385686        2.16100025
 C           -4.59396709       -0.75956163       -0.92543346
 C           -4.45317400       -2.05180002       -0.42471268
 C           -4.34662819       -2.27465870        1.00671712
 C           -4.41922693       -1.19522496        1.86646260
 C           -4.78202262        0.31746598       -0.04956953
 C           -4.72518663        0.11678347        1.32862693




