%chk=000157.chk
%mem=8GB
%Nproc=16
#p B3LYP/6-31G* opt pop=NPA

Template file

0 1
 C            5.02627636        0.47280643        1.29284492
 C            4.31964501        1.67464699        1.69417522
 C            3.42484533        1.32654291        2.78676932
 C            4.56911020       -0.60930584        2.15054052
 C            3.45155073       -0.11213788        2.93393364
 C            4.50938261       -1.90170482        1.65648928
 C            4.76606906       -2.15199659        0.24390865
 C            5.25319644        0.24036080       -0.05585799
 C            5.08301765       -1.09922427       -0.59906428
 C            4.73410361        1.18337387       -1.03278632
 C            3.87395574        2.58162870        0.73605645
 C            3.89610697        2.21867489       -0.61657108
 C            2.98541212        3.55964517        1.16479392
 C            2.21817923        2.00542857        2.88599439
 C            2.17311584        3.28072012        2.33978153
 C            1.02870989        1.27974000        3.00523936
 C            2.25377757       -0.81592011        2.94075748
 C            1.04901538       -0.11966672        3.01751656
 C            3.39328274       -2.74540974        2.04580494
 C            2.24996907       -2.17073126        2.60575036
 C            3.79189093       -3.13212084       -0.20159844
 C            3.24201984       -3.73389681        0.99680446
 C            2.93728345       -2.82691687       -1.26325882
 C            4.36824439       -0.97485362       -1.85569905
 C            4.40650578        0.42674640       -2.22874641
 C            3.20262579       -1.71492801       -2.06441281
 C            3.43528814        0.91225749       -3.08217795
 C            2.94441286        2.73844635       -1.50610949
 C            2.79231402        2.17499898       -2.76966307
 C            2.12943841        4.21204303        0.19893968
 C            1.97543939        3.63240654       -1.05265201
 C            0.89597657        3.93787744        2.16094637
 C            0.96237532        4.68687082        0.91896066
 C           -0.19960773        1.94594003        2.95878118
 C           -0.27296296        3.25716194        2.47313226
 C           -1.37334729        1.24319405        3.23168749
 C           -0.14925942       -0.82611233        3.05851837
 C           -1.33836291       -0.14927250        3.32342966
 C            1.03923334       -2.86206754        2.52847427
 C           -0.16169788       -2.19435635        2.77277133
 C            2.03646251       -4.39664276        0.89865824
 C            1.00560803       -4.08793699        1.87050899
 C            1.69559127       -3.46234258       -1.34052788
 C            1.37572435       -4.42875884       -0.39202115
 C            0.67552866       -2.90569986       -2.11373770
 C            2.21521790       -1.22094346       -2.91797347
 C            2.40193457        0.00817171       -3.55120956
 C            0.94278777       -1.79393103       -2.91774399
 C            1.47100757        2.15182579       -3.36928696
 C            1.24187039        0.81556487       -3.88144449
 C            0.74155627        3.71169691       -1.70773135
 C            0.43491153        2.80855267       -2.72219833
 C           -0.20980379        4.90469441        0.21675348
 C           -0.27828329        4.48839836       -1.17272219
 C           -1.48029591        3.74871572        1.97660249
 C           -1.47349895        4.54691935        0.83740085
 C           -2.59719533        1.89417255        3.10066305
 C           -2.66252338        3.11789546        2.32832817
 C           -3.79123030        1.12952097        2.79321890
 C           -2.52943575       -0.86440150        3.40446111
 C           -3.76778798       -0.23994665        2.97360586
 C           -1.37637121       -2.85674207        2.56390971
 C           -2.56183783       -2.24159056        2.94815392
 C           -0.24201232       -4.54414680        1.29613532
 C           -0.01585750       -4.73154358       -0.13057968
 C           -1.43006825       -3.95466686        1.70260441
 C           -0.61785708       -3.44528306       -2.06526403
 C           -0.98860855       -4.28993382       -1.01529384
 C           -1.60311391       -2.93720931       -2.90647912
 C           -0.10333092       -1.11981754       -3.54843595
 C           -0.01364588        0.25195748       -3.73903494
 C           -1.34695603       -1.71544474       -3.64241033
 C           -0.87300933        2.33170546       -2.85215254
 C           -1.09942139        1.05969125       -3.39851733
 C           -1.65664697        4.13470789       -1.46098394
 C           -2.41899629        4.26196115       -0.22738428
 C           -1.93053537        3.07201130       -2.31445243
 C           -3.70343802        2.95262330        1.32228129
 C           -4.33827779        1.66505954        1.55766727
 C           -3.47155580        3.38249031        0.01593937
 C           -4.58382253        0.81604985        0.48134547
 C           -4.32310994       -1.08313113        1.93455148
 C           -3.74713896       -2.39998483        2.11911870
 C           -4.47622503       -0.56683769        0.64799880
 C           -2.53373125       -4.11113600        0.86930832
 C           -2.30349427       -4.27541499       -0.55544842
 C           -3.69847527       -3.26170362        1.03908527
 C           -2.98398394       -2.89873846       -2.45456745
 C           -4.30728241       -1.40456469       -0.46344135
 C           -3.31699655       -3.51262024       -1.26118812
 C           -4.07989711       -2.76781700       -0.27333280
 C           -2.52797655       -0.87484609       -3.55227882
 C           -2.38190840        0.50183414       -3.39319590
 C           -3.50505893       -1.57322106       -2.73430489
 C           -4.18531913       -0.86354400       -1.74730164
 C           -3.20302127        2.52147097       -2.26997240
 C           -3.98330240        2.64162766       -1.04730707
 C           -4.61534607        1.35518632       -0.79601955
 C           -3.43459569        1.20364682       -2.82060398
 C           -4.35245156        0.50150012       -1.93595716




