%chk=000299.chk
%mem=8GB
%Nproc=16
#p B3LYP/6-31G* opt pop=NPA

Template file

0 1
 C            5.18007175        0.41024711        0.31875424
 C            4.57923996        0.31083600        1.63595807
 C            4.48557568       -1.10202892        1.95030300
 C            5.09542853       -0.90458732       -0.29945353
 C            4.56583033       -1.82400416        0.69347579
 C            4.68517877       -1.02353615       -1.61811182
 C            4.37974439        0.16773925       -2.39596830
 C            4.93823151        1.54627498       -0.43632500
 C            4.54304562        1.42211044       -1.83307976
 C            4.13662973        2.60802699        0.14294403
 C            3.53264742        1.16735760        1.98251454
 C            3.33386617        2.34141353        1.25421144
 C            2.56437501        0.74188879        2.89348498
 C            3.56155190       -1.51198747        2.89322279
 C            2.66462704       -0.52632742        3.46793955
 C            2.78188231       -2.71208170        2.64161860
 C            3.54494939       -2.71113458        0.35445385
 C            2.79381724       -3.29820642        1.37756810
 C            3.71163718       -2.04159650       -1.96659349
 C            3.10711149       -2.80195803       -0.97330459
 C            3.18401001       -0.10328587       -3.17317906
 C            2.88442154       -1.51633984       -3.03352447
 C            2.13003984        0.81309203       -3.18383654
 C            3.54428459        2.44350095       -2.09475674
 C            3.58281035        3.35616763       -0.96828659
 C            2.30942111        2.08802421       -2.64307699
 C            2.48092143        4.15179016       -0.73420513
 C            2.18381787        3.10548517        1.46267984
 C            1.91530849        4.16491510        0.60175018
 C            1.36473015        1.44522710        3.01471792
 C            1.16421035        2.61857488        2.28206687
 C            0.29588245        0.84811966        3.68350518
 C            1.45163807       -1.22002265        3.86350064
 C            1.51490935       -2.57012195        3.34222635
 C            0.25510856       -0.53264126        3.80321240
 C            0.37522914       -3.14725823        2.79340645
 C            1.76418041       -4.17375391        1.05305033
 C            0.54882733       -4.15440092        1.85286923
 C            1.89971002       -3.43290140       -1.26308123
 C            1.37151279       -4.31234152       -0.33501584
 C            1.55925700       -1.91088245       -3.10919820
 C            1.09537918       -2.95186467       -2.30072468
 C            0.84297128        0.35121511       -3.46362144
 C            0.64388251       -1.01790167       -3.64514880
 C           -0.25563921        1.20008573       -3.30393658
 C            1.20451414        2.91478457       -2.42476954
 C            1.36092569        4.06113950       -1.65073861
 C           -0.08367505        2.44818439       -2.69530107
 C            0.55525838        4.64162992        0.46742288
 C            0.21629431        4.59971134       -0.94853370
 C           -0.06162501        3.29493496        2.35727571
 C           -0.40256246        4.24264410        1.38842053
 C           -0.87306514        1.55609822        3.88391762
 C           -1.04159639        2.84036083        3.23486813
 C           -2.13586128        0.84116282        3.81535686
 C           -0.91779035       -1.21067753        3.47418806
 C           -0.84433833       -2.46381224        2.84740711
 C           -2.13702663       -0.53049504        3.56394678
 C           -1.96251534       -2.98883744        2.18915206
 C           -0.55299115       -4.52395224        0.99015037
 C           -0.04292015       -4.62074607       -0.36896786
 C           -1.80292883       -3.95681998        1.19379285
 C           -0.24519835       -3.34765818       -2.40378032
 C           -0.82737859       -4.14502253       -1.41234578
 C           -0.61210002       -1.49290017       -3.96879588
 C           -1.05517010       -2.73556987       -3.36114911
 C           -1.53204022        0.76421315       -3.67790409
 C           -1.73158610       -0.57518485       -3.99306838
 C           -2.64611890        1.50169192       -3.29931346
 C           -1.19563510        3.19713630       -2.28705793
 C           -1.05608685        4.18502926       -1.31011990
 C           -2.47266980        2.77330292       -2.63058012
 C           -1.73800681        4.40352077        1.02687140
 C           -2.07880110        4.37908341       -0.38508857
 C           -2.44339824        2.97073180        2.87587439
 C           -3.07988807        1.68484335        3.10268735
 C           -2.78163884        3.69826264        1.74930042
 C           -3.87696751        1.11381881        2.11375404
 C           -3.27973726       -1.08861156        3.00433888
 C           -3.20037347       -2.37733666        2.34712403
 C           -4.16675737       -0.24087231        2.21932089
 C           -4.13430480       -2.35716468        1.23447336
 C           -4.53968928       -0.97938142        1.03138152
 C           -2.71508287       -4.02021422        0.14356956
 C           -2.20688721       -4.11077412       -1.21534693
 C           -3.87378313       -3.14492729        0.12873696
 C           -2.48645474       -2.63165073       -3.14101970
 C           -2.88004616       -1.26248386       -3.42571051
 C           -3.04986239       -3.28317855       -2.05978756
 C           -3.96070314       -2.55337436       -1.19541548
 C           -3.76109569        0.81184056       -2.66521269
 C           -4.36452144       -0.38266309       -0.21103791
 C           -3.70398212       -0.57080511       -2.54112865
 C           -4.07737381       -1.17068124       -1.33345922
 C           -3.55027290        2.90860611       -1.66530686
 C           -3.33556230        3.66543218       -0.52825430
 C           -3.67205716        3.10211507        0.76839401
 C           -4.00408717        1.75198160        0.87546245
 C           -4.17786834        1.60809591       -1.53081481
 C           -4.25717507        1.00451153       -0.28218482




