%chk=000034.chk
%mem=8GB
%Nproc=16
#p B3LYP/6-31G* opt pop=NPA

Template file

0 1
 C            5.45035504       -0.40259481        0.56656757
 C            4.98598074        0.13247805        1.83708118
 C            4.21402495       -0.90245892        2.50089831
 C            5.01016004       -1.78652711        0.47419093
 C            4.25155875       -2.09635435        1.67205360
 C            4.59323328       -2.30187443       -0.74215111
 C            4.56181273       -1.44964703       -1.92200941
 C            5.45035504        0.40259481       -0.56656757
 C            4.98598074       -0.13247805       -1.83708118
 C            5.01016004        1.78652711       -0.47419093
 C            4.56181273        1.44964703        1.92200941
 C            4.59323328        2.30187443        0.74215111
 C            3.34557250        1.75102137        2.65559357
 C            3.02815815       -0.58403151        3.15896639
 C            2.51602194        0.71495299        3.07548024
 C            2.17765584       -1.63268401        3.48018859
 C            3.11192420       -2.89588196        1.60351164
 C            2.24014588       -2.84895680        2.68371418
 C            3.42362378       -3.16027042       -0.78266449
 C            2.64738478       -3.35062834        0.36300245
 C            3.34557250       -1.75102137       -2.65559357
 C            2.75568434       -2.92684258       -2.05010474
 C            2.51602194       -0.71495299       -3.07548024
 C            4.21402495        0.90245892       -2.50089831
 C            4.25155875        2.09635435       -1.67205360
 C            3.02815815        0.58403151       -3.15896639
 C            3.11192420        2.89588196       -1.60351164
 C            3.42362378        3.16027042        0.78266449
 C            2.75568434        2.92684258        2.05010474
 C            2.64738478        3.35062834       -0.36300245
 C            1.38481690        3.08969745        2.09742217
 C            1.13679240        0.94255889        3.17594331
 C            0.60592264        2.18688585        2.82135197
 C            0.78446998       -1.36182445        3.76427351
 C            0.27410021       -0.09583215        3.52486904
 C            0.89273397       -3.35689247        2.54497495
 C            0.01749355       -2.51489944        3.33765592
 C            1.31041748       -3.74447692        0.20514331
 C            0.44696203       -3.79099560        1.30634745
 C            1.38481690       -3.08969745       -2.09742217
 C            0.78610669       -3.82784482       -1.08814334
 C            1.13679240       -0.94255889       -3.17594331
 C            0.60592264       -2.18688585       -2.82135197
 C            0.27410021        0.09583215       -3.52486904
 C            2.17765584        1.63268401       -3.48018859
 C            2.24014588        2.84895680       -2.68371418
 C            0.78446998        1.36182445       -3.76427351
 C            0.89273397        3.35689247       -2.54497495
 C            0.01749355        2.51489944       -3.33765592
 C            1.31041748        3.74447692       -0.20514331
 C            0.78610669        3.82784482        1.08814334
 C            0.44696203        3.79099560       -1.30634745
 C           -0.52563843        4.22868749        1.27717244
 C           -0.77426957        2.39860310        2.88460366
 C           -1.29387744        3.55949439        2.31007218
 C           -1.09346572        0.04953560        3.30999732
 C           -1.62390774        1.32694004        3.16547916
 C           -1.28227361       -2.32413411        2.89623271
 C           -1.88862712       -1.07962565        3.07087735
 C           -0.92921244       -3.89180744        1.10017276
 C           -1.80065941       -3.20271642        1.95074231
 C           -0.52563843       -4.22868749       -1.27717244
 C           -1.38426990       -4.37013751       -0.12185030
 C           -0.77426957       -2.39860310       -2.88460366
 C           -1.29387744       -3.55949439       -2.31007218
 C           -1.09346572       -0.04953560       -3.30999732
 C           -1.62390774       -1.32694004       -3.16547916
 C           -1.28227361        2.32413411       -2.89623271
 C           -1.88862712        1.07962565       -3.07087735
 C           -0.92921244        3.89180744       -1.10017276
 C           -1.38426990        4.37013751        0.12185030
 C           -1.80065941        3.20271642       -1.95074231
 C           -2.69187117        3.61976449        1.92192177
 C           -2.74659365        4.10296468        0.55034045
 C           -3.00119749        1.48438458        3.06883001
 C           -3.54804875        2.61100248        2.33449750
 C           -3.24661758       -0.93691924        2.76821305
 C           -3.82355500        0.32733178        2.77747256
 C           -3.15578199       -3.12774296        1.65508594
 C           -3.89419359       -1.94310523        2.05492684
 C           -2.74659365       -4.10296468       -0.55034045
 C           -2.69187117       -3.61976449       -1.92192177
 C           -3.63712571       -3.53537920        0.34768369
 C           -3.00119749       -1.48438458       -3.06883001
 C           -3.54804875       -2.61100248       -2.33449750
 C           -3.24661758        0.93691924       -2.76821305
 C           -3.82355500       -0.32733178       -2.77747256
 C           -3.15578199        3.12774296       -1.65508594
 C           -3.63712571        3.53537920       -0.34768369
 C           -3.89419359        1.94310523       -2.05492684
 C           -4.56052263        2.10055988        1.42292434
 C           -4.73629073        0.68819065        1.70274993
 C           -4.59316592        2.53883867        0.10927090
 C           -4.77405442        1.57119001       -0.95733651
 C           -4.77405442       -1.57119001        0.95733651
 C           -4.59316592       -2.53883867       -0.10927090
 C           -4.56052263       -2.10055988       -1.42292434
 C           -4.73629073       -0.68819065       -1.70274993
 C           -4.94789280       -0.21959333        0.66627353
 C           -4.94789280        0.21959333       -0.66627353




