%chk=000041.chk
%mem=8GB
%Nproc=16
#p B3LYP/6-31G* opt pop=NPA

Template file

0 1
 C            5.27311812        0.03625212        1.20860860
 C            5.08988753       -1.33962041        0.77530601
 C            4.12731879       -1.96291066        1.66576533
 C            4.51139033        0.21914394        2.43471848
 C            3.70922003       -0.97385348        2.64131435
 C            3.96170511        1.45674701        2.72844326
 C            4.11806578        2.55915459        1.79139004
 C            5.32523819        1.05739300        0.26572313
 C            4.68935170        2.33409072        0.54736391
 C            5.10527468        0.75667721       -1.13933381
 C            5.04965044       -1.63890540       -0.57781693
 C            5.01794596       -0.56233957       -1.55808752
 C            4.15361176       -2.68358604       -1.04526056
 C            3.16588175       -2.82629759        1.15831926
 C            3.21068742       -3.23605749       -0.17986211
 C            1.99199116       -2.99414914        1.88208631
 C            2.35171753       -0.86208856        2.94361377
 C            1.51051616       -1.93898592        2.66143681
 C            2.61051049        1.51555899        3.25802682
 C            1.79440764        0.39359060        3.19209834
 C            2.92289387        3.37676760        1.87749388
 C            2.05932099        2.80451643        2.89789938
 C            2.33610682        3.87730787        0.71895849
 C            3.96956020        2.75114984       -0.64595012
 C            4.14766772        1.72112572       -1.65196932
 C            2.72390866        3.35911854       -0.51935790
 C            3.03843015        1.28260228       -2.36745493
 C            4.02357503       -0.91510263       -2.55457957
 C            3.74943154       -2.33023084       -2.39300128
 C            2.97049234       -0.03982841       -2.81753571
 C            2.55637345       -2.83400006       -2.87967482
 C            2.12999904       -3.94261006       -0.72027536
 C            1.80176562       -3.77036715       -2.06401902
 C            1.14027378       -4.01863815        1.51266992
 C            1.16365905       -4.46497567        0.13408867
 C           -0.23793408       -3.99349416        1.95485672
 C            0.14143923       -1.82713588        2.91416607
 C           -0.68517890       -2.94190034        2.74505233
 C            0.41290869        0.55994456        3.11957126
 C           -0.41290869       -0.55994456        3.11957126
 C            0.68517890        2.94190034        2.74505233
 C           -0.14143923        1.82713588        2.91416607
 C            1.06960591        4.43229590        0.84640972
 C            0.23793408        3.99349416        1.95485672
 C            0.21639672        4.54443590       -0.32079571
 C            1.76368551        3.15407440       -1.51478214
 C            1.89782780        2.08007855       -2.40311414
 C            0.58172874        3.89750169       -1.49352815
 C            0.79929530        1.64269578       -3.13152137
 C            1.76276623       -0.54454172       -3.30960025
 C            1.60077787       -1.91722717       -3.47511977
 C            0.64104538        0.28086493       -3.36000328
 C            0.40222740       -3.65201381       -2.44527143
 C            0.27959381       -2.49203357       -3.30746566
 C           -0.21639672       -4.54443590       -0.32079571
 C           -1.06960591       -4.43229590        0.84640972
 C           -0.58172874       -3.89750169       -1.49352815
 C           -2.33610682       -3.87730787        0.71895849
 C           -2.05932099       -2.80451643        2.89789938
 C           -2.92289387       -3.37676760        1.87749388
 C           -1.79440764       -0.39359060        3.19209834
 C           -2.61051049       -1.51555899        3.25802682
 C           -1.51051616        1.93898592        2.66143681
 C           -2.35171753        0.86208856        2.94361377
 C           -1.14027378        4.01863815        1.51266992
 C           -1.16365905        4.46497567        0.13408867
 C           -1.99199116        2.99414914        1.88208631
 C           -2.12999904        3.94261006       -0.72027536
 C           -0.40222740        3.65201381       -2.44527143
 C           -0.27959381        2.49203357       -3.30746566
 C           -1.80176562        3.77036715       -2.06401902
 C           -1.60077787        1.91722717       -3.47511977
 C           -2.55637345        2.83400006       -2.87967482
 C           -0.64104538       -0.28086493       -3.36000328
 C           -0.79929530       -1.64269578       -3.13152137
 C           -1.76276623        0.54454172       -3.30960025
 C           -1.76368551       -3.15407440       -1.51478214
 C           -2.72390866       -3.35911854       -0.51935790
 C           -1.89782780       -2.08007855       -2.40311414
 C           -3.96956020       -2.75114984       -0.64595012
 C           -4.11806578       -2.55915459        1.79139004
 C           -3.96170511       -1.45674701        2.72844326
 C           -4.68935170       -2.33409072        0.54736391
 C           -3.70922003        0.97385348        2.64131435
 C           -4.51139033       -0.21914394        2.43471848
 C           -3.16588175        2.82629759        1.15831926
 C           -3.21068742        3.23605749       -0.17986211
 C           -4.12731879        1.96291066        1.66576533
 C           -3.74943154        2.33023084       -2.39300128
 C           -4.15361176        2.68358604       -1.04526056
 C           -2.97049234        0.03982841       -2.81753571
 C           -3.03843015       -1.28260228       -2.36745493
 C           -4.14766772       -1.72112572       -1.65196932
 C           -4.02357503        0.91510263       -2.55457957
 C           -5.32523819       -1.05739300        0.26572313
 C           -5.27311812       -0.03625212        1.20860860
 C           -5.08988753        1.33962041        0.77530601
 C           -5.04965044        1.63890540       -0.57781693
 C           -5.10527468       -0.75667721       -1.13933381
 C           -5.01794596        0.56233957       -1.55808752




