%chk=000390.chk
%mem=8GB
%Nproc=16
#p B3LYP/6-31G* opt pop=NPA

Template file

0 1
 C            4.66759674       -1.66847185        0.77598735
 C            4.03682664       -2.93572762        0.43396133
 C            3.15683257       -3.29926592        1.53724372
 C            4.24745649       -1.32197790        2.12289403
 C            3.13164838       -2.18544447        2.46200187
 C            4.18789771        0.01040902        2.48400641
 C            4.61323889        1.01666860        1.52855399
 C            4.78154065       -0.67308567       -0.19037217
 C            4.78154065        0.67308567        0.19037217
 C            4.61323889       -1.01666860       -1.52855399
 C            3.63230280       -3.18324164       -0.87825874
 C            3.92587837       -2.25114935       -1.87120811
 C            2.58957697       -4.07944623       -1.10192828
 C            1.97189733       -3.96304340        1.26283558
 C            1.84669840       -4.59770705        0.03246428
 C            0.81956892       -3.61118139        1.96635866
 C            1.90475462       -1.62636058        2.81034246
 C            0.74034557       -2.36045420        2.58825393
 C            2.97981417        0.50403379        3.11957856
 C            1.81894576       -0.25717240        3.06462354
 C            3.92587837        2.25114935        1.87120811
 C            2.90539742        1.92577085        2.85826639
 C            3.63230280        3.18324164        0.87825874
 C            4.66759674        1.66847185       -0.77598735
 C            4.03682664        2.93572762       -0.43396133
 C            4.18789771       -0.01040902       -2.48400641
 C            4.24745649        1.32197790       -2.12289403
 C            2.90539742       -1.92577085       -2.85826639
 C            2.97981417       -0.50403379       -3.11957856
 C            1.62041010       -3.78312603       -2.14564326
 C            1.66558560       -2.54173269       -2.76302040
 C            0.52910862       -4.97544230       -0.44723113
 C            0.34328799       -4.33528245       -1.73803072
 C           -0.34328799       -4.33528245        1.73803072
 C           -0.52910862       -4.97544230        0.44723113
 C           -1.62041010       -3.78312603        2.14564326
 C           -0.50382045       -1.76612303        2.81523892
 C           -1.66558560       -2.54173269        2.76302040
 C            0.58220271        0.38111395        2.99622736
 C           -0.58220271       -0.38111395        2.99622736
 C            1.66558560        2.54173269        2.76302040
 C            0.50382045        1.76612303        2.81523892
 C            2.58957697        4.07944623        1.10192828
 C            1.62041010        3.78312603        2.14564326
 C            1.84669840        4.59770705       -0.03246428
 C            3.15683257        3.29926592       -1.53724372
 C            3.13164838        2.18544447       -2.46200187
 C            1.97189733        3.96304340       -1.26283558
 C            1.81894576        0.25717240       -3.06462354
 C            1.90475462        1.62636058       -2.81034246
 C            0.50382045       -1.76612303       -2.81523892
 C            0.58220271       -0.38111395       -2.99622736
 C           -0.81956892       -3.61118139       -1.96635866
 C           -0.74034557       -2.36045420       -2.58825393
 C           -1.84669840       -4.59770705       -0.03246428
 C           -2.58957697       -4.07944623        1.10192828
 C           -1.97189733       -3.96304340       -1.26283558
 C           -3.63230280       -3.18324164        0.87825874
 C           -2.90539742       -1.92577085        2.85826639
 C           -3.92587837       -2.25114935        1.87120811
 C           -1.81894576        0.25717240        3.06462354
 C           -2.97981417       -0.50403379        3.11957856
 C           -0.74034557        2.36045420        2.58825393
 C           -1.90475462        1.62636058        2.81034246
 C            0.34328799        4.33528245        1.73803072
 C            0.52910862        4.97544230        0.44723113
 C           -0.81956892        3.61118139        1.96635866
 C           -0.52910862        4.97544230       -0.44723113
 C            0.81956892        3.61118139       -1.96635866
 C            0.74034557        2.36045420       -2.58825393
 C           -0.34328799        4.33528245       -1.73803072
 C           -0.58220271        0.38111395       -2.99622736
 C           -0.50382045        1.76612302       -2.81523892
 C           -1.90475462       -1.62636058       -2.81034246
 C           -1.81894576       -0.25717240       -3.06462354
 C           -3.15683257       -3.29926592       -1.53724372
 C           -4.03682664       -2.93572762       -0.43396133
 C           -3.13164838       -2.18544447       -2.46200187
 C           -4.66759674       -1.66847185       -0.77598735
 C           -4.24745649       -1.32197790       -2.12289403
 C           -4.61323889       -1.01666860        1.52855399
 C           -4.18789771       -0.01040902        2.48400641
 C           -4.78154065       -0.67308567        0.19037217
 C           -3.13164838        2.18544447        2.46200187
 C           -4.24745649        1.32197790        2.12289403
 C           -1.97189733        3.96304340        1.26283558
 C           -1.84669840        4.59770705        0.03246428
 C           -3.15683257        3.29926592        1.53724372
 C           -1.62041010        3.78312603       -2.14564326
 C           -1.66558560        2.54173269       -2.76302040
 C           -2.58957697        4.07944623       -1.10192828
 C           -2.97981417        0.50403379       -3.11957856
 C           -4.18789771        0.01040902       -2.48400641
 C           -2.90539742        1.92577085       -2.85826639
 C           -4.78154065        0.67308567       -0.19037217
 C           -4.66759674        1.66847185        0.77598735
 C           -4.03682664        2.93572762        0.43396133
 C           -3.63230280        3.18324164       -0.87825874
 C           -4.61323889        1.01666860       -1.52855399
 C           -3.92587837        2.25114935       -1.87120811




