%chk=000179.chk
%mem=8GB
%Nproc=16
#p B3LYP/6-31G* opt pop=NPA

Template file

0 1
 C            4.44526227       -2.23509300        1.27749261
 C            3.36474883       -3.10304588        1.71029236
 C            2.89338290       -3.83553427        0.54689919
 C            4.55105866       -2.35784174       -0.16892352
 C            3.44301180       -3.18072403       -0.62167317
 C            4.91922359       -1.26075996       -0.92995093
 C            5.19172786        0.01493800       -0.28258414
 C            4.59244062       -0.99431753        1.87931283
 C            5.00183822        0.15230331        1.08344505
 C            3.58177434       -0.54651551        2.82259304
 C            2.42804236       -2.64598965        2.63519905
 C            2.42055800       -1.29438491        2.98985806
 C            1.27221267       -3.39845090        2.79880432
 C            1.56973453       -4.24631190        0.52451595
 C            0.89945594       -4.32241369        1.74208331
 C            0.82870176       -4.07049281       -0.64413170
 C            2.57365562       -2.69659882       -1.59586055
 C            1.25040793       -3.14085072       -1.60205151
 C            4.18215154       -0.98113298       -2.14757699
 C            2.94209012       -1.58665760       -2.35990200
 C            4.72955096        1.06685742       -1.17158582
 C            4.34418375        0.43408614       -2.42005764
 C            3.95821838        2.11760926       -0.67506179
 C            4.29769587        1.31651046        1.58749262
 C            3.49131218        0.89543786        2.71746399
 C            3.76392298        2.25499704        0.70692918
 C            2.26848665        1.51520959        2.90977308
 C            1.20789071       -0.63736129        3.23347730
 C            1.15918557        0.75897341        3.29358311
 C            0.05899458       -2.74857804        3.25203572
 C            0.02429570       -1.36620813        3.33468081
 C           -0.54504711       -4.45797387        1.76020907
 C           -1.06986323       -3.44426873        2.66057805
 C           -0.47466371       -4.54865733       -0.67996305
 C           -1.20568239       -4.70057121        0.56764392
 C           -1.39604868       -4.03956534       -1.67588694
 C            0.32593788       -2.55659181       -2.47299716
 C           -0.97327379       -3.06606416       -2.56914248
 C            1.99850659       -0.95540188       -3.17167265
 C            0.68259425       -1.41845095       -3.19984254
 C            3.41314346        1.06367183       -3.22403304
 C            2.28248225        0.29831112       -3.71613487
 C            3.19775350        2.87924729       -1.56982424
 C            2.91467680        2.37207509       -2.83589661
 C            2.40498085        3.91511012       -1.08999525
 C            2.77244567        3.11283003        1.18309107
 C            2.07179511        2.76958666        2.34363996
 C            2.27912653        4.09943209        0.34004582
 C            0.95398029        3.49631697        2.72915953
 C           -0.06695968        1.40148451        3.49157885
 C           -0.12490200        2.79223500        3.39811302
 C           -1.19533959       -0.70873552        3.21612601
 C           -1.24923480        0.65907044        3.46286525
 C           -2.19160936       -2.71188023        2.28480962
 C           -2.31201072       -1.38356584        2.70317297
 C           -2.52765420       -4.13702474        0.37230308
 C           -2.70333453       -3.90475972       -1.05055840
 C           -3.02126477       -3.19861616        1.27153079
 C           -3.55930489       -2.88861084       -1.47049692
 C           -1.94767208       -2.33902888       -3.24214630
 C           -3.27631260       -2.22290644       -2.65973212
 C           -0.30965110       -0.59719232       -3.73482191
 C           -1.60662561       -1.06271572       -3.83396486
 C            1.19289975        1.23035984       -3.94278967
 C            1.56596468        2.50574935       -3.36420533
 C           -0.10106256        0.77247767       -3.78417020
 C            1.08934159        4.12526196       -1.67827791
 C            0.62616322        3.22952210       -2.63851379
 C            0.97616605        4.68690716        0.59496683
 C            0.35711784        4.44844528        1.80814747
 C            0.19685237        4.57121827       -0.62421077
 C           -1.36661603        3.43906460        3.01130060
 C           -1.07878126        4.23738485        1.83600480
 C           -2.47639639        1.30931022        3.43101549
 C           -2.53786446        2.70527725        3.04011221
 C           -3.50982656       -0.69986658        2.48178948
 C           -3.61146923        0.64050065        2.82842405
 C           -4.12571868       -2.45402797        0.88336335
 C           -4.40320670       -2.29091189       -0.53630877
 C           -4.40449452       -1.19379300        1.54251653
 C           -4.87512804       -0.92979782       -0.74502464
 C           -4.96351218       -0.28354434        0.55578982
 C           -3.73257462       -0.85451504       -2.85553661
 C           -2.69555467       -0.13659515       -3.57990329
 C           -4.43536458       -0.20466095       -1.84647302
 C           -1.07891964        1.62540068       -3.27565243
 C           -0.69776634        2.77969897       -2.57884918
 C           -2.40471139        1.18078759       -3.23149149
 C           -1.09132336        4.05457510       -0.57157833
 C           -1.76459914        3.97316843        0.65182184
 C           -1.58490660        3.37451196       -1.67985209
 C           -3.45061911        2.79570113        1.91285625
 C           -4.22441067        1.56572323        1.88530172
 C           -4.70541913        1.07936879        0.67209813
 C           -3.01920426        3.36038132        0.71498746
 C           -4.37677276        1.18323744       -1.76812128
 C           -3.34953735        1.89926420       -2.50969803
 C           -2.92589748        3.03062825       -1.70976408
 C           -4.54173996        1.84262387       -0.48152844
 C           -3.66729301        3.00671401       -0.46287617




