%chk=000414.chk
%mem=8GB
%Nproc=16
#p B3LYP/6-31G* opt pop=NPA

Template file

0 1
 C            4.84169863       -0.72792322        0.74055066
 C            4.84169863        0.72792322        0.74055066
 C            4.40443444        1.16396071        2.05744733
 C            4.40443444       -1.16396071        2.05744733
 C            3.86305705       -0.00000000        2.73203479
 C            3.73741956       -2.36849925        2.17722419
 C            3.54109041       -3.17263461        0.98855369
 C            4.40936071       -1.40569807       -0.39854857
 C            3.64448543       -2.57030586       -0.26459771
 C            4.42565106       -0.72839722       -1.61335196
 C            4.40936071        1.40569807       -0.39854857
 C            4.42565106        0.72839722       -1.61335196
 C            3.64448543        2.57030586       -0.26459771
 C            3.73741956        2.36849925        2.17722419
 C            3.54109041        3.17263461        0.98855369
 C            2.48807347        2.40176304        2.91747358
 C            2.52831438       -0.00000000        3.13566523
 C            1.83151734        1.20995572        3.20593949
 C            2.48807347       -2.40176304        2.91747358
 C            1.83151734       -1.20995572        3.20593949
 C            2.43487738       -4.06706348        1.27059571
 C            1.72124028       -3.52731066        2.41784566
 C            1.70699342       -4.58212125        0.21360290
 C            2.79843884       -2.97927861       -1.30393838
 C            1.93564869       -4.05612588       -1.12079157
 C            3.55280139       -1.17016680       -2.68244302
 C            2.61423003       -2.15732397       -2.41375328
 C            3.55280139        1.17016680       -2.68244302
 C            3.16988208        0.00000000       -3.45117370
 C            2.79843884        2.97927861       -1.30393838
 C            2.61423003        2.15732397       -2.41375328
 C            1.93564869        4.05612588       -1.12079157
 C            2.43487738        4.06706348        1.27059571
 C            1.72124028        3.52731066        2.41784566
 C            1.70699342        4.58212125        0.21360290
 C            0.33428293        3.43849043        2.37459829
 C            0.44189138        1.20032782        3.30247709
 C           -0.30192271        2.33596739        2.95361064
 C            0.44189138       -1.20032782        3.30247709
 C           -0.20382243       -0.00000000        3.57371161
 C            0.33428293       -3.43849043        2.37459829
 C           -0.30192271       -2.33596739        2.95361064
 C            0.27699778       -4.76945791        0.37151249
 C           -0.36977179       -4.26236558        1.49503738
 C            0.66496641       -4.05703105       -1.82473653
 C           -0.34225544       -4.59182491       -0.93123595
 C            1.38661842       -2.15865379       -3.08408876
 C            0.35222282       -2.97416585       -2.63224012
 C            1.95448444        0.00000000       -4.11172273
 C            1.10052641       -1.16946490       -4.01460345
 C            1.38661842        2.15865379       -3.08408876
 C            1.10052641        1.16946490       -4.01460345
 C            0.66496641        4.05703105       -1.82473653
 C            0.35222282        2.97416585       -2.63224012
 C            0.27699778        4.76945791        0.37151249
 C           -0.36977179        4.26236558        1.49503738
 C           -0.34225544        4.59182491       -0.93123595
 C           -1.75487111        4.18586093        1.45908140
 C           -1.69682615        2.31676866        3.04821498
 C           -2.43859644        3.22451902        2.30201887
 C           -1.55933401       -0.00000000        3.84212758
 C           -2.34106109        1.17238738        3.50611166
 C           -1.69682615       -2.31676866        3.04821498
 C           -2.34106109       -1.17238738        3.50611166
 C           -1.75487111       -4.18586093        1.45908140
 C           -2.43859644       -3.22451902        2.30201887
 C           -1.63804729       -4.09580039       -0.98725892
 C           -2.41621166       -4.18773928        0.16465108
 C           -0.97164184       -2.52949073       -2.71555842
 C           -1.97634363       -3.16531997       -1.97322701
 C           -0.27160957       -0.72586730       -4.15861258
 C           -0.27160957        0.72586730       -4.15861258
 C           -1.27690288       -1.38423369       -3.46096510
 C           -0.97164184        2.52949073       -2.71555842
 C           -1.27690288        1.38423369       -3.46096510
 C           -1.63804729        4.09580039       -0.98725892
 C           -2.41621166        4.18773928        0.16465108
 C           -1.97634363        3.16531997       -1.97322701
 C           -3.61182699        2.75206309        1.58171268
 C           -3.63464317        3.40823574        0.28534616
 C           -3.54605884        0.72353686        2.82449262
 C           -3.54605884       -0.72353686        2.82449262
 C           -3.97886606        1.41281356        1.70002987
 C           -3.61182699       -2.75206309        1.58171268
 C           -3.63464317       -3.40823574        0.28534616
 C           -3.97886606       -1.41281356        1.70002987
 C           -3.27772036       -2.66721242       -2.01456439
 C           -4.09767271       -2.71118986       -0.81456652
 C           -2.46214085       -0.69918759       -3.20940726
 C           -2.46214085        0.69918759       -3.20940726
 C           -3.53308886       -1.39657423       -2.66804266
 C           -3.27772036        2.66721242       -2.01456439
 C           -4.09767271        2.71118986       -0.81456652
 C           -3.53308886        1.39657423       -2.66804266
 C           -4.39860092        0.70099512        0.57105910
 C           -4.39860092       -0.70099512        0.57105910
 C           -4.65220075       -1.38602380       -0.61798994
 C           -4.53287688       -0.69098821       -1.88498682
 C           -4.65220075        1.38602380       -0.61798994
 C           -4.53287688        0.69098821       -1.88498682




