%chk=000071.chk
%mem=8GB
%Nproc=16
#p B3LYP/6-31G* opt pop=NPA

Template file

0 1
 C            5.37439073        0.10620747       -0.19546574
 C            5.11018588       -1.14658660        0.49293723
 C            4.46216444       -0.83642869        1.75673276
 C            5.03619679        1.19021551        0.71243684
 C            4.42175475        0.60883624        1.89299278
 C            4.53897202        2.38344786        0.21063294
 C            4.26501444        2.51578960       -1.21188691
 C            5.09126651        0.22389581       -1.55213966
 C            4.49242375        1.44575647       -2.06402867
 C            4.49855756       -0.89420869       -2.26984583
 C            4.68404085       -2.25273660       -0.22770226
 C            4.33006638       -2.11303436       -1.63263320
 C            3.72516928       -3.15960296        0.37614906
 C            3.36570879       -1.59123443        2.17030201
 C            3.15720646       -2.85575246        1.61087455
 C            2.34998474       -0.97345290        2.91147439
 C            3.29109984        1.19502963        2.44760548
 C            2.42340243        0.39487266        3.18647770
 C            3.48001750        3.06813777        0.93081080
 C            2.87343186        2.46326856        2.02728487
 C            3.04618310        3.29161796       -1.35854769
 C            2.63661102        3.73542938       -0.04149531
 C            2.06505501        2.88947101       -2.25472753
 C            3.46678940        1.07246971       -3.02186762
 C            3.42150552       -0.37502620       -3.09523488
 C            2.26480678        1.76453964       -3.06183199
 C            2.17772931       -1.00764101       -3.10386846
 C            3.10420679       -2.85865912       -1.85613044
 C            2.86489691       -3.66837193       -0.67993020
 C            2.02291965       -2.24575306       -2.47568545
 C            1.56175219       -4.02435958       -0.35326726
 C            2.05260720       -3.59981812        2.00386821
 C            1.28776052       -4.29367027        0.98010233
 C            1.20433266       -1.68858720        3.26583575
 C            1.10778937       -3.02906285        2.94208313
 C            0.05319745       -1.00766816        3.64685322
 C            1.40425584        1.00508704        3.90735310
 C            0.17940118        0.26916766        4.16437764
 C            1.63209873        2.94406446        2.44493039
 C            1.03937554        2.36358660        3.56182681
 C            1.28122235        3.85295132        0.23791945
 C            0.85915876        3.69995057        1.55606504
 C            0.76943781        3.37266933       -2.07962760
 C            0.34654670        3.74703020       -0.79866506
 C           -0.17402131        3.07395967       -3.05464737
 C            1.15726910        1.11910690       -3.60041997
 C            1.04404048       -0.26646077       -3.45652900
 C            0.02763232        1.87870124       -3.85180844
 C           -0.21902979       -0.86693513       -3.39776017
 C            0.74381072       -2.73443445       -2.23690088
 C            0.51126710       -3.63050218       -1.18491150
 C           -0.32737344       -2.17080516       -2.91833625
 C           -0.80250792       -3.96337174       -0.83839192
 C           -0.08933534       -4.35742752        1.42258442
 C           -0.19955013       -3.58463336        2.65031900
 C           -1.11554290       -4.26985802        0.49062425
 C           -1.19815855       -1.46947371        3.22935587
 C           -1.33895647       -2.80851987        2.84648903
 C           -2.26053828       -0.56473792        3.06429069
 C           -0.93262216        1.19070651        4.05310736
 C           -0.38605892        2.51154070        3.79096875
 C           -2.09003542        0.78557982        3.39669750
 C           -0.45319948        4.02558298        1.87119766
 C           -1.10623968        3.39075757        3.00247050
 C           -1.01988775        3.83289687       -0.50441533
 C           -1.42004218        4.12694932        0.79227700
 C           -1.58448966        3.15492275       -2.73401571
 C           -1.96370849        3.35599760       -1.41282585
 C           -1.25386700        1.22308100       -4.00247275
 C           -1.37100203       -0.12638367       -3.69078531
 C           -2.26453232        2.15166444       -3.53261301
 C           -2.63673298       -0.65001040       -3.41177039
 C           -1.56943003       -2.77901072       -2.83884664
 C           -1.82452251       -3.70071882       -1.74741147
 C           -2.76233645       -1.98379563       -3.04680769
 C           -3.17639082       -3.46107257       -1.27034135
 C           -3.72346930       -2.34363955       -2.01643642
 C           -2.38717116       -3.98875664        0.98084280
 C           -2.50165124       -3.21894773        2.20918368
 C           -3.44290980       -3.56389350        0.08110146
 C           -3.47813865       -0.99466749        2.52714313
 C           -3.60013722       -2.29283159        2.05366719
 C           -4.19166631       -2.50979505        0.74129169
 C           -4.38020144       -0.05424825        2.04790445
 C           -2.94134534        1.75452400        2.85925314
 C           -2.44801281        3.02768932        2.58842676
 C           -2.68321055        3.60443684        1.27477022
 C           -4.08786811        1.35676928        2.18822184
 C           -3.19698485        2.86982592       -0.96098959
 C           -3.52662121        2.93446626        0.39596676
 C           -4.42091023        2.00889647        0.93201051
 C           -3.47024966        1.64825708       -3.08234515
 C           -3.69209749        0.21265715       -3.12022004
 C           -4.00935234        2.13753828       -1.82658501
 C           -4.42592716       -1.33247441       -1.36220089
 C           -4.64756185       -1.40839058        0.01970336
 C           -4.98110209       -0.26179453        0.73848697
 C           -5.06118596        1.02638153        0.07433033
 C           -4.59878063       -0.12342967       -2.03332952
 C           -4.86804711        1.09629382       -1.29191344




