%chk=000103.chk
%mem=8GB
%Nproc=16
#p B3LYP/6-31G* opt pop=NPA

Template file

0 1
 C            5.24929730       -1.01402910       -0.07219988
 C            5.19842800        0.43671432       -0.10815039
 C            4.85546535        0.83900489       -1.46373487
 C            4.83590697       -1.50993639       -1.37602179
 C            4.51439564       -0.36365441       -2.20710606
 C            4.05461026       -2.65125385       -1.46822598
 C            3.65331318       -3.35652343       -0.26058781
 C            4.85350272       -1.67699209        1.07856405
 C            4.02316365       -2.86746175        0.98303567
 C            4.39606327       -0.90561199        2.21979838
 C            4.67187062        1.14874053        0.96587804
 C            4.29150002        0.48144891        2.13763460
 C            4.26558706        2.46177145        0.74373161
 C            4.11371178        2.00062622       -1.66937611
 C            3.92517210        2.88260627       -0.60699139
 C            3.26276429        2.07053445       -2.77034205
 C            3.36916543       -0.36811432       -2.99878054
 C            2.90868415        0.84957992       -3.47869785
 C            2.92661588       -2.66105200       -2.38234453
 C            2.51650165       -1.47723484       -2.99265403
 C            2.29607172       -3.83378184       -0.45778903
 C            1.92336008       -3.55210507       -1.82941235
 C            1.34143232       -3.66004342        0.53896911
 C            3.03070740       -2.80586369        2.04127789
 C            3.33446603       -1.65738867        2.87221295
 C            1.70112509       -3.09778303        1.76468269
 C            2.29271679       -0.96468981        3.48016567
 C            3.51008655        1.13195039        3.08984442
 C            2.48471494        0.37808497        3.79496259
 C            3.33793105        3.10500808        1.65553723
 C            2.98137769        2.45764212        2.82319766
 C            2.70354516        3.67186102       -0.53168113
 C            2.30629015        3.74729987        0.86089633
 C            2.07363684        2.90545996       -2.70883896
 C            1.72624259        3.51351795       -1.50694214
 C            1.53561476        0.97180416       -3.92270944
 C            1.04137383        2.27078702       -3.51150751
 C            1.17705039       -1.34581434       -3.37859759
 C            0.68590332       -0.11574932       -3.82460493
 C            0.59041214       -3.30435744       -2.11415563
 C            0.28352220       -2.38791831       -3.11222448
 C           -0.00630911       -3.70839192        0.18924191
 C           -0.37710613       -3.60817032       -1.15694589
 C           -0.96738589       -3.56715714        1.18569761
 C            0.71006832       -2.57041870        2.58710312
 C            0.99000956       -1.46394481        3.39867921
 C           -0.61024477       -2.97189616        2.39580622
 C           -0.06111502       -0.69186861        3.89310494
 C            1.33047414        1.24478502        3.96426218
 C            1.59222315        2.47571335        3.24633829
 C            0.06111502        0.69186861        3.89310494
 C            0.96738589        3.56715714        1.18569761
 C            0.61024477        2.97189616        2.39580622
 C            0.37710613        3.60817032       -1.15694589
 C            0.00630911        3.70839192        0.18924191
 C           -0.28352220        2.38791831       -3.11222448
 C           -0.59041214        3.30435744       -2.11415563
 C           -0.68590332        0.11574932       -3.82460493
 C           -1.17705039        1.34581434       -3.37859759
 C           -1.04137383       -2.27078702       -3.51150751
 C           -1.53561476       -0.97180416       -3.92270944
 C           -1.72624259       -3.51351795       -1.50694214
 C           -2.07363684       -2.90545996       -2.70883896
 C           -2.30629015       -3.74729987        0.86089633
 C           -2.70354516       -3.67186102       -0.53168113
 C           -3.33793105       -3.10500808        1.65553723
 C           -1.59222315       -2.47571335        3.24633829
 C           -1.33047414       -1.24478502        3.96426218
 C           -2.98137769       -2.45764212        2.82319766
 C           -2.48471494       -0.37808497        3.79496259
 C           -3.51008655       -1.13195039        3.08984442
 C           -0.99000956        1.46394481        3.39867921
 C           -0.71006832        2.57041870        2.58710312
 C           -2.29271679        0.96468981        3.48016567
 C           -1.34143232        3.66004342        0.53896911
 C           -1.70112509        3.09778303        1.76468269
 C           -1.92336008        3.55210507       -1.82941235
 C           -2.29607172        3.83378184       -0.45778903
 C           -2.51650165        1.47723484       -2.99265403
 C           -2.92661588        2.66105200       -2.38234453
 C           -2.90868415       -0.84957992       -3.47869785
 C           -3.26276429       -2.07053445       -2.77034205
 C           -3.36916543        0.36811432       -2.99878054
 C           -3.92517210       -2.88260627       -0.60699139
 C           -4.26558706       -2.46177145        0.74373161
 C           -4.11371178       -2.00062622       -1.66937611
 C           -4.29150002       -0.48144891        2.13763460
 C           -4.67187062       -1.14874053        0.96587804
 C           -3.33446603        1.65738867        2.87221295
 C           -3.03070740        2.80586369        2.04127789
 C           -4.39606327        0.90561199        2.21979838
 C           -3.65331318        3.35652343       -0.26058781
 C           -4.05461026        2.65125385       -1.46822598
 C           -4.02316365        2.86746175        0.98303567
 C           -4.85350272        1.67699209        1.07856405
 C           -4.51439564        0.36365441       -2.20710606
 C           -4.85546535       -0.83900489       -1.46373487
 C           -5.19842800       -0.43671432       -0.10815039
 C           -4.83590697        1.50993639       -1.37602179
 C           -5.24929730        1.01402910       -0.07219988




