%chk=000020.chk
%mem=8GB
%Nproc=16
#p B3LYP/6-31G* opt pop=NPA

Template file

0 1
 C            5.43617870        0.27615569        0.42368929
 C            5.02649576        1.66995836        0.51154964
 C            4.56874006        2.08627205       -0.80135245
 C            5.29166905       -0.14609233       -0.96158047
 C            4.68278963        0.94766970       -1.69738143
 C            4.90793443       -1.44633172       -1.25309803
 C            4.69964361       -2.39761559       -0.17281354
 C            5.12554027       -0.60481565        1.45435555
 C            4.71124979       -1.96325591        1.14523583
 C            4.33275348       -0.14774502        2.58333578
 C            4.35624143        2.12521632        1.63475129
 C            4.00504680        1.19456974        2.69839368
 C            3.24950104        3.05232448        1.46916239
 C            3.46413252        2.92514080       -0.93346703
 C            2.73731412        3.31046691        0.20020270
 C            2.85222440        2.96784507       -2.17882153
 C            3.64517031        0.69681330       -2.59279063
 C            2.89084643        1.77999121       -3.01761417
 C            3.86468097       -1.66321740       -2.24212468
 C            3.10076020       -0.58748525       -2.67105665
 C            3.66270353       -3.31673677       -0.59886865
 C            3.21315259       -2.91234123       -1.92117491
 C            2.70581451       -3.75304494        0.31030944
 C            3.59101186       -2.30043471        2.01048107
 C            3.31033340       -1.14647105        2.84424063
 C            2.52932079       -3.04011025        1.49934587
 C            1.98986129       -0.74946258        3.02884612
 C            2.68534119        1.55782161        3.17827080
 C            2.32912418        2.82167905        2.56150663
 C            1.69694392        0.58363884        3.32313682
 C            0.98639265        3.08585751        2.37084733
 C            1.40617927        3.73598949        0.07693857
 C            0.56215772        3.71396992        1.19976010
 C            1.54072523        3.55874735       -2.31179679
 C            0.89198912        4.04559484       -1.18649108
 C            1.55228391        1.55504320       -3.52071197
 C            0.78333023        2.75316260       -3.25683076
 C            1.72920609       -0.76079592       -2.90177049
 C            0.95634484        0.32059851       -3.32647667
 C            1.87283897       -3.09473973       -2.23533799
 C            1.11374927       -1.99967148       -2.66512974
 C            1.62377215       -4.44061556       -0.21746443
 C            1.23077887       -4.13950072       -1.58615163
 C            0.40694860       -4.54147033        0.55711194
 C            1.23646675       -2.79676552        1.97700158
 C            0.95919278       -1.61948979        2.67742146
 C            0.18994322       -3.63406809        1.58871351
 C           -0.36000127       -1.26180108        2.93824782
 C            0.36521966        0.99774886        3.36446625
 C            0.07216301        2.33374301        3.09140387
 C           -0.65628889        0.04757755        3.32744893
 C           -1.24003781        2.76529665        3.11776717
 C           -0.78937404        4.05771466        1.08067561
 C           -1.68319477        3.67843714        2.08070997
 C           -0.45536370        4.35010428       -1.32464192
 C           -1.29795769        4.43594625       -0.15168204
 C           -0.59068584        2.65654184       -3.08172850
 C           -1.21086807        3.67186006       -2.36625850
 C           -0.42971841        0.24064138       -3.26576170
 C           -1.20442422        1.40282761       -3.13725170
 C           -0.28367326       -2.10359366       -2.74615562
 C           -1.02787079       -1.01204947       -3.19571176
 C           -0.20842144       -4.25493603       -1.66257154
 C           -0.65645725       -4.79900696       -0.39413818
 C           -0.94414597       -3.23637120       -2.25110577
 C           -1.95759120       -4.55604105        0.00119883
 C           -1.12211951       -3.32639299        1.95456693
 C           -1.38001753       -2.18328979        2.71148708
 C           -2.17672031       -3.97820904        1.31229960
 C           -2.69422938       -1.83801740        3.00608702
 C           -1.98377202        0.45807407        3.48005698
 C           -2.29717458        1.80573974        3.35894885
 C           -3.01085574       -0.46176432        3.32749719
 C           -3.05035740        3.32294210        1.72808716
 C           -3.44748830        2.19587545        2.55963400
 C           -2.63731207        4.01261169       -0.53457942
 C           -2.56396434        3.48302373       -1.88737448
 C           -3.45605295        3.38006958        0.39850094
 C           -2.57671071        1.29919991       -2.89259061
 C           -3.23856377        2.30791758       -2.18602353
 C           -2.40874301       -1.11140351       -3.28914800
 C           -3.21421515        0.08359390       -3.11577030
 C           -2.32038841       -3.19643813       -2.01937316
 C           -2.84793773       -3.86227124       -0.91393497
 C           -3.08283754       -2.20511204       -2.61909313
 C           -3.49290821       -3.36718713        1.28529840
 C           -3.77119937       -2.35161621        2.17858779
 C           -3.86718238       -3.20401663       -0.11034812
 C           -4.18965851       -0.08205447        2.56082017
 C           -4.27787266        1.20716203        2.04063587
 C           -4.55711212       -1.21738504        1.73146982
 C           -4.43218103        2.49603062       -0.05476692
 C           -4.35464262        1.99490286       -1.41744514
 C           -4.87178801        1.39982321        0.79585390
 C           -4.37782767       -0.27464755       -2.32172525
 C           -4.21297112       -1.64973470       -1.89201354
 C           -4.39683687       -1.99450126       -0.55397274
 C           -4.79091943       -1.02215943        0.37306722
 C           -4.89801362        0.64975700       -1.43455788
 C           -5.14555392        0.25258854       -0.05939523




