%chk=000124.chk
%mem=8GB
%Nproc=16
#p B3LYP/6-31G* opt pop=NPA

Template file

0 1
 C            4.57137961       -2.38322921        0.80387617
 C            4.75099845       -1.03647808        1.31923431
 C            5.13693257       -0.18336108        0.20854682
 C            4.63803110       -2.31258555       -0.64842198
 C            4.87505541       -0.92628600       -1.01287766
 C            3.77105020       -3.07306183       -1.41883521
 C            2.88231123       -4.02982669       -0.77867817
 C            3.64545667       -3.21658008        1.41375591
 C            2.83451016       -4.11237575        0.60445967
 C            2.79426321       -2.67060680        2.45624580
 C            3.87565893       -0.53592340        2.27814148
 C            2.77062626       -1.29720153        2.66592541
 C            3.87053802        0.83287485        2.49961100
 C            4.82284335        1.17252932        0.25790617
 C            4.39817896        1.71525332        1.46818605
 C            4.52463164        1.83341775       -0.93110170
 C            4.11864625       -0.32757309       -2.01562565
 C            4.13787126        1.05804020       -2.10078397
 C            3.03391198       -2.42864350       -2.49155197
 C            3.08312535       -1.04280012       -2.62571519
 C            1.64316665       -4.05970529       -1.53387666
 C            1.75797113       -3.10938190       -2.62380226
 C            0.42389724       -4.16625834       -0.87680136
 C            1.54884626       -4.25695591        1.26219459
 C            1.54990105       -3.40997848        2.43797725
 C            0.37822547       -4.32967926        0.51342939
 C            0.36840012       -2.76837260        2.77005188
 C            1.56158697       -0.66891295        2.98873673
 C            0.38577856       -1.41395023        3.11583027
 C            2.68448417        1.45394505        3.05204194
 C            1.51341724        0.71560704        3.14439434
 C            3.61103978        2.93804463        1.48635874
 C            2.62408101        2.81161038        2.54972563
 C            3.71971971        3.04553596       -0.91407316
 C            3.25578944        3.56141510        0.29198752
 C            3.04265997        1.74748469       -2.75078563
 C            2.82348489        3.00419837       -2.06037291
 C            1.97410119       -0.37006954       -3.15049997
 C            1.94347491        1.02540236       -3.17568576
 C            0.64117462       -2.37079795       -2.99124310
 C            0.82829877       -1.09027314       -3.50167954
 C           -0.72309281       -3.75142387       -1.54998365
 C           -0.62023640       -2.74582564       -2.51670633
 C           -1.95695565       -4.03714757       -0.98232774
 C           -0.83114833       -4.11029488        1.17455566
 C           -0.82540599       -3.34288533        2.34568159
 C           -2.00723927       -4.26383139        0.44812129
 C           -2.00956778       -2.84091014        2.86610750
 C           -0.82268136       -0.75373091        3.35628041
 C           -2.00228992       -1.49559404        3.40941244
 C            0.28587873        1.37331589        3.08731785
 C           -0.89353776        0.63317473        3.20121388
 C            1.38564296        3.41428666        2.39235848
 C            0.24219937        2.75075179        2.84058714
 C            2.13585870        4.38817842        0.27491658
 C            1.26133168        4.41394309        1.43307739
 C            1.52733405        3.49610528       -1.92420981
 C            1.28564464        4.40762820       -0.90648390
 C            0.72636710        1.68194646       -3.29616505
 C            0.45896805        2.79053993       -2.49012026
 C           -0.26668772       -0.41681179       -4.02687308
 C           -0.30851681        1.03073055       -3.94146182
 C           -1.74224612       -1.98505441       -2.86317624
 C           -1.59719871       -0.91839840       -3.73850194
 C           -3.11002977       -3.23755713       -1.34583921
 C           -2.92337954       -2.10853714       -2.13419805
 C           -3.25480951       -3.71397022        0.94688277
 C           -3.26095878       -3.03769966        2.15724098
 C           -3.98530528       -3.17519959       -0.18937199
 C           -3.25461536       -0.86186615        3.04038916
 C           -4.05320195       -1.82865300        2.30864127
 C           -2.13321842        1.24301693        2.99039619
 C           -3.23023471        0.46585795        2.63776362
 C           -0.98639242        3.38979309        2.72671331
 C           -2.20667148        2.61058531        2.79537307
 C           -0.05712493        4.80903170        0.97315121
 C           -0.07474155        4.65615459       -0.47228235
 C           -1.16393250        4.39920469        1.69705818
 C           -0.86375332        3.09447584       -2.13193323
 C           -1.12267186        3.96323893       -1.06551299
 C           -1.67403669        1.42712786       -3.67546824
 C           -2.48514239        0.22033577       -3.61349152
 C           -1.92902474        2.46024161       -2.78148240
 C           -3.79927842       -1.02131298       -2.02019710
 C           -3.54137018        0.16634385       -2.71217771
 C           -4.79871608       -2.06531822       -0.02464020
 C           -4.85391694       -1.39094337        1.26464568
 C           -4.80416692       -1.04072629       -1.05350856
 C           -4.12626119        0.93123072        1.66789534
 C           -4.96599335        0.03473334        1.00903043
 C           -5.19701269        0.19996513       -0.41410099
 C           -3.11929880        3.11380355        1.78690991
 C           -2.38281826        4.07264420        0.98131604
 C           -2.34762570        3.90440876       -0.39981617
 C           -3.97478633        2.22071468        1.14927098
 C           -3.20999016        2.55477329       -2.24970355
 C           -4.05590270        1.37034204       -2.23450801
 C           -4.83818490        1.39630610       -1.00959290
 C           -3.41892490        3.26586344       -1.00412715
 C           -4.31444768        2.46840705       -0.18055142




