%chk=000078.chk
%mem=8GB
%Nproc=16
#p B3LYP/6-31G* opt pop=NPA

Template file

0 1
 C           -5.40870140        0.29972514        0.32038768
 C           -5.08173661       -0.86232739        1.12804560
 C           -4.22712925       -0.42139986        2.21924590
 C           -4.95052171        1.47559787        1.04087868
 C           -4.14642312        1.02438812        2.16554018
 C           -4.54541080        2.60064580        0.33638725
 C           -4.39171146        2.53469382       -1.10893328
 C           -5.27466558        0.23931800       -1.06300512
 C           -4.70346400        1.36433419       -1.78477343
 C           -4.79060508       -0.97999468       -1.69263541
 C           -4.80531156       -2.07311337        0.50941341
 C           -4.61051996       -2.12334706       -0.93310782
 C           -3.82268687       -2.95568642        1.10979983
 C           -3.09373810       -1.16151356        2.53460298
 C           -3.05953098       -2.51296251        2.18733738
 C           -1.91130848       -0.50093280        2.89106522
 C           -2.93653022        1.65419589        2.43015266
 C           -1.83692003        0.89458611        2.84889545
 C           -3.44880407        3.39679637        0.85715649
 C           -2.74836362        2.96164136        1.97804521
 C           -3.17770343        3.25218974       -1.46020739
 C           -2.69463358        3.92073052       -0.27046267
 C           -2.25236123        2.67368903       -2.31399237
 C           -3.76228173        0.83644959       -2.75656278
 C           -3.77050137       -0.61066356       -2.65818289
 C           -2.54506529        1.46878651       -2.96058378
 C           -2.55327797       -1.29499813       -2.69012638
 C           -3.45426024       -2.96273397       -1.19369825
 C           -3.15713049       -3.67039791        0.03416348
 C           -2.39903535       -2.47773200       -1.96317481
 C           -1.86322024       -4.11759501        0.24955004
 C           -1.95670748       -3.27397731        2.54436153
 C           -1.42116336       -4.20599536        1.56688063
 C           -0.77982139       -1.23952720        3.24259517
 C           -0.83089302       -2.62904919        3.18940984
 C            0.46566885       -0.61066910        3.31399723
 C           -0.63312262        1.52906501        3.15875003
 C            0.54123070        0.78210943        3.24689305
 C           -1.55786708        3.60777273        2.27081883
 C           -0.54770511        2.90741739        3.03574984
 C           -1.32750025        4.13186320       -0.10580553
 C           -0.87541984        4.30829850        1.19423947
 C           -0.93299580        3.11959706       -2.26882408
 C           -0.43200719        3.67660057       -1.08486244
 C           -0.05708267        2.65780204       -3.24083791
 C           -1.50190744        0.72130780       -3.49052446
 C           -1.42635855       -0.64396031       -3.19732346
 C           -0.36735558        1.40169270       -3.89617736
 C           -0.18755883       -1.29190253       -3.19101288
 C           -1.12358276       -3.00904216       -1.76695908
 C           -0.92169862       -3.96932926       -0.76784582
 C           -0.03555814       -2.48483522       -2.47296458
 C            0.34675459       -4.49719048       -0.57089998
 C           -0.00508829       -4.36866646        1.84039791
 C            0.36670321       -3.36478924        2.82206551
 C            0.85306117       -4.62554741        0.78502445
 C            1.62615470       -1.38238207        3.21969387
 C            1.55053454       -2.65699947        2.67173109
 C            2.86763021       -0.77430875        3.28971013
 C            1.78659619        1.42569975        3.24281398
 C            2.94852695        0.66976991        3.35998419
 C            0.72652465        3.50727783        2.70007851
 C            0.54026148        4.26082896        1.47001715
 C            1.88540350        2.75852513        2.83594550
 C            0.94806510        3.63028878       -0.81241461
 C            1.43509509        4.05997483        0.42937412
 C            1.36739002        2.68688239       -2.99010996
 C            1.82734872        3.05517774       -1.73870939
 C            0.86755301        0.67631949       -4.08490337
 C            0.91662849       -0.68038424       -3.79424565
 C            1.95615510        1.53084847       -3.63885945
 C            2.17075279       -1.26086762       -3.68238889
 C            1.20942034       -3.11960661       -2.40647744
 C            1.44109211       -4.05673204       -1.40866880
 C            2.32090934       -2.51066930       -2.97097647
 C            2.18627771       -4.05326135        0.80815945
 C            2.49163357       -3.04550593        1.71230108
 C            2.61746614       -3.90459767       -0.56458304
 C            3.90595169       -1.24151002        2.39062390
 C            3.57622366       -2.21035327        1.44524632
 C            4.14601238        1.07978914        2.64486114
 C            4.72218052       -0.10081935        2.02019195
 C            2.98603819        3.15859312        2.08313959
 C            2.74901732        3.77321439        0.78679113
 C            4.14188392        2.28870462        1.96477687
 C            3.08568241        2.61800831       -1.33404792
 C            3.62896863        3.13029595       -0.16593852
 C            4.59509539        2.34683631        0.58386983
 C            3.08215925        0.93681578       -3.08064535
 C            3.30531081       -0.41329658       -3.34707035
 C            3.69475110        1.53173085       -1.97400324
 C            3.54697186       -2.43781695       -2.19081821
 C            3.53703322       -2.91173127       -0.88082406
 C            4.08507320       -2.12647737        0.14067361
 C            4.20860402       -1.18494527       -2.50997887
 C            5.23524277       -0.02474341        0.73476665
 C            5.15053794        1.22382675       -0.00932742
 C            4.78173159        0.89585433       -1.37491212
 C            4.98126272       -1.11171846       -0.19494615
 C            4.93837699       -0.53795079       -1.52826777




