%chk=000402.chk
%mem=8GB
%Nproc=16
#p B3LYP/6-31G* opt pop=NPA

Template file

0 1
 C            2.48089882       -3.75094201        1.68426343
 C            3.11872538       -3.68796614        0.37992204
 C            3.94659618       -2.49004179        0.35503396
 C            3.09425323       -2.74123331        2.52563296
 C            3.89746754       -1.88365754        1.67002966
 C            2.34378811       -2.16530220        3.53546421
 C            0.92461048       -2.46723021        3.61890653
 C            1.11078882       -3.98018459        1.75580352
 C            0.31814181       -3.20573314        2.60799174
 C            0.51733214       -4.67394548        0.71362577
 C            2.39036882       -4.04357996       -0.75472685
 C            1.14912982       -4.65935743       -0.59740874
 C            2.68591717       -3.42412262       -1.96724298
 C            3.93387749       -1.68382790       -0.77412688
 C            3.55937877       -2.26151488       -1.97933980
 C            3.88561639       -0.29372688       -0.63766614
 C            3.77527399       -0.50482893        1.78114827
 C            3.88561639        0.29372688        0.63766614
 C            2.51089817       -0.75097954        3.81499680
 C            3.28490438        0.03896417        2.97016039
 C            0.25206397       -1.29172083        4.13488562
 C            1.23508257       -0.23264940        4.27815744
 C           -1.00276602       -0.96994679        3.65260152
 C           -1.03378841       -2.98725649        2.31130066
 C           -1.70700858       -1.89410127        2.88049491
 C           -0.91459529       -4.58529550        0.52131075
 C           -1.67957455       -3.81047296        1.38398792
 C            0.10645806       -4.42555054       -1.58477199
 C           -1.17101707       -4.49560662       -0.90739499
 C            1.61730218       -3.18218303       -2.92595589
 C            0.30916945       -3.46603220       -2.56489627
 C            3.15286417       -1.41490484       -3.08187809
 C            1.91693039       -1.95372078       -3.62831055
 C            3.77527399        0.50482893       -1.78114827
 C            3.28490438       -0.03896417       -2.97016039
 C            3.89746754        1.88365754       -1.67002966
 C            3.93387749        1.68382790        0.77412688
 C            3.94659618        2.49004179       -0.35503396
 C            3.15286417        1.41490484        3.08187809
 C            3.55937877        2.26151488        1.97933980
 C            0.88943647        1.07789528        3.95299773
 C            1.91693039        1.95372078        3.62831055
 C           -1.38742684        0.36364776        3.64252345
 C           -0.41530116        1.35818314        3.53435577
 C           -2.71169017        0.66754207        3.38737200
 C           -3.03514624       -1.61870546        2.54050227
 C           -3.56279500       -0.35793199        2.81056265
 C           -2.97239205       -3.50555478        0.97948293
 C           -3.67810813       -2.40190189        1.59299324
 C           -2.22163747       -3.69931472       -1.34037188
 C           -3.26547821       -3.48638703       -0.44426419
 C           -0.70372020       -2.54298574       -2.83866607
 C           -2.00332088       -2.78243711       -2.37287063
 C            0.88943647       -1.07789528       -3.95299773
 C           -0.41530116       -1.35818314       -3.53435577
 C            2.51089817        0.75097954       -3.81499680
 C            1.23508257        0.23264940       -4.27815744
 C            3.09425323        2.74123331       -2.52563296
 C            2.34378811        2.16530220       -3.53546421
 C            3.11872538        3.68796614       -0.37992204
 C            2.48089882        3.75094201       -1.68426343
 C            2.68591717        3.42412262        1.96724298
 C            1.61730218        3.18218303        2.92595589
 C            2.39036882        4.04357996        0.75472685
 C           -0.70372020        2.54298574        2.83866607
 C            0.30916945        3.46603220        2.56489627
 C           -3.03525671        1.93146389        2.75737809
 C           -2.00332088        2.78243711        2.37287063
 C           -4.41152066        0.27690887        1.81517673
 C           -4.15437740        1.70407342        1.85801022
 C           -4.48050776       -1.75278579        0.56591309
 C           -4.23854428       -2.43872817       -0.69083783
 C           -4.62130169       -0.36705248        0.59702745
 C           -3.03525671       -1.93146389       -2.75737809
 C           -4.15437740       -1.70407342       -1.85801022
 C           -1.38742684       -0.36364776       -3.64252345
 C           -2.71169017       -0.66754207       -3.38737200
 C            0.25206397        1.29172083       -4.13488562
 C            0.92461048        2.46723021       -3.61890653
 C           -1.00276602        0.96994679       -3.65260152
 C            1.11078882        3.98018459       -1.75580352
 C            0.31814181        3.20573314       -2.60799174
 C            1.14912982        4.65935743        0.59740874
 C            0.10645806        4.42555054        1.58477199
 C            0.51733214        4.67394548       -0.71362577
 C           -2.22163747        3.69931472        1.34037188
 C           -1.17101707        4.49560662        0.90739499
 C           -0.91459529        4.58529550       -0.52131075
 C           -4.23854428        2.43872817        0.69083783
 C           -3.26547821        3.48638703        0.44426419
 C           -4.62130169        0.36705248       -0.59702745
 C           -4.41152066       -0.27690887       -1.81517673
 C           -3.56279500        0.35793199       -2.81056265
 C           -4.48050776        1.75278579       -0.56591309
 C           -1.70700858        1.89410127       -2.88049491
 C           -1.03378841        2.98725649       -2.31130066
 C           -1.67957455        3.81047296       -1.38398792
 C           -2.97239205        3.50555478       -0.97948293
 C           -3.03514624        1.61870546       -2.54050227
 C           -3.67810813        2.40190189       -1.59299324




