%chk=000139.chk
%mem=8GB
%Nproc=16
#p B3LYP/6-31G* opt pop=NPA

Template file

0 1
 C           -4.81763815       -1.69965481       -1.07808552
 C           -4.05154415       -2.84822798       -0.62523477
 C           -3.13636076       -3.21717649       -1.69333191
 C           -4.25987404       -1.27522008       -2.35359164
 C           -3.11439798       -2.12141208       -2.64032076
 C           -4.19111936        0.07355858       -2.66394287
 C           -4.67966579        1.06413744       -1.71663969
 C           -5.22648339       -0.75260327       -0.15011939
 C           -5.17573942        0.66243161       -0.48628618
 C           -4.79835619       -0.89376686        1.22978163
 C           -3.60975476       -2.91939968        0.69534990
 C           -3.81582591       -1.83039840        1.54838069
 C           -2.61355418       -3.84261195        0.99767217
 C           -1.94210246       -3.83691102       -1.35627966
 C           -1.84592112       -4.41593837       -0.09429378
 C           -0.77313751       -3.46784864       -2.02404240
 C           -1.89286114       -1.54512182       -2.97452684
 C           -0.71448237       -2.24229437       -2.69805981
 C           -2.97627966        0.59631888       -3.26311900
 C           -1.83253110       -0.19389963       -3.32433121
 C           -3.79444127        2.21256366       -1.78249189
 C           -2.84481103        1.97990824       -2.85378578
 C           -3.34161750        2.81978763       -0.61462052
 C           -4.78196418        1.38943390        0.70807665
 C           -4.74396764        0.43824724        1.80493709
 C           -3.80757515        2.38451101        0.63413932
 C           -3.88772949        0.67679060        2.86500260
 C           -2.88668644       -1.54898857        2.55705389
 C           -2.98849629       -0.37802337        3.29682471
 C           -1.68021315       -3.54748073        2.06759155
 C           -1.71190084       -2.28944763        2.64180545
 C           -0.54334646       -4.78291273        0.42955216
 C           -0.40359975       -4.14634149        1.72857683
 C            0.40359975       -4.14634149       -1.72857683
 C            0.54334646       -4.78291273       -0.42955216
 C            1.68021315       -3.54748073       -2.06759155
 C            0.51875816       -1.65804581       -3.00282803
 C            1.71190084       -2.28944763       -2.64180545
 C           -0.59187082        0.42713711       -3.43730224
 C            0.55053298       -0.36051015       -3.51249857
 C           -1.57350006        2.51941007       -2.73311228
 C           -0.47960536        1.80696009       -3.22548649
 C           -2.20759898        3.62759013       -0.68822761
 C           -1.35996948        3.52551448       -1.79637364
 C           -1.77780136        4.28580362        0.45627677
 C           -3.14949418        2.77586209        1.80521353
 C           -3.14881383        1.92585392        2.90842464
 C           -2.17483708        3.76423653        1.74690653
 C           -1.77029888        0.24322945        3.78281927
 C           -1.89668582        1.67714333        3.60455195
 C           -0.51875816       -1.65804581        3.00282803
 C           -0.55053298       -0.36051015        3.51249857
 C            0.77313751       -3.46784864        2.02404240
 C            0.71448237       -2.24229437        2.69805981
 C            1.84592112       -4.41593837        0.09429378
 C            2.61355418       -3.84261195       -0.99767217
 C            1.94210246       -3.83691102        1.35627966
 C            3.60975476       -2.91939968       -0.69534990
 C            2.88668644       -1.54898857       -2.55705389
 C            3.81582591       -1.83039840       -1.54838069
 C            1.77029888        0.24322945       -3.78281927
 C            2.98849629       -0.37802337       -3.29682471
 C            0.77570228        2.42157884       -3.25347967
 C            1.89668582        1.67714333       -3.60455195
 C           -0.13694128        4.18488503       -1.80196653
 C            0.96850893        3.60638846       -2.54634040
 C           -0.39807633        4.72495400        0.56529675
 C            0.39807633        4.72495400       -0.56529675
 C           -0.96850893        3.60638846        2.54634040
 C           -0.77570228        2.42157884        3.25347967
 C            0.13694128        4.18488503        1.80196653
 C            0.59187082        0.42713711        3.43730224
 C            0.47960536        1.80696009        3.22548649
 C            1.89286114       -1.54512182        2.97452684
 C            1.83253110       -0.19389963        3.32433121
 C            3.13636076       -3.21717649        1.69333191
 C            4.05154415       -2.84822798        0.62523477
 C            3.11439798       -2.12141208        2.64032076
 C            4.81763815       -1.69965481        1.07808552
 C            4.25987404       -1.27522008        2.35359164
 C            4.79835619       -0.89376686       -1.22978163
 C            5.22648339       -0.75260327        0.15011939
 C            3.88772949        0.67679060       -2.86500260
 C            3.14881383        1.92585392       -2.90842464
 C            4.74396764        0.43824724       -1.80493709
 C            2.17483708        3.76423653       -1.74690653
 C            1.77780136        4.28580362       -0.45627677
 C            3.14949418        2.77586209       -1.80521353
 C            1.35996948        3.52551448        1.79637364
 C            1.57350006        2.51941007        2.73311228
 C            2.20759898        3.62759013        0.68822761
 C            2.97627966        0.59631888        3.26311900
 C            4.19111936        0.07355858        2.66394287
 C            2.84481103        1.97990824        2.85378578
 C            5.17573942        0.66243161        0.48628618
 C            4.78196418        1.38943390       -0.70807665
 C            3.80757515        2.38451101       -0.63413932
 C            3.34161750        2.81978763        0.61462052
 C            4.67966579        1.06413744        1.71663969
 C            3.79444127        2.21256366        1.78249189




