%chk=000427.chk
%mem=8GB
%Nproc=16
#p B3LYP/6-31G* opt pop=NPA

Template file

0 1
 C           -4.51778270       -1.96942167       -0.00986751
 C           -4.00007485       -2.51118354        1.23675984
 C           -4.17027133       -1.50058405        2.26518177
 C           -5.00847481       -0.62811156        0.26150270
 C           -4.59929702       -0.27801297        1.61026219
 C           -4.93381012        0.32962427       -0.73333571
 C           -4.38988844       -0.04656724       -2.02288478
 C           -3.83705553       -2.24106456       -1.19630460
 C           -3.64503262       -1.21999287       -2.13320188
 C           -3.02779169       -3.37188524       -1.23959077
 C           -2.84524101       -3.28844104        1.20018826
 C           -2.55214182       -3.94193897        0.01205376
 C           -1.82600935       -3.06680837        2.13259608
 C           -3.24324827       -1.42034243        3.28825887
 C           -2.08921952       -2.30243494        3.26533889
 C           -2.79021456       -0.11207067        3.72881027
 C           -3.89399533        0.90214041        1.83768933
 C           -3.13325520        1.02807130        3.00433201
 C           -4.39824381        1.63981900       -0.40830939
 C           -3.75738312        1.83960988        0.80675371
 C           -3.91611273        1.17194686       -2.65251229
 C           -3.79522888        2.18110043       -1.61291371
 C           -2.92836841        1.08476658       -3.61636794
 C           -2.56126080       -1.27340413       -3.01857496
 C           -2.29031272       -0.19727231       -3.85523113
 C           -1.93515445       -3.42641012       -2.19031135
 C           -1.60854489       -2.28179654       -2.89491691
 C           -1.21874003       -4.45620468       -0.21076619
 C           -0.87800036       -4.22581931       -1.60567476
 C           -0.50185271       -3.41332355        1.82982056
 C           -0.23866749       -4.26632205        0.75381931
 C            0.55471891       -2.82937623        2.54735132
 C           -0.99669818       -1.61167343        3.91980673
 C           -1.42700467       -0.25578824        4.21228796
 C            0.29235119       -1.81112324        3.46382743
 C           -0.53659920        0.80149679        4.03657756
 C           -2.38558898        2.18177425        3.21051273
 C           -1.06687568        2.06440338        3.81468558
 C           -2.79331289        2.83765647        0.89852367
 C           -2.29587254        3.16374249        2.14794284
 C           -2.61968420        2.92313279       -1.51597334
 C           -2.12565197        3.27059786       -0.25142063
 C           -1.89571042        2.10405462       -3.66132422
 C           -1.80418991        3.04821659       -2.64319453
 C           -0.91542766        0.05522862       -4.24206837
 C           -0.67524152        1.48398797       -4.15010086
 C           -0.27214155       -2.02150925       -3.20906996
 C            0.07587906       -0.81226932       -3.81502070
 C            0.44554086       -3.95283828       -1.92595200
 C            0.73649264       -2.90532422       -2.80547062
 C            1.07449694       -4.50805152        0.37406008
 C            1.42073358       -4.39091923       -1.03314243
 C            1.88372890       -3.11821726        2.22171262
 C            2.16263739       -3.95006416        1.14697426
 C            2.89793749       -2.27935930        2.67955660
 C            1.21963679       -0.79375738        3.63631367
 C            0.78573826        0.53179615        3.66790278
 C            2.55458846       -1.07614565        3.41690886
 C            1.60670590        1.54889264        3.15395950
 C           -0.23008203        3.10283219        3.25664973
 C           -1.00779376        3.81438616        2.25358333
 C            1.11061583        2.84772665        3.00365251
 C           -0.96918498        4.05280635       -0.14197906
 C           -0.36675069        4.25548429        1.10402657
 C           -0.63083268        3.78246502       -2.55384793
 C           -0.27801152        4.40673102       -1.29605174
 C            0.54885542        1.94745615       -3.67051419
 C            0.58643072        3.22592993       -3.12814349
 C            1.36352599       -0.31923640       -3.66129378
 C            1.55001138        1.02636413       -3.34165584
 C            2.06696747       -2.57478260       -3.06098834
 C            2.39442069       -1.22102239       -3.47396170
 C            2.77702805       -3.88209657       -1.12217043
 C            3.22826812       -3.58266890        0.22507141
 C            3.10835128       -3.02413743       -2.15345747
 C            3.99904268       -1.95394005        1.78746229
 C            3.97308068       -2.43306987        0.47906740
 C            3.43809935       -0.01285817        2.98508390
 C            2.90988456        1.24973352        2.73291437
 C            4.40240232       -0.58767621        2.06172455
 C            3.58346536        2.10935032        1.86041656
 C            1.77682331        3.73583044        2.17013481
 C            1.00732972        4.47268590        1.17920029
 C            3.03152399        3.34672285        1.56246869
 C            1.16917615        4.50658411       -1.26081738
 C            1.69399425        3.61430210       -2.28066179
 C            1.80288131        4.56160673       -0.03290795
 C            3.00934758        3.78112942        0.17484866
 C            2.63634375        1.40980728       -2.53982298
 C            2.65446037        2.67178078       -1.93384838
 C            3.45018269        2.89932804       -0.80874784
 C            3.57790619       -0.80196121       -2.75289559
 C            3.98075389       -1.89682110       -1.88355793
 C            4.38337822       -1.61197552       -0.58019194
 C            3.66874982        0.50174128       -2.27916469
 C            4.88971394        0.19034702        1.02916946
 C            4.50824884        1.58829952        0.95889962
 C            4.39893888        1.95521912       -0.44350057
 C            4.88689688       -0.33892233       -0.32333053
 C            4.54504355        0.74828858       -1.22963286




