%chk=000230.chk
%mem=8GB
%Nproc=16
#p B3LYP/6-31G* opt pop=NPA

Template file

0 1
 C            3.88913580       -3.33344243        0.41737238
 C            2.67251792       -4.03702194        0.77596280
 C            2.24497313       -3.56041500        2.08160557
 C            4.21883412       -2.44387203        1.51987963
 C            3.08853782       -2.43876528        2.43225467
 C            4.87470751       -1.24951497        1.26944653
 C            5.15232429       -0.84819870       -0.10285728
 C            4.05938167       -2.90634771       -0.89072524
 C            4.69142293       -1.62325958       -1.15603107
 C            2.96998652       -3.07657668       -1.83825480
 C            1.69844443       -4.28964361       -0.18550845
 C            1.75741257       -3.62157314       -1.41325496
 C            0.47127000       -4.74237650        0.27722182
 C            0.88189239       -3.50241943        2.34300102
 C            0.06657425       -4.36992392        1.62510760
 C            0.32865985       -2.32378716        2.85366977
 C            2.49621823       -1.23254881        2.78347813
 C            1.13569273       -1.19943602        3.08127315
 C            4.44935666       -0.06131322        1.98533051
 C            3.19412656       -0.03690817        2.59445635
 C            5.00647334        0.59638827       -0.17153123
 C            4.87514873        1.07451903        1.19177055
 C            4.21963702        1.17350744       -1.16761961
 C            3.96480454       -0.98343041       -2.23662299
 C            2.95634053       -1.91380274       -2.70733724
 C            3.64363745        0.36713838       -2.15708281
 C            1.73292667       -1.42294248       -3.13362613
 C            0.57514668       -3.24392329       -2.06660782
 C            0.62022793       -2.25010295       -3.04832211
 C           -0.69604837       -4.63267618       -0.57091548
 C           -0.65093091       -3.80011877       -1.68226009
 C           -1.36806468       -4.16181122        1.61241870
 C           -1.84831864       -4.58140730        0.30845862
 C           -1.05921674       -2.21445846        2.97834139
 C           -1.89192462       -3.01488961        2.19816998
 C           -1.59777899       -1.12104049        3.63933968
 C            0.55335775        0.01510983        3.43200175
 C           -0.76195928        0.04104352        3.86836374
 C            2.53571779        1.18470806        2.75570850
 C            1.17465826        1.20220741        3.05468048
 C            4.25897051        2.29322838        1.40537816
 C            3.16396829        2.35824792        2.35671052
 C            3.77735560        2.48915762       -0.99885596
 C            3.86507240        3.08762190        0.25526601
 C            2.94738271        3.06091164       -1.95535166
 C            2.55935348        0.83918560       -2.89292173
 C            1.55343149       -0.04611520       -3.29182318
 C            2.32905566        2.20693110       -2.95056416
 C            0.29483366        0.44887211       -3.64534617
 C           -0.54341764       -1.84835583       -3.68183847
 C           -0.72121152       -0.43819985       -3.97200607
 C           -1.84879901       -3.31415778       -2.21724033
 C           -1.81567308       -2.38069754       -3.24414396
 C           -3.02216361       -4.03309608       -0.17022536
 C           -3.04013824       -3.47349536       -1.51135239
 C           -3.13546554       -2.53222969        1.77606270
 C           -3.76613636       -3.12478579        0.68274590
 C           -2.92146092       -0.65560506        3.27221968
 C           -3.63567693       -1.33221174        2.28983696
 C           -1.55879037        1.22621504        3.61910646
 C           -2.89723625        0.79958907        3.25913344
 C            0.40345112        2.34483664        2.79794166
 C           -0.98545863        2.28940768        2.93908132
 C            2.35607042        3.50576804        2.00086436
 C            2.80487928        3.97707777        0.69800576
 C            0.99542636        3.49755837        2.27375971
 C            1.97017967        4.06454463       -1.55557589
 C            1.85869967        4.43431469       -0.21510285
 C            0.97909790        2.68708473       -3.18084772
 C           -0.04065614        1.75985842       -3.32415610
 C            0.76756069        3.85461357       -2.34977514
 C           -1.31414275        2.04421580       -2.82369508
 C           -2.08854897       -0.08193755       -3.64329682
 C           -2.78178735       -1.29185952       -3.24591136
 C           -2.33282427        1.09363010       -2.94697754
 C           -4.01801365       -2.39551399       -1.52247681
 C           -4.59099060       -2.31182335       -0.18825283
 C           -3.73570092       -1.23132054       -2.23608169
 C           -4.62840932       -0.64169394        1.59606797
 C           -5.03771465       -1.08840512        0.27379019
 C           -3.58741716        1.48294432        2.26342272
 C           -4.59874983        0.81328855        1.57541435
 C           -1.79504803        3.11172279        2.15852266
 C           -3.05038726        2.66113563        1.73545828
 C            0.20357221        4.41455976        1.59426139
 C            0.62311549        4.85367722        0.27160166
 C           -1.23754054        4.24180546        1.57059398
 C           -0.47629020        4.05736660       -1.76965278
 C           -1.54837033        3.23883758       -2.13333522
 C           -0.54300161        4.79346108       -0.59139846
 C           -1.70762006        4.67531827        0.26666038
 C           -3.64273696        3.23905899        0.61326164
 C           -2.79216105        3.45803881       -1.54699190
 C           -2.85644822        4.10245657       -0.24587390
 C           -3.46488784        1.17749282       -2.14024948
 C           -4.11132411        0.01081141       -1.71493117
 C           -4.95779816        0.05839749       -0.60839986
 C           -4.97182303        1.23815883        0.23495222
 C           -3.78419539        2.39650426       -1.55373730
 C           -4.45056396        2.41692295       -0.26248673




