%chk=000117.chk
%mem=8GB
%Nproc=16
#p B3LYP/6-31G* opt pop=NPA

Template file

0 1
 C            4.71567239       -2.24448668       -0.24518276
 C            4.85696736       -1.04129952       -1.04732344
 C            5.16216221        0.05988918       -0.15009907
 C            4.73128154       -1.84730434        1.15505909
 C            4.91755673       -0.40819847        1.20458143
 C            3.86109581       -2.44519762        2.05418018
 C            3.02933164       -3.55771042        1.62520051
 C            3.84680612       -3.23728887       -0.67268058
 C            3.04106616       -3.96021904        0.29816256
 C            3.01556026       -2.98533694       -1.83700642
 C            4.00150843       -0.81586220       -2.12108962
 C            2.94628818       -1.69948925       -2.35918431
 C            3.94954176        0.46480116       -2.64880961
 C            4.77401106        1.35062161       -0.50530163
 C            4.35186491        1.58805235       -1.81288686
 C            4.40904105        2.24476001        0.50120116
 C            4.13742827        0.36921420        2.05344978
 C            4.12295387        1.73872032        1.83510155
 C            3.06612578       -1.60404681        2.93343854
 C            3.09980923       -0.22145980        2.78170366
 C            1.76205485       -3.45833269        2.32433088
 C            1.78904959       -2.25918190        3.14074300
 C            0.57785395       -3.78408463        1.67669766
 C            1.79008974       -4.31510294       -0.34654405
 C            1.80147923       -3.75877863       -1.68446668
 C            0.59535832       -4.27311552        0.36441623
 C            0.60857935       -3.26583855       -2.18731023
 C            1.73111274       -1.22504798       -2.86854215
 C            0.58559145       -2.02659803       -2.83378691
 C            2.78317104        0.87176524       -3.40571377
 C            1.64823771        0.06728163       -3.38975848
 C            3.43464250        2.68266623       -2.08473224
 C            2.64352512        2.30734740       -3.24230957
 C            3.45287874        3.30521787        0.21599348
 C            2.83122283        3.34474223       -1.01987662
 C            3.05814535        2.54109025        2.39822943
 C            2.66932862        3.53513188        1.41034237
 C            1.98124868        0.53428317        3.14954529
 C            2.06210284        1.93053659        3.14641752
 C            0.63940738       -1.48369389        3.22761064
 C            0.75490133       -0.10553006        3.39047088
 C           -0.60857935       -3.26583855        2.18731023
 C           -0.58559145       -2.02659803        2.83378691
 C           -1.80147923       -3.75877863        1.68446668
 C           -0.59535832       -4.27311552       -0.36441623
 C           -0.57785395       -3.78408463       -1.67669766
 C           -1.79008974       -4.31510294        0.34654405
 C           -1.76205485       -3.45833269       -2.32433088
 C           -0.63940738       -1.48369389       -3.22761064
 C           -1.78904959       -2.25918190       -3.14074300
 C            0.39698551        0.64085772       -3.62344597
 C           -0.75490133       -0.10553006       -3.39047088
 C            1.39243975        2.87161762       -3.40233658
 C            0.29355713        2.01406591       -3.80342148
 C            1.49003210        3.72425145       -1.10818688
 C            0.88552183        3.74350206       -2.35753954
 C            1.32382596        3.86773651        1.30334863
 C            0.70276090        3.82232714        0.04830659
 C            0.92326392        2.68154206        3.40137181
 C            0.55620819        3.72118297        2.44998035
 C           -0.39698551        0.64085772        3.62344597
 C           -0.29355713        2.01406591        3.80342148
 C           -1.73111274       -1.22504798        2.86854215
 C           -1.64823771        0.06728163        3.38975848
 C           -3.01556026       -2.98533694        1.83700642
 C           -2.94628818       -1.69948925        2.35918431
 C           -3.04106616       -3.96021904       -0.29816256
 C           -3.02933164       -3.55771042       -1.62520051
 C           -3.84680612       -3.23728887        0.67268058
 C           -3.06612578       -1.60404681       -2.93343854
 C           -3.86109581       -2.44519762       -2.05418018
 C           -1.98124868        0.53428317       -3.14954529
 C           -3.09980923       -0.22145980       -2.78170366
 C           -0.92326392        2.68154206       -3.40137181
 C           -0.55620819        3.72118297       -2.44998035
 C           -2.06210284        1.93053659       -3.14641752
 C           -0.70276090        3.82232714       -0.04830659
 C           -1.32382596        3.86773651       -1.30334863
 C           -0.88552183        3.74350206        2.35753954
 C           -1.39243975        2.87161762        3.40233658
 C           -1.49003210        3.72425145        1.10818688
 C           -2.78317104        0.87176524        3.40571377
 C           -2.64352512        2.30734740        3.24230957
 C           -4.00150843       -0.81586220        2.12108962
 C           -3.94954176        0.46480116        2.64880961
 C           -4.71567239       -2.24448668        0.24518276
 C           -4.73128154       -1.84730434       -1.15505909
 C           -4.85696736       -1.04129952        1.04732344
 C           -4.13742827        0.36921420       -2.05344978
 C           -4.91755673       -0.40819847       -1.20458143
 C           -5.16216221        0.05988918        0.15009907
 C           -3.05814535        2.54109025       -2.39822943
 C           -2.66932862        3.53513188       -1.41034237
 C           -4.12295387        1.73872032       -1.83510155
 C           -2.83122283        3.34474223        1.01987662
 C           -3.43464250        2.68266623        2.08473224
 C           -4.35186491        1.58805235        1.81288686
 C           -4.77401106        1.35062161        0.50530163
 C           -3.45287874        3.30521787       -0.21599348
 C           -4.40904105        2.24476001       -0.50120116




