%chk=000266.chk
%mem=8GB
%Nproc=16
#p B3LYP/6-31G* opt pop=NPA

Template file

0 1
 C            4.93122667       -1.20117983        0.75790758
 C            4.10190397       -2.28798506        1.24338512
 C            3.57565732       -3.00616478        0.09394196
 C            4.89896867       -1.23948581       -0.69566487
 C            3.96962943       -2.28449901       -1.09635789
 C            4.93122667       -0.05577730       -1.41920603
 C            4.89896867        1.22220636       -0.72559376
 C            4.89896867        0.01727945        1.42125864
 C            4.93122667        1.25695713        0.66129846
 C            3.96962943        0.19277572        2.52661312
 C            3.26433887       -2.09038218        2.33669952
 C            3.02274657       -0.78884212        2.78274249
 C            2.31668107       -3.06973076        2.58335165
 C            2.29811159       -3.54386414        0.18700493
 C            1.85671039       -3.87483335        1.46132545
 C            1.35441450       -3.24808307       -0.80347112
 C            3.02274657       -2.01550463       -2.07452856
 C            1.74185663       -2.57349576       -1.96844593
 C            4.10190397        0.06718943       -2.60314575
 C            3.26433887       -0.97845005       -2.97867383
 C            3.96962943        2.09172329       -1.43025523
 C            3.57565732        1.42172627       -2.65038604
 C            3.02274657        2.80434675       -0.70821393
 C            4.10190397        2.22079563        1.35976063
 C            3.57565732        1.58443851        2.55644409
 C            3.26433887        3.06883223        0.64197431
 C            2.29811159        1.93388309        2.97557391
 C            1.74185663       -0.41797630        3.21293567
 C            1.35441450        0.92821513        3.21465801
 C            1.15649917       -2.74191763        3.38148047
 C            0.82349728       -1.40429156        3.57488021
 C            0.45971813       -4.17495051        1.68250334
 C            0.12271124       -3.68743107        3.00815457
 C            0.00564600       -3.57219466       -0.60735612
 C           -0.44857579       -3.99747211        0.64865641
 C           -0.90264557       -3.41739633       -1.65558291
 C            0.82349728       -2.39379130       -3.00359227
 C           -0.50673628       -2.77979444       -2.83191358
 C            2.31668107       -0.70238277       -3.95014065
 C            1.15649917       -1.55748918       -4.06531056
 C            2.29811159        1.60998105       -3.16257884
 C            1.85671039        0.67187171       -4.08636684
 C            1.74185663        2.99147206       -1.24448974
 C            1.35441450        2.31986793       -2.41118689
 C            0.82349728        3.79808286       -0.57128794
 C            2.31668107        3.77211354        1.36678900
 C            1.85671039        3.20296163        2.62504139
 C            1.15649917        4.29940681        0.68383009
 C            0.45971813        3.54456589        2.77436153
 C            0.12271124        4.44885381        1.68933170
 C            0.00564600        1.26011150        3.39728938
 C           -0.44857579        2.56048899        3.13758419
 C           -0.50673628       -1.06261189        3.82332939
 C           -0.90264557        0.27492131        3.78734349
 C           -1.19220827       -3.36155349        3.27772543
 C           -1.47645343       -2.06673196        3.86709970
 C           -1.80782682       -3.93422798        0.96084085
 C           -2.19758025       -3.59576397        2.25464502
 C           -2.25785805       -3.63729462       -1.42153895
 C           -2.72975827       -3.75853397       -0.05925222
 C           -3.24524593       -2.85177498       -2.13775066
 C           -1.47645343       -2.31564060       -3.72339223
 C           -2.85482251       -2.19292583       -3.28623625
 C            0.12271124       -0.76142274       -4.69748626
 C            0.45971813        0.63038462       -4.45686487
 C           -1.19220827       -1.15781674       -4.55005344
 C            0.00564600        2.31208316       -2.78993327
 C           -0.44857579        1.43698312       -3.78624061
 C           -0.50673628        3.84240632       -0.99141581
 C           -0.90264557        3.14247502       -2.13176058
 C           -1.19220827        4.51937023        1.27232801
 C           -1.47645343        4.38237256       -0.14370747
 C           -1.80782682        2.79922657        2.92672095
 C           -2.19758025        3.75046185        1.98670043
 C           -2.25785805        0.58755846        3.86075902
 C           -2.72975827        1.82795305        3.28461201
 C           -2.85482251       -1.74950116        3.54224760
 C           -3.24299132       -2.60080233        2.43018764
 C           -3.24524593       -0.42545888        3.53858491
 C           -3.79920478       -2.78674626        0.12414476
 C           -4.01374290       -2.12409508       -1.14423752
 C           -3.83458229       -2.04628754        1.29664852
 C           -4.04922464       -0.73490813       -1.19414650
 C           -3.24299132       -0.80420306       -3.46745471
 C           -2.19758025       -0.15469788       -4.24134546
 C           -1.80782682        1.13500140       -3.88756180
 C           -3.83458229       -0.09978679       -2.42046125
 C           -2.25785805        3.04973615       -2.43922006
 C           -2.72975827        1.93058091       -3.22535978
 C           -3.79920478        1.28586061       -2.47546543
 C           -2.85482251        3.94242699       -0.25601135
 C           -3.24299132        3.40500540        1.03726707
 C           -3.24524593        3.27723387       -1.40083425
 C           -4.01374290        2.05298630       -1.26740154
 C           -3.79920478        1.50088565        2.35132067
 C           -4.01374290        0.07110878        2.41163906
 C           -4.04922464       -0.66670714        1.23352236
 C           -4.02258117        0.00000000        0.00000000
 C           -3.83458229        2.14607432        1.12381273
 C           -4.04922464        1.40161527       -0.03937586




