%chk=000282.chk
%mem=8GB
%Nproc=16
#p B3LYP/6-31G* opt pop=NPA

Template file

0 1
 C            5.13885546       -0.87367585        0.46118881
 C            4.39913349       -1.59857741        1.47673050
 C            4.09420089       -2.89586859        0.91047539
 C            4.86086670       -1.52203447       -0.81308795
 C            4.08614419       -2.71949248       -0.53056373
 C            4.53720950       -0.75529829       -1.92139787
 C            4.61293866        0.69533314       -1.84705789
 C            5.17959218        0.50852779        0.53928660
 C            4.97772131        1.30982082       -0.65890127
 C            4.45551050        1.15821539        1.61507327
 C            3.42567322       -0.93203776        2.22286246
 C            3.44549388        0.46059902        2.28027909
 C            2.28859905       -1.62609694        2.64012318
 C            3.08052982       -3.63741408        1.48284021
 C            2.25853709       -3.01060265        2.50408113
 C            2.16833568       -4.33893371        0.60486526
 C            2.91007798       -2.97704919       -1.23775306
 C            1.98056345       -3.87081409       -0.69672293
 C            3.36202463       -1.10198726       -2.70008371
 C            2.51868781       -2.12310785       -2.27185008
 C            3.50761613        1.23864295       -2.61447261
 C            2.77266473        0.12975731       -3.19187969
 C            2.79076578        2.32632534       -2.13349084
 C            4.30409945        2.53394394       -0.25667773
 C            4.22278867        2.52526455        1.19275462
 C            3.21866905        3.01117478       -0.98957402
 C            3.20695918        3.23880804        1.80085053
 C            2.32291661        1.14904661        2.74028558
 C            2.32407564        2.54086576        2.71815299
 C            1.10110618       -0.92906475        2.87395825
 C            1.12200386        0.46375556        2.93805896
 C           -0.10996781       -1.61596839        3.01353227
 C            0.98301790       -3.70217243        2.50328131
 C            1.01381511       -4.66710446        1.41514979
 C           -0.18362311       -2.98524799        2.73178383
 C           -0.16937768       -4.98183199        0.77283920
 C            0.73243733       -4.03075836       -1.30553756
 C           -0.24473598       -4.79382649       -0.66421901
 C            1.18909323       -2.11286545       -2.68152236
 C            0.37094462       -3.19049577       -2.35907381
 C            1.38878827        0.21585960       -3.28584985
 C            0.63665518       -0.95187803       -3.23362639
 C            1.50095634        2.53021560       -2.61273626
 C            0.75516390        1.44033487       -3.06962541
 C            0.86686390        3.72167397       -2.30821129
 C            2.37815482        3.96139333       -0.40191678
 C            2.37398353        4.10459926        0.98456462
 C            1.28856979        4.44039070       -1.12108106
 C            1.06267934        3.25273285        2.72609147
 C            1.10674423        4.25824238        1.68012010
 C           -0.06497812        1.17116683        3.14618263
 C           -0.11166140        2.54557304        2.90451558
 C           -1.27555674       -0.91287595        3.32285301
 C           -1.25375558        0.48163515        3.38843493
 C           -2.49932928       -1.57505191        3.26794406
 C           -1.40077500       -3.55203800        2.35080949
 C           -1.41966067       -4.50139472        1.33345326
 C           -2.57430625       -2.86265258        2.61140759
 C           -1.64583609       -4.60742841       -0.99890685
 C           -2.35978735       -4.33100964        0.23759453
 C           -0.91368069       -3.24979246       -2.89044606
 C           -1.97426758       -3.89687053       -2.13704532
 C           -0.72882832       -0.88283412       -3.48661677
 C           -1.47566839       -2.05693430       -3.49790938
 C           -0.64285995        1.49865911       -3.09487610
 C           -1.37258406        0.35463222       -3.42804683
 C           -0.57735444        3.80646027       -2.39703879
 C           -1.31171638        2.67425669       -2.73088000
 C            0.08726319        4.83915943       -0.40550944
 C           -0.04578002        4.50926756        0.94244268
 C           -1.03448830        4.65437380       -1.30982886
 C           -1.29895587        3.12227151        2.47332157
 C           -1.27419398        4.04057410        1.41851662
 C           -2.45767586        1.18902816        3.40492447
 C           -2.49402264        2.53773970        2.86703693
 C           -3.69203250       -0.84468382        2.88561532
 C           -3.68360085        0.53129650        2.98952290
 C           -3.57105037       -2.75646249        1.55443528
 C           -3.27844629       -3.28340811        0.30165429
 C           -4.17864031       -1.44512582        1.65641706
 C           -3.08900102       -2.97230513       -2.08310641
 C           -2.88656539       -2.01562992       -3.15364526
 C           -3.55620194       -2.53155289       -0.84499178
 C           -2.76196063        0.40421226       -3.40930684
 C           -3.51573091       -0.78851821       -3.07228034
 C           -2.67381463        2.63914741       -2.42174976
 C           -3.41704798        1.51545500       -2.75319009
 C           -2.29348405        4.43474437       -0.77810532
 C           -2.42132420        4.24981795        0.65545573
 C           -3.16849166        3.46814607       -1.41876318
 C           -3.66507865        2.64134984        2.01307947
 C           -4.23249218        1.31277362        1.89794234
 C           -3.60509641        3.43978144        0.88670657
 C           -4.02103743        2.88965837       -0.39290245
 C           -4.29923044       -0.66260634        0.51383330
 C           -4.11806369       -1.25239718       -0.73762737
 C           -4.28698083       -0.48065770       -1.88135944
 C           -4.32850258        0.96272234       -1.76047201
 C           -4.37097583        0.73113635        0.63784860
 C           -4.37921313        1.54587232       -0.49965983




