%chk=000347.chk
%mem=8GB
%Nproc=16
#p B3LYP/6-31G* opt pop=NPA

Template file

0 1
 C            4.50262697       -1.17131592       -1.73102050
 C            5.03246399       -0.72755256       -0.45106895
 C            5.03246399        0.72755256       -0.45106895
 C            4.31250461       -0.00000000       -2.56849303
 C            4.50262697        1.17131592       -1.73102050
 C            3.28808683       -0.00000000       -3.49806237
 C            2.42969581       -1.16721908       -3.58582686
 C            3.56824420       -2.20296523       -1.75258400
 C            2.42385802       -2.08271252       -2.54344824
 C            3.58130343       -3.11045948       -0.70711141
 C            4.68563745       -1.42479480        0.70221149
 C            4.14252337       -2.70085940        0.57330325
 C            4.49901738       -0.72735608        1.89374750
 C            4.68563745        1.42479480        0.70221149
 C            4.49901738        0.72735608        1.89374750
 C            4.14252337        2.70085940        0.57330325
 C            3.56824420        2.20296523       -1.75258400
 C            3.58130343        3.11045948       -0.70711141
 C            2.42969581        1.16721908       -3.58582686
 C            2.42385802        2.08271252       -2.54344824
 C            1.17504600       -0.72775305       -4.14838642
 C            1.17504600        0.72775305       -4.14838642
 C           -0.00000000       -1.37888047       -3.80405038
 C            1.21193323       -2.65072005       -2.12566386
 C           -0.00000000       -2.25067275       -2.70725446
 C            2.39783601       -3.90236139       -0.44194909
 C            1.20849240       -3.60203612       -1.10325716
 C            3.26314271       -3.20713107        1.61118057
 C            2.37273628       -4.16763236        0.98560447
 C            3.48064183       -1.17073050        2.83605146
 C            2.76283557       -2.32519187        2.56421101
 C            3.48064183        1.17073050        2.83605146
 C            2.77085438        0.00000000        3.31057972
 C            3.26314271        3.20713107        1.61118057
 C            2.76283557        2.32519187        2.56421101
 C            2.39783601        3.90236139       -0.44194909
 C            2.37273628        4.16763236        0.98560447
 C            1.21193323        2.65072005       -2.12566386
 C            1.20849240        3.60203612       -1.10325716
 C           -0.00000000        1.37888047       -3.80405038
 C           -0.00000000        2.25067275       -2.70725446
 C           -1.17504600       -0.72775305       -4.14838642
 C           -1.17504600        0.72775305       -4.14838642
 C           -2.42969581       -1.16721908       -3.58582686
 C           -1.21193323       -2.65072005       -2.12566386
 C           -2.42385802       -2.08271252       -2.54344824
 C           -0.00000000       -4.02071171       -0.54555423
 C           -1.20849240       -3.60203612       -1.10325716
 C            1.15379166       -4.42485763        1.58126542
 C           -0.00000000       -4.59830785        0.72540087
 C            1.41281387       -2.38813496        2.91217962
 C            0.72508211       -3.57179289        2.67699965
 C            1.38217720        0.00000000        3.30069996
 C            0.69881413       -1.20700549        3.14692898
 C            1.41281387        2.38813496        2.91217962
 C            0.69881413        1.20700549        3.14692898
 C            1.15379166        4.42485763        1.58126542
 C            0.72508211        3.57179289        2.67699965
 C            0.00000000        4.02071171       -0.54555423
 C            0.00000000        4.59830785        0.72540087
 C           -1.21193323        2.65072005       -2.12566386
 C           -1.20849240        3.60203612       -1.10325716
 C           -2.42969581        1.16721908       -3.58582686
 C           -3.28808683       -0.00000000       -3.49806237
 C           -2.42385802        2.08271252       -2.54344824
 C           -4.31250461       -0.00000000       -2.56849303
 C           -3.56824420       -2.20296523       -1.75258400
 C           -4.50262697       -1.17131592       -1.73102050
 C           -2.39783601       -3.90236139       -0.44194909
 C           -3.58130343       -3.11045948       -0.70711141
 C           -1.15379166       -4.42485763        1.58126542
 C           -0.72508211       -3.57179289        2.67699965
 C           -2.37273628       -4.16763236        0.98560447
 C           -0.69881413       -1.20700549        3.14692898
 C           -1.41281387       -2.38813496        2.91217962
 C           -0.69881413        1.20700549        3.14692898
 C           -1.38217720        0.00000000        3.30069996
 C           -0.72508211        3.57179289        2.67699965
 C           -1.15379166        4.42485763        1.58126542
 C           -1.41281387        2.38813496        2.91217962
 C           -2.39783601        3.90236139       -0.44194909
 C           -2.37273628        4.16763236        0.98560447
 C           -3.56824420        2.20296523       -1.75258400
 C           -4.50262697        1.17131592       -1.73102050
 C           -3.58130343        3.11045948       -0.70711141
 C           -5.03246399       -0.72755256       -0.45106895
 C           -5.03246399        0.72755256       -0.45106895
 C           -4.14252337       -2.70085940        0.57330325
 C           -3.26314271       -3.20713107        1.61118057
 C           -2.76283557       -2.32519187        2.56421101
 C           -4.68563745       -1.42479480        0.70221149
 C           -2.77085438        0.00000000        3.31057972
 C           -3.48064183       -1.17073050        2.83605146
 C           -4.49901738       -0.72735608        1.89374750
 C           -2.76283557        2.32519187        2.56421101
 C           -3.26314271        3.20713107        1.61118057
 C           -4.14252337        2.70085940        0.57330325
 C           -4.68563745        1.42479480        0.70221149
 C           -3.48064183        1.17073050        2.83605146
 C           -4.49901738        0.72735608        1.89374750




