%chk=000165.chk
%mem=8GB
%Nproc=16
#p B3LYP/6-31G* opt pop=NPA

Template file

0 1
 C            5.01903399       -1.09271631        0.91319922
 C            4.73045767        0.13553123        1.63095191
 C            3.83083197       -0.18753683        2.72851709
 C            4.29973882       -2.17264744        1.57141199
 C            3.46823508       -1.58546197        2.60670621
 C            3.79603205       -3.22609306        0.82335729
 C            3.93672400       -3.21888694       -0.62481792
 C            5.11002233       -1.06350371       -0.46891727
 C            4.49918824       -2.12044960       -1.25915321
 C            4.89340281        0.18912285       -1.16654686
 C            4.55008652        1.33336270        0.94151269
 C            4.65626240        1.36534131       -0.45690480
 C            3.92957278        2.38008664        1.62206310
 C            2.86048062        0.73803250        3.09746657
 C            3.05082975        2.07018046        2.73801545
 C            1.57456164        0.29875994        3.42517982
 C            2.12911995       -1.94144085        2.70341209
 C            1.23351083       -1.05299295        3.28950600
 C            2.47379858       -3.74213215        1.13598176
 C            1.63677102       -3.03044437        1.98376256
 C            2.73310926       -3.80911386       -1.18302853
 C            1.92049589       -4.29679670       -0.08091634
 C            2.09470823       -3.19593670       -2.25766742
 C            3.77376213       -1.49756314       -2.35427310
 C            4.08844437       -0.08800875       -2.34735205
 C            2.47607911       -1.90572143       -2.62640750
 C            3.12479253        0.83609423       -2.72408434
 C            4.12509062        2.43680750       -1.17141143
 C            3.36513913        2.15650924       -2.38056815
 C            3.34571228        3.49057447        0.89319613
 C            3.47686487        3.53675422       -0.48066420
 C            1.90703859        2.96478369        2.66871496
 C            2.05675618        3.79756761        1.49258426
 C            0.56984181        1.24329201        3.63079310
 C            0.65354711        2.47109417        2.98748073
 C           -0.65899456        0.83072074        4.11760544
 C           -0.08303274       -1.46012188        3.49643102
 C           -0.96707002       -0.58546990        4.11827968
 C            0.26047195       -3.21556071        1.88858269
 C           -0.56862053       -2.56828866        2.80074702
 C            0.54085103       -4.32978012       -0.24934529
 C           -0.29110089       -3.85378458        0.76843973
 C            0.82055877       -3.63502904       -2.57594537
 C            0.06159857       -4.33489498       -1.55194213
 C           -0.08819783       -2.72568558       -3.24248122
 C            1.50209764       -0.95302732       -2.95767790
 C            1.80681740        0.41334425       -2.94365177
 C            0.20658962       -1.36855653       -3.26289429
 C            0.77716456        1.35750505       -3.08806952
 C            2.29674991        3.11915771       -2.47116310
 C            2.34534981        3.95785468       -1.28482266
 C            1.05507803        2.72433000       -2.94389957
 C            0.95072598        4.02564038        0.67840917
 C            1.14292055        4.30875960       -0.67777262
 C           -0.47426965        2.98648959        2.34788376
 C           -0.32913668        3.71412279        1.15658321
 C           -1.85150151        1.54694214        3.70172908
 C           -1.74104407        2.59587961        2.79252652
 C           -2.39686658       -0.72851541        3.91095177
 C           -2.91667223        0.57234588        3.52567234
 C           -1.92808163       -2.85617278        2.80424294
 C           -2.87485719       -1.85977979        3.27530228
 C           -1.67777847       -3.84236882        0.57588551
 C           -2.50757943       -3.50157037        1.64113477
 C           -1.34050151       -4.07697088       -1.79391483
 C           -1.43227540       -3.15375391       -2.91484493
 C           -2.20440967       -3.90955311       -0.71878504
 C           -2.45575799       -2.22028944       -2.91766298
 C           -0.83847158       -0.44489746       -3.25702724
 C           -0.55115663        0.92568770       -3.23755988
 C           -2.16643988       -0.89657050       -3.25096516
 C           -1.59150142        1.86236426       -3.30359028
 C            0.01041084        3.60709476       -2.71941682
 C            0.03562145        4.41162079       -1.50807132
 C           -1.34656136        3.17496804       -2.93920981
 C           -1.45172613        4.06601574        0.40276785
 C           -1.29308293        4.38758585       -0.93577303
 C           -2.18142798        3.78621805       -1.91688718
 C           -2.86683532        2.94195758        2.05785495
 C           -2.71758619        3.69582618        0.83198844
 C           -3.76438060        0.69180840        2.42640614
 C           -3.90991684        1.94789018        1.85214366
 C           -3.88891344       -1.70843614        2.25044004
 C           -3.79026562       -2.86756627        1.38342302
 C           -4.12725073       -0.44791724        1.70216399
 C           -3.45124293       -3.35151123       -0.98795291
 C           -3.58977117       -2.50094532       -2.15822670
 C           -4.24005921       -2.76598280        0.08126778
 C           -4.55416202       -0.33792255        0.37188033
 C           -4.52162859       -1.43791952       -1.82610224
 C           -4.74555599       -1.48898025       -0.39220063
 C           -3.20638569        0.02134145       -3.27399584
 C           -2.90792177        1.43438770       -3.23527120
 C           -4.36958466       -0.20423373       -2.43297869
 C           -3.31845493        3.10846317       -1.48452411
 C           -3.67282730        3.17592607       -0.13670655
 C           -4.37338798        2.06106899        0.48475974
 C           -4.61311116        0.91114261       -0.25198639
 C           -3.79680203        2.05606297       -2.26290518
 C           -4.56888858        0.99508590       -1.64037831




