%chk=000204.chk
%mem=8GB
%Nproc=16
#p B3LYP/6-31G* opt pop=NPA

Template file

0 1
 C            5.10124578        0.28491364        0.16704644
 C            4.63875186        1.64941742        0.33183190
 C            4.13199594        1.78729575        1.68771972
 C            4.81193012       -0.42554761        1.40415303
 C            4.02150361        0.45618585        2.24471062
 C            4.48980622       -1.77081749        1.36661354
 C            4.43650102       -2.46785500        0.08971920
 C            4.91557156       -0.34535903       -1.05446485
 C            4.57669936       -1.75867768       -1.09393840
 C            4.14942962        0.32992172       -2.08891981
 C            3.95908026        2.28872676       -0.70180566
 C            3.53686132        1.54846935       -1.81035119
 C            3.31443924        3.47787439       -0.39352976
 C            3.11311378        2.69828710        1.91856399
 C            2.93784004        3.72092381        0.98942178
 C            2.04078137        2.32599693        2.72961470
 C            2.79013488        0.02724727        2.73436044
 C            1.79443139        0.97074559        2.98823979
 C            3.37855709       -2.24302455        2.17301442
 C            2.46887526       -1.33070715        2.70282355
 C            3.39955585       -3.47770291        0.18844801
 C            2.88064169       -3.44895511        1.54645011
 C            2.50817704       -3.67563451       -0.86400611
 C            3.60484028       -1.95600003       -2.15497552
 C            3.41391151       -0.67973489       -2.82250831
 C            2.50203821       -2.78356678       -1.94134940
 C            2.15687265       -0.37328988       -3.31135630
 C            2.35691849        1.89533561       -2.48260290
 C            1.70385897        0.94688682       -3.28648842
 C            2.23349462        3.94604320       -1.23515707
 C            1.80448191        3.16701269       -2.30078501
 C            1.71167842        4.49990220        0.99080489
 C            1.23476849        4.56918663       -0.37942154
 C            1.05245069        3.26505977        2.98812855
 C            0.79832771        4.31077785        2.01237030
 C           -0.22753749        2.82876548        3.49709244
 C            0.53427131        0.54857710        3.42891360
 C           -0.42126452        1.49335341        3.82169845
 C            1.15457701       -1.73873551        2.92993258
 C            0.21088904       -0.81568076        3.39560486
 C            1.56030234       -3.81504496        1.75321898
 C            0.77092292       -3.04753214        2.60965087
 C            1.37891951       -4.44229765       -0.60571742
 C            0.94257862       -4.58695716        0.77297262
 C            0.19514850       -4.27554021       -1.42445936
 C            1.31414104       -2.52155098       -2.63544016
 C            1.24176342       -1.40443270       -3.47197187
 C            0.16283062       -3.27272038       -2.38044713
 C            0.07960223       -1.14907915       -4.18204046
 C            0.49285006        1.25925685       -3.91462681
 C           -0.30897809        0.23166046       -4.40565361
 C            0.55695156        3.45689530       -2.83603040
 C           -0.10237868        2.49160905       -3.68614482
 C           -0.11367130        4.36430167       -0.66560023
 C           -0.45117103        4.05969261       -1.97692427
 C           -0.61409103        4.26000499        1.68475352
 C           -1.26490823        3.51759831        2.74315580
 C           -1.00280446        4.04756492        0.36711056
 C           -2.44351160        2.83691133        2.47460608
 C           -1.73148352        1.09041018        4.03149409
 C           -2.79373714        1.81017943        3.34699118
 C           -1.06666165       -1.25022761        3.76783711
 C           -2.06077711       -0.31537971        4.01168482
 C           -0.53088022       -3.46074423        2.85416312
 C           -1.48191960       -2.52597992        3.41286868
 C           -0.50222211       -4.73217380        0.77160797
 C           -0.96870690       -4.45955851       -0.57655461
 C           -1.22472839       -4.24260293        1.84545467
 C           -2.07146298       -3.63553467       -0.77879055
 C           -1.07670593       -2.80371401       -2.81244351
 C           -1.11629094       -1.90692383       -3.87171397
 C           -2.20594423       -2.99409344       -2.00866036
 C           -1.75056821        0.32071216       -4.23173205
 C           -2.25866576       -1.02659800       -4.03749907
 C           -1.52904154        2.54760257       -3.40253723
 C           -1.71634824        3.41575112       -2.25696900
 C           -2.27903712        1.38073596       -3.49745165
 C           -2.14647906        3.28154111        0.10863353
 C           -2.94292747        2.82730058        1.16936998
 C           -2.50131126        2.97081790       -1.20759242
 C           -4.10237716        2.10397036        0.89394179
 C           -3.82025268        0.85383196        2.97511912
 C           -3.34150402       -0.46910232        3.33823376
 C           -4.49933677        1.02337472        1.78221287
 C           -2.73598424       -2.67529623        2.68819382
 C           -2.50063579       -3.59767274        1.59801332
 C           -2.84062167       -3.20823668        0.30980475
 C           -3.51424189       -1.54420047        2.46856316
 C           -4.76813970       -0.14113438        0.96031141
 C           -3.77593306       -2.18758678        0.13973981
 C           -4.07755100       -1.32800158        1.20500956
 C           -3.37797324       -2.29361304       -2.27077357
 C           -3.37767696       -1.21761143       -3.24685407
 C           -4.19853710       -1.87447901       -1.14963174
 C           -3.29605869        1.13949823       -2.56779056
 C           -3.44166846        1.97702832       -1.45578608
 C           -4.36444660        1.66795297       -0.46567073
 C           -4.93098274        0.33188243       -0.40092018
 C           -3.99551339       -0.06475482       -2.62075995
 C           -4.69966345       -0.54332749       -1.44514583




