%chk=000003.chk
%mem=8GB
%Nproc=16
#p B3LYP/6-31G* opt pop=NPA

Template file

0 1
 C            5.38893716       -1.42556362        0.28978984
 C            5.64389535       -0.02941900       -0.03047293
 C            5.30853327        0.75990124        1.14451543
 C            4.87238973       -1.47925098        1.64908768
 C            4.62795511       -0.11560142        2.08065344
 C            3.96239288       -2.46084908        2.00355486
 C            3.50295549       -3.42044695        1.00899084
 C            4.87315462       -2.27712050       -0.68149661
 C            3.89200290       -3.28603062       -0.31368986
 C            4.50315525       -1.75138387       -1.98582797
 C            5.34539672        0.45688646       -1.29877444
 C            4.72259006       -0.41445690       -2.28270416
 C            4.76461349        1.78209931       -1.44830353
 C            4.84627973        2.05709949        0.99561887
 C            4.59314587        2.59085209       -0.33637229
 C            3.76415215        2.50991472        1.84930462
 C            3.37062722        0.24306255        2.57240139
 C            2.95823915        1.57310484        2.50018412
 C            2.81671536       -2.08904390        2.81326908
 C            2.45798639       -0.74907428        2.93498286
 C            2.11755312       -3.73332090        1.31014887
 C            1.78522618       -3.06765754        2.55495904
 C            1.15911185       -3.76044589        0.29411207
 C            2.88093086       -3.33247195       -1.35496014
 C            3.24651450       -2.36691568       -2.37443892
 C            1.53561212       -3.46777112       -1.01916889
 C            2.24019260       -1.59897968       -2.94942951
 C            3.68072327        0.34302077       -2.95348208
 C            3.69596525        1.69505931       -2.42730382
 C            2.45103030       -0.24717364       -3.22234829
 C            2.47959054        2.33253287       -2.19370861
 C            3.40868469        3.42853007       -0.24995374
 C            3.14135222        3.62311710        1.16205505
 C            2.33808339        3.21658471       -1.12081741
 C            1.86733201        3.99106691        1.54159778
 C            1.64332795        1.91277871        2.82268766
 C            1.20506977        3.20821192        2.56774663
 C            1.11571099       -0.42196963        3.14650204
 C            0.70479042        0.90832376        3.07524236
 C            0.46718623       -2.71109956        2.75005898
 C            0.16211168       -1.44017818        3.23724746
 C           -0.18936004       -3.65692469        0.66018388
 C           -0.48634137       -3.36915088        1.99286201
 C           -1.16630989       -3.45533277       -0.32355855
 C            0.57541249       -2.99915337       -1.90953781
 C            0.93133133       -2.06789993       -2.89073545
 C           -0.76784176       -3.23631152       -1.64135868
 C           -0.06548072       -1.35435402       -3.55024912
 C            1.34316307        0.57669392       -3.39830240
 C            1.34135512        1.85696189       -2.83561687
 C            0.13855043        0.00369807       -3.79710583
 C            0.13750483        2.52706772       -2.65679369
 C            1.06166240        3.66054188       -0.75181598
 C            0.87889924        4.22528345        0.50581262
 C           -0.05679044        3.26738737       -1.49367294
 C           -0.21063919        3.46032463        2.42403777
 C           -0.41347483        4.11430634        1.14437392
 C           -0.65428754        1.22409738        3.18986029
 C           -1.11723064        2.48323196        2.79499848
 C           -1.18147187       -1.12296592        3.44838621
 C           -1.58329712        0.21511843        3.46493007
 C           -1.80170636       -3.24290074        2.39001231
 C           -2.13048648       -2.13247432        3.26352537
 C           -2.50684926       -3.28055423        0.04886541
 C           -2.84781095       -3.34280148        1.39644938
 C           -3.45140783       -2.82897004       -0.87957086
 C           -1.70744812       -2.88761829       -2.60054652
 C           -1.34635020       -1.89298050       -3.59301308
 C           -3.07865890       -2.64680320       -2.20386912
 C           -2.49495643       -1.03028062       -3.80563189
 C           -3.54964090       -1.46449108       -2.90953345
 C           -0.94247876        0.84297484       -4.04579474
 C           -0.95078990        2.15631872       -3.43041017
 C           -2.29663055        0.32131531       -4.01187135
 C           -2.29029088        2.41637468       -2.94561630
 C           -3.12521486        1.27798312       -3.30156626
 C           -1.34781411        3.41075729       -0.95848807
 C           -1.51214704        3.72929967        0.39326727
 C           -2.46733624        3.02449898       -1.70845353
 C           -2.41389282        2.59926233        2.31016436
 C           -2.61414222        3.22489114        1.07560295
 C           -2.94409387        0.53289125        3.47574366
 C           -3.38176953        1.76089978        2.84017612
 C           -3.52368760       -1.80139535        3.03435352
 C           -3.98000338       -2.58076695        1.89154560
 C           -3.93584534       -0.48869518        3.18708355
 C           -4.60997635       -2.19051766       -0.43984440
 C           -4.86191209       -2.02245732        0.98025045
 C           -4.32205633       -0.53072994       -2.22108242
 C           -4.09192995        0.84097838       -2.39858350
 C           -5.04922705       -0.98284973       -1.12152063
 C           -3.70038339        2.87062908       -1.07575092
 C           -3.78547040        3.01776462        0.36418893
 C           -4.55642467        1.75732387       -1.45788308
 C           -4.59467798        1.48218698        2.09196281
 C           -4.91327020        0.07571374        2.26912326
 C           -5.36524175       -0.67413647        1.18861693
 C           -5.52137638       -0.04844640       -0.11589326
 C           -4.78373091        2.08631965        0.85757016
 C           -5.25944132        1.30294417       -0.27173415




