%chk=000027.chk
%mem=8GB
%Nproc=16
#p B3LYP/6-31G* opt pop=NPA

Template file

0 1
 C            5.41608132       -0.24227404       -0.13068955
 C            5.15502799        1.11756265       -0.57820729
 C            4.69133498        1.88290327        0.56410547
 C            5.13761311       -0.30697957        1.29634682
 C            4.63810738        0.99154425        1.71080243
 C            4.57289422       -1.45003800        1.84200442
 C            4.31675795       -2.60592050        0.99718062
 C            5.09012106       -1.31661701       -0.95061072
 C            4.52278010       -2.52358369       -0.37194320
 C            4.43156246       -1.08235414       -2.22640675
 C            4.57973502        1.34088021       -1.81861989
 C            4.20523914        0.21347930       -2.66048157
 C            3.54863939        2.35622494       -1.94696158
 C            3.68271186        2.83217168        0.41782171
 C            3.02474193        2.96845352       -0.81102136
 C            3.04502363        3.25171242        1.57741599
 C            3.54724031        1.08079039        2.57294098
 C            2.92359890        2.31469242        2.68392307
 C            3.45239569       -1.31170126        2.75679680
 C            2.83325393       -0.07498639        2.89914458
 C            3.12022720       -3.25888785        1.49609463
 C            2.64017846       -2.50388144        2.63615037
 C            2.17824227       -3.77286787        0.61011713
 C            3.49360630       -3.00830651       -1.27362568
 C            3.37844446       -2.07112162       -2.37565002
 C            2.32826412       -3.56394110       -0.76627375
 C            2.10587166       -1.68513478       -2.80169435
 C            2.93867907        0.53423901       -3.28981067
 C            2.64303623        1.92319239       -2.98991423
 C            1.89377704       -0.39236836       -3.28682282
 C            1.31600305        2.30011115       -2.91971661
 C            1.73101720        3.50711608       -0.86339358
 C            0.90931306        3.23719416       -1.96963141
 C            1.80498505        3.98766285        1.48580831
 C            1.22233775        4.19317790        0.24348464
 C            1.55921592        2.37998283        3.16514581
 C            0.95999567        3.56729385        2.59220107
 C            1.44675404       -0.01641583        3.09603670
 C            0.80883308        1.21579902        3.23515327
 C            1.27065993       -2.41640109        2.81923776
 C            0.69012822       -1.18918944        3.14972877
 C            0.90586489       -4.06570927        1.10742425
 C            0.47374848       -3.41416476        2.26844937
 C           -0.02785428       -4.60948302        0.23029735
 C            1.19619504       -3.54691972       -1.57253079
 C            1.01147651       -2.48507584       -2.46267716
 C            0.11275793       -4.31291543       -1.18036267
 C           -0.28071965       -2.08728936       -2.82052357
 C            0.59015092        0.07675553       -3.45325937
 C            0.36929624        1.45451543       -3.47560217
 C           -0.49044879       -0.80080052       -3.33121778
 C           -0.90914703        1.94392327       -3.65456653
 C           -0.41330780        3.69376637       -2.00265943
 C           -1.32172126        3.09733497       -2.87643819
 C           -0.08884980        4.64963088        0.22897365
 C           -0.91559266        4.42781372       -0.93793928
 C           -0.41482339        3.60753421        2.41984405
 C           -0.91264897        4.41984037        1.40488030
 C           -0.57878918        1.29495812        3.11084798
 C           -1.18498956        2.53368840        2.86826390
 C           -0.69759254       -1.10833303        3.28997811
 C           -1.33938182        0.12195665        3.13331211
 C           -0.85909268       -3.46643763        2.65090511
 C           -1.44652218       -2.28012358        3.24605599
 C           -1.44281066       -4.58317131        0.55591983
 C           -1.84680622       -4.06530244        1.77094820
 C           -1.19928357       -4.01486526       -1.71000869
 C           -1.36437283       -2.93600284       -2.56804037
 C           -2.17109087       -4.22310350       -0.64729915
 C           -2.65811703       -2.47999426       -2.77394371
 C           -1.78618795       -0.34538581       -3.60098628
 C           -2.01973038        1.01966882       -3.71702031
 C           -2.87422274       -1.15334635       -3.30520585
 C           -2.68793407        2.86725030       -2.43114285
 C           -3.13279524        1.60642863       -2.98687186
 C           -2.27684076        4.17722969       -0.48357881
 C           -2.28782835        4.26624923        0.96648858
 C           -3.04052513        3.20894825       -1.13364083
 C           -2.56553442        2.60996597        2.73918133
 C           -3.13046779        3.43682331        1.68461747
 C           -2.73019752        0.17234550        2.97446066
 C           -3.36075421        1.40071134        2.81822163
 C           -2.83540468       -2.22353707        2.83790655
 C           -3.04598883       -3.25231882        1.83127622
 C           -3.44154097       -0.98854342        2.66572426
 C           -3.27828784       -3.37976648       -0.57713787
 C           -3.65903105       -2.72177732       -1.74510629
 C           -3.73993874       -2.92716585        0.66659590
 C           -4.00963174       -0.56925816       -2.60764965
 C           -3.95156124        0.77295761       -2.23787304
 C           -4.53131183       -1.56352590       -1.68739828
 C           -3.86935948        2.35841195       -0.39437416
 C           -4.07802332        2.61433563        0.96092238
 C           -4.43525113        1.52515483        1.84753598
 C           -4.33426366        1.15703498       -0.94831236
 C           -4.53930370       -0.91315975        1.81153971
 C           -4.65901789       -1.88146523        0.73312599
 C           -5.03486373       -1.15563064       -0.46781523
 C           -4.97034327        0.37511095        1.29843972
 C           -5.04381576        0.26101386       -0.14712042




