%chk=000116.chk
%mem=8GB
%Nproc=16
#p B3LYP/6-31G* opt pop=NPA

Template file

0 1
 C            4.87788781       -1.75946543       -0.61364786
 C            4.23316493       -2.62787905        0.35527485
 C            4.29288148       -1.97426119        1.65305614
 C            5.24382430       -0.52622383        0.06662227
 C            4.76822967       -0.61784799        1.43589311
 C            5.14891232        0.68663256       -0.59833926
 C            4.71816713        0.71986418       -1.98782386
 C            4.39348655       -1.71794292       -1.91140765
 C            4.30163463       -0.44617397       -2.61260248
 C            3.22021831       -2.50130391       -2.25305026
 C            3.08831515       -3.34107799        0.01120347
 C            2.52075420       -3.18796307       -1.25879878
 C            2.32872889       -3.87408164        1.04281988
 C            3.27454016       -2.20121682        2.57656559
 C            2.39719359       -3.26199847        2.36158171
 C            2.89895539       -1.16959511        3.43504406
 C            4.07084560        0.44280166        2.00636051
 C            3.32636263        0.19245975        3.14933989
 C            4.53450188        1.81298346        0.08295935
 C            3.82388062        1.59804089        1.25837307
 C            3.94896212        1.93591157       -2.17943425
 C            3.97722446        2.68300316       -0.93252027
 C            2.76612502        1.90956522       -2.91565774
 C            3.05674661       -0.43759122       -3.36113342
 C            2.47246239       -1.75875776       -3.25153757
 C            2.22898736        0.68030958       -3.30941240
 C            1.09682761       -1.89053302       -3.26320449
 C            1.16730712       -3.48335530       -1.47224064
 C            0.54363423       -2.98926109       -2.62196121
 C            0.95402556       -4.25654016        0.79944456
 C            0.39260329       -4.04471059       -0.45078891
 C            1.04343591       -3.20030989        2.89192403
 C            0.17541453       -3.90642058        1.97210011
 C            1.53592725       -1.10985910        3.94118187
 C            0.59494894       -2.03107595        3.49111959
 C            2.24317068        1.08508021        3.50330271
 C            1.16485952        0.28900011        4.05554659
 C            2.71285600        2.40079622        1.54082052
 C            1.92227919        2.13762862        2.66298699
 C            2.88658825        3.48235394       -0.62112933
 C            2.35995230        3.44274121        0.67228561
 C            1.93574853        3.01929988       -2.82769146
 C            2.07418399        3.89259520       -1.67506659
 C            0.51951164        2.87349971       -3.09551432
 C            0.84115681        0.50981109       -3.39350393
 C            0.29570295       -0.77328786       -3.50113624
 C           -0.01076463        1.60433020       -3.25794877
 C           -1.09222934       -0.93750000       -3.53310379
 C           -0.79152039       -3.27237198       -2.85948262
 C           -1.61201458       -2.22938472       -3.44569170
 C           -0.99798079       -4.02531870       -0.55300169
 C           -1.56818724       -3.90160152       -1.81307188
 C           -1.12257518       -3.45960703        1.78434493
 C           -1.76260495       -3.77460228        0.59103667
 C           -0.73364440       -1.62948053        3.32062836
 C           -1.61767444       -2.41732454        2.57078801
 C           -0.14519831        0.65387623        3.78363992
 C           -1.10811005       -0.34364344        3.71075983
 C            0.64802517        2.68573054        2.74936151
 C           -0.41048937        1.90296478        3.21632186
 C            1.26307933        4.24631471        0.98036734
 C            0.38824899        3.86422574        2.07474081
 C            0.77680006        4.48150489       -1.40450012
 C           -0.19421679        3.83030275       -2.26923492
 C            0.42932356        4.76013843       -0.09439376
 C           -1.44098521        3.48121214       -1.75905199
 C           -1.35652804        1.39147380       -2.98110714
 C           -1.92157562        0.15988884       -3.29274456
 C           -2.08456608        2.34301047       -2.25385565
 C           -3.28968590       -0.01920742       -3.13293466
 C           -2.97586487       -2.43850215       -2.99221050
 C           -2.94372684       -3.45612601       -1.95277452
 C           -3.81705487       -1.34459176       -2.86356016
 C           -3.12349133       -3.52461473        0.48667289
 C           -3.72537267       -3.31057278       -0.81683133
 C           -2.95687478       -2.03199735        2.43179235
 C           -3.73322358       -2.59843795        1.42236314
 C           -2.43920781        0.02876692        3.66001785
 C           -3.39336830       -0.84154773        3.00272510
 C           -1.73531161        2.27331814        2.95561399
 C           -2.76339463        1.40098032        3.31176847
 C           -0.97406764        4.18082229        1.69729401
 C           -0.95575139        4.61298085        0.31018996
 C           -1.88491989        4.06743169       -0.57093304
 C           -2.01330934        3.36185705        2.12292375
 C           -3.11043656        3.68128816       -0.04434094
 C           -3.18851011        3.37319409        1.37416603
 C           -3.40599607        2.08509574       -1.88164759
 C           -4.02978988        0.92282755       -2.31868232
 C           -3.91954258        2.70909017       -0.75233938
 C           -4.70866256       -1.24495743       -1.71811090
 C           -4.64567262       -2.19005718       -0.70688802
 C           -4.65261119       -1.75107823        0.67700021
 C           -4.82559116        0.15837936       -1.36984785
 C           -4.32603453       -0.00349554        2.26473943
 C           -3.99358373        1.38179053        2.53995331
 C           -4.18171854        2.32910329        1.55235695
 C           -4.62455773        1.90583511        0.23565788
 C           -4.72181964       -0.39470234        0.98725078
 C           -4.84858683        0.55734427       -0.03438911




