%chk=000003.chk
%mem=8GB
%Nproc=16
#p B3LYP/6-31G* opt pop=NPA

Template file

0 1
 C           -0.72716794       -2.65232397        0.00000000
 C            0.72716794       -2.65232397        0.00000000
 C            1.17529662       -1.90982756       -1.16607145
 C           -1.17529662       -1.90982756       -1.16607145
 C           -0.00000000       -1.31863624       -1.79196050
 C           -2.26490716       -1.05334199       -0.72888949
 C           -1.17529662       -1.90982756        1.16607145
 C           -2.26490716       -1.05334199        0.72888949
 C            1.17529662       -1.90982756        1.16607145
 C           -0.00000000       -1.31863624        1.79196050
 C            2.26490716       -1.05334199       -0.72888949
 C            2.26490716       -1.05334199        0.72888949
 C            2.29947511        0.32760899       -1.17359403
 C            0.00000000        0.02922361       -2.16031161
 C            1.17376395        0.85947811       -1.92420036
 C           -2.29947511        0.32760899       -1.17359403
 C           -1.17376395        0.85947811       -1.92420036
 C           -2.29947511        0.32760899        1.17359403
 C           -2.49151149        1.16521680        0.00000000
 C            0.00000000        0.02922361        2.16031161
 C           -1.17376395        0.85947811        1.92420036
 C            2.29947511        0.32760899        1.17359403
 C            2.49151149        1.16521680       -0.00000000
 C            1.17376395        0.85947811        1.92420036
 C            0.72777791        2.07421639       -1.25840828
 C           -0.72777791        2.07421639       -1.25840828
 C           -1.44982593        2.18025187       -0.00000000
 C           -0.72777791        2.07421639        1.25840828
 C            1.44982593        2.18025187       -0.00000000
 C            0.72777791        2.07421639        1.25840828

