%chk=000118.chk
%mem=8GB
%Nproc=16
#p B3LYP/6-31G* opt pop=NPA

Template file

0 1
 C            4.93994585       -0.76655772       -1.26816729
 C            4.18659567       -1.98022774       -1.53058804
 C            3.35260640       -1.75154122       -2.69991556
 C            4.52891689        0.22984854       -2.24477075
 C            3.48257701       -0.35474082       -3.06510128
 C            4.43097571        1.56287118       -1.87619429
 C            4.72802458        1.96273897       -0.50985312
 C            5.18407044       -0.39225400        0.04492283
 C            5.07113052        1.00584423        0.43457182
 C            4.63505167       -1.19902647        1.12085251
 C            3.66573790       -2.72576667       -0.47656591
 C            3.72605017       -2.21553765        0.82594730
 C            2.71536595       -3.68905015       -0.79004170
 C            2.10242085       -2.36498590       -2.75616395
 C            1.92480372       -3.51736915       -2.00153593
 C            0.98478430       -1.61564845       -3.14733538
 C            2.33180498        0.36750178       -3.34181288
 C            1.17457742       -0.33092572       -3.66555238
 C            3.29023662        2.33977183       -2.33022370
 C            2.23721179        1.71359965       -2.97795487
 C            3.79519669        3.01527530       -0.14574979
 C            2.98666262        3.32638203       -1.31476022
 C            3.18649441        3.01062492        1.10705293
 C            4.44052464        1.05091180        1.74150455
 C            4.38644564       -0.31119118        2.24255923
 C            3.36519692        1.91294252        1.95615016
 C            3.40819202       -0.64843242        3.15827428
 C            2.76149878       -2.58042179        1.77588927
 C            2.67227512       -1.88649849        2.97866089
 C            1.82393554       -4.16753552        0.24343550
 C            1.72844365       -3.44954202        1.42766922
 C            0.58694296       -3.99644761       -1.72651348
 C            0.61676532       -4.62433474       -0.41752838
 C           -0.31221149       -2.06314235       -2.84543992
 C           -0.50500759       -3.21268081       -2.07948763
 C           -1.42180863       -1.31329208       -3.23757191
 C            0.08742752        0.39092729       -4.13160310
 C           -1.23794947       -0.17564317       -4.01647581
 C            0.99040339        2.33061081       -2.97100661
 C           -0.00131014        1.79701164       -3.77812331
 C            1.66797819        3.73226733       -1.12211775
 C            0.64890696        3.18092684       -1.91283757
 C            2.08666660        3.84061673        1.28685028
 C            1.35123610        4.28211992        0.11127340
 C            1.11533932        3.51801376        2.31201649
 C            2.36582810        1.55995472        2.87195152
 C            2.45679478        0.36484000        3.57439017
 C            1.16948816        2.27265373        2.91186715
 C            1.36746699       -1.71253753        3.58831068
 C            1.23501929       -0.31421588        3.95519102
 C            0.50508237       -3.38442495        2.10453260
 C            0.27631822       -2.36671355        3.02784126
 C           -0.55620392       -4.68416644        0.30991529
 C           -0.57410064       -4.13653795        1.65648518
 C           -1.72864696       -3.42286832       -1.44224478
 C           -1.78614330       -4.26275191       -0.32931005
 C           -2.66428482       -1.54936578       -2.64520643
 C           -2.80784051       -2.58333696       -1.71863487
 C           -3.69114430       -0.61706682       -2.79950336
 C           -2.16336921        0.93533177       -3.89371328
 C           -1.38779146        2.09686827       -3.49677174
 C           -3.38609152        0.71396609       -3.29044570
 C           -0.70102209        3.35423183       -1.55340936
 C           -1.71621850        2.77044786       -2.32613053
 C           -0.03309326        4.43802873        0.48868934
 C           -0.16364215        4.04375072        1.88287277
 C           -1.03425445        4.07521310       -0.40023572
 C           -1.33390300        3.41273335        2.28261053
 C           -0.01778824        1.62791657        3.27214928
 C            0.01731723        0.30980322        3.73606315
 C           -1.25528516        2.24873180        3.05412320
 C           -0.99213036       -1.78214414        3.11347625
 C           -1.11530491       -0.48366944        3.61350687
 C           -1.92156429       -3.65503657        1.91341273
 C           -2.71845732       -3.96248182        0.73830306
 C           -2.10020373       -2.43241385        2.55660541
 C           -3.92985897       -2.61708827       -0.88848151
 C           -3.81154477       -3.16846220        0.44834887
 C           -4.68611632       -0.46752779       -1.75339848
 C           -4.78950324       -1.45191395       -0.79055749
 C           -3.86161321        1.65978518       -2.29606970
 C           -3.01719555        2.66251882       -1.82462411
 C           -4.68212710        0.92556028       -1.34437289
 C           -2.31959423        3.97959406        0.11595579
 C           -2.47656524        3.65897158        1.52544186
 C           -3.33992936        3.26609105       -0.61923087
 C           -4.61289660        1.26174264        0.00664759
 C           -3.64676092        2.81251812        1.66767897
 C           -4.16057197        2.53771952        0.33770769
 C           -2.42457634        1.55792651        3.37244740
 C           -2.35374306        0.13253681        3.64128112
 C           -3.63790142        1.80380451        2.61184382
 C           -3.31188798       -1.75174668        2.40175713
 C           -4.18267186       -2.11490559        1.37635105
 C           -4.84825490       -1.07096869        0.61039914
 C           -4.66691787        0.25909035        0.98377128
 C           -3.48084951       -0.50696158        2.99376517
 C           -4.22488415        0.51896224        2.28000837




