%chk=000013.chk
%mem=8GB
%Nproc=16
#p B3LYP/6-31G* opt pop=NPA

Template file

0 1
 C            5.45966481       -0.00000000        0.04483786
 C            5.13557558        1.17724817        0.83747157
 C            4.53633650        0.72626133        2.08026410
 C            5.13557558       -1.17724817        0.83747157
 C            4.53633650       -0.72626133        2.08026410
 C            4.62919223       -2.31087583        0.22089741
 C            4.44684676       -2.32905557       -1.22239360
 C            5.22674342        0.00000000       -1.32649364
 C            4.65218747       -1.17300759       -1.96302119
 C            4.65218747        1.17300759       -1.96302119
 C            4.62919223        2.31087583        0.22089741
 C            4.44684676        2.32905557       -1.22239360
 C            3.49262293        2.98960428        0.82357827
 C            3.42760760        1.38594587        2.60492664
 C            2.78665104        2.36644221        1.84279623
 C            2.71416463        0.72845418        3.59373315
 C            3.42760760       -1.38594587        2.60492664
 C            2.71416463       -0.72845418        3.59373315
 C            3.49262293       -2.98960428        0.82357827
 C            2.78665104       -2.36644221        1.84279623
 C            3.27892671       -3.14130706       -1.50125113
 C            2.76781983       -3.64789084       -0.23735201
 C            2.36253288       -2.73117074       -2.46463475
 C            3.61003595       -0.72475766       -2.87406189
 C            3.61003595        0.72475766       -2.87406189
 C            2.40138683       -1.41009393       -2.91581105
 C            2.40138683        1.41009393       -2.91581105
 C            3.27892671        3.14130706       -1.50125113
 C            2.76781983        3.64789084       -0.23735201
 C            2.36253288        2.73117074       -2.46463475
 C            1.39873438        3.84071920       -0.12225333
 C            1.39643890        2.53779963        1.92994711
 C            0.70254650        3.25595039        0.94534668
 C            1.36966953        1.16016514        3.90164721
 C            0.69783305        1.98861776        3.00622231
 C            1.36966953       -1.16016514        3.90164721
 C            0.68806827       -0.00000000        4.44153294
 C            1.39643890       -2.53779963        1.92994711
 C            0.69783305       -1.98861776        3.00622231
 C            1.39873438       -3.84071920       -0.12225333
 C            0.70254650       -3.25595039        0.94534668
 C            1.16034298       -3.41771056       -2.51220318
 C            0.71967738       -4.09497838       -1.30340815
 C            0.00000000       -2.76796571       -3.08331547
 C            1.20832845       -0.69878888       -3.10025930
 C            1.20832845        0.69878888       -3.10025930
 C            0.00000000       -1.38776040       -3.21692393
 C            0.00000000        1.38776040       -3.21692393
 C            1.16034298        3.41771056       -2.51220318
 C            0.71967738        4.09497838       -1.30340815
 C            0.00000000        2.76796571       -3.08331547
 C           -0.71967738        4.09497838       -1.30340815
 C           -1.16034298        3.41771056       -2.51220318
 C           -0.70254650        3.25595039        0.94534668
 C           -1.39873438        3.84071920       -0.12225333
 C           -0.69783305        1.98861776        3.00622231
 C           -1.39643890        2.53779963        1.92994711
 C           -0.68806827       -0.00000000        4.44153294
 C           -1.36966953        1.16016514        3.90164721
 C           -0.69783305       -1.98861776        3.00622231
 C           -1.36966953       -1.16016514        3.90164721
 C           -0.70254650       -3.25595039        0.94534668
 C           -1.39643890       -2.53779963        1.92994711
 C           -0.71967738       -4.09497838       -1.30340815
 C           -1.16034298       -3.41771056       -2.51220318
 C           -1.39873438       -3.84071920       -0.12225333
 C           -2.36253288       -2.73117074       -2.46463475
 C           -1.20832845       -0.69878888       -3.10025930
 C           -1.20832845        0.69878888       -3.10025930
 C           -2.40138683       -1.41009393       -2.91581105
 C           -2.36253288        2.73117074       -2.46463475
 C           -2.40138683        1.41009393       -2.91581105
 C           -2.76781983        3.64789084       -0.23735201
 C           -3.27892671        3.14130706       -1.50125113
 C           -2.78665104        2.36644221        1.84279623
 C           -3.49262293        2.98960428        0.82357827
 C           -2.71416463        0.72845418        3.59373315
 C           -2.71416463       -0.72845418        3.59373315
 C           -3.42760760        1.38594587        2.60492664
 C           -2.78665104       -2.36644221        1.84279623
 C           -3.42760760       -1.38594587        2.60492664
 C           -2.76781983       -3.64789084       -0.23735201
 C           -3.27892671       -3.14130706       -1.50125113
 C           -3.49262293       -2.98960428        0.82357827
 C           -4.44684676       -2.32905557       -1.22239360
 C           -4.62919223       -2.31087583        0.22089741
 C           -3.61003595       -0.72475766       -2.87406189
 C           -3.61003595        0.72475766       -2.87406189
 C           -4.65218747       -1.17300759       -1.96302119
 C           -4.44684676        2.32905557       -1.22239360
 C           -4.62919223        2.31087583        0.22089741
 C           -4.65218747        1.17300759       -1.96302119
 C           -5.22674342        0.00000000       -1.32649364
 C           -4.53633650        0.72626133        2.08026410
 C           -4.53633650       -0.72626133        2.08026410
 C           -5.13557558       -1.17724817        0.83747157
 C           -5.13557558        1.17724817        0.83747157
 C           -5.45966481        0.00000000        0.04483786




