%chk=000103.chk
%mem=8GB
%Nproc=16
#p B3LYP/6-31G* opt pop=NPA

Template file

0 1
 C            4.72999667       -1.93453625        0.63012197
 C            3.78786302       -3.01602219        0.39955920
 C            2.99138420       -3.17917440        1.60582463
 C            4.45365015       -1.38427655        1.94813298
 C            3.27028189       -2.04891522        2.46613624
 C            4.61256999       -0.02697916        2.17842532
 C            4.98457695        0.85814651        1.08284096
 C            5.06031823       -1.08940632       -0.41928744
 C            5.16999044        0.34419098       -0.19059599
 C            4.41609608       -1.28147231       -1.70677586
 C            3.16426975       -3.15293053       -0.83940290
 C            3.34152648       -2.16448203       -1.81324931
 C            2.05634635       -3.99018495       -0.91190998
 C            1.68428618       -3.63201259        1.47814503
 C            1.35764811       -4.32157924        0.31973549
 C            0.66270138       -3.00539789        2.19611784
 C            2.20790248       -1.29354280        2.94584356
 C            0.92487584       -1.83441627        2.92141290
 C            3.61805795        0.66755086        2.97665910
 C            2.38090978        0.06829189        3.21306136
 C            4.22174422        2.08427207        1.23910390
 C            3.66573683        2.06070788        2.57891428
 C            3.43740198        2.55625231        0.18408443
 C            4.54144032        1.01666041       -1.31277638
 C            4.34466229        0.01985907       -2.34866164
 C            3.55123700        1.97251662       -1.07922549
 C            3.36849000        0.24053561       -3.30123424
 C            2.33500450       -1.91541235       -2.75371785
 C            2.44877110       -0.83585847       -3.61801630
 C            1.05221976       -3.75201640       -1.93070182
 C            1.11768785       -2.58484014       -2.66910563
 C           -0.03512852       -4.53877945       -0.00678910
 C           -0.22396345       -4.19041943       -1.40657651
 C           -0.65792456       -3.44094611        2.03853733
 C           -1.01951681       -4.17608664        0.90310751
 C           -1.64575707       -2.90187548        2.85981609
 C           -0.12895356       -1.07318405        3.41288267
 C           -1.38247291       -1.64822102        3.54049713
 C            1.26543908        0.87387233        3.46122928
 C           -0.00865738        0.31184014        3.42936912
 C            2.57256762        2.86119398        2.84645839
 C            1.39934164        2.25894083        3.45634374
 C            2.35935123        3.39772448        0.46401061
 C            2.08457147        3.72524068        1.79197467
 C            1.38936249        3.63008660       -0.51322698
 C            2.54583681        2.16880296       -2.02827243
 C            2.58239304        1.45766530       -3.22042751
 C            1.39004485        2.86605903       -1.67939022
 C            1.24211053       -0.22782368       -4.14028216
 C            1.34658293        1.20900539       -3.92827308
 C           -0.06133819       -1.95279930       -3.07739503
 C            0.01137978       -0.84178470       -3.92739300
 C           -1.38631778       -3.52278094       -1.77255772
 C           -1.29704940       -2.35944378       -2.54702210
 C           -2.31990823       -4.09431830        0.41520260
 C           -2.51269244       -3.72973694       -0.97962115
 C           -3.03030688       -2.88377372        2.41895595
 C           -3.35856720       -3.45199861        1.19787266
 C           -2.55218505       -0.80305453        3.39651182
 C           -3.60588458       -1.60342723        2.80078355
 C           -1.12474541        1.11046470        3.15215802
 C           -2.37903455        0.52280397        3.00733503
 C            0.25744184        3.07567357        3.08403449
 C            0.73733926        4.09947623        2.16920310
 C           -0.96319352        2.45638335        2.83394619
 C            0.28343148        4.41486920       -0.20397713
 C           -0.11630639        4.56040811        1.18647864
 C           -0.92805877        4.27817949       -0.99128392
 C            0.21933665        2.73614889       -2.44640264
 C            0.20078148        1.90591342       -3.57240602
 C           -0.96723978        3.34755884       -2.02337858
 C           -1.12226039       -0.06725790       -4.13961753
 C           -1.00981082        1.37549515       -3.99576274
 C           -2.42262327       -1.54385307       -2.69262818
 C           -2.38731344       -0.47231861       -3.56522042
 C           -3.61815017       -2.79462748       -1.04138405
 C           -4.22809327       -2.73960663        0.27523342
 C           -3.46854475       -1.62957181       -1.77945385
 C           -4.53238098       -0.98661994        1.97442285
 C           -4.84759457       -1.56643231        0.67616829
 C           -3.35386066        1.16360304        2.23872986
 C           -4.47522587        0.45488168        1.80539039
 C           -1.89798642        3.08144748        2.00826793
 C           -1.51579027        4.19622870        1.26084360
 C           -2.05128136        4.37179172       -0.07323981
 C           -3.08182733        2.41653280        1.68214481
 C           -3.23120204        3.72818331       -0.39310127
 C           -3.84436704        2.87039374        0.60451517
 C           -2.20407692        2.86005373       -2.45804015
 C           -2.24482790        1.86510434       -3.42389290
 C           -3.12982210        0.72685304       -3.22756890
 C           -3.33608664        3.04136465       -1.66810225
 C           -4.20275445       -0.48648068       -1.44327061
 C           -4.96071507       -0.47240088       -0.27290330
 C           -5.04037332        0.74975224        0.50185519
 C           -4.70229993        1.94283771       -0.10860336
 C           -3.97662776        0.71443214       -2.12337008
 C           -4.25586079        1.92682809       -1.49290381




