%chk=000064.chk
%mem=8GB
%Nproc=16
#p B3LYP/6-31G* opt pop=NPA

Template file

0 1
 C            4.99216519        1.72539088        0.19445068
 C            5.18333623        0.33798509       -0.19214030
 C            4.52626325        0.13742907       -1.47400648
 C            4.41786972        2.42173896       -0.94443869
 C            4.03284660        1.42286743       -1.92797252
 C            3.58426655        3.51171659       -0.73659436
 C            3.12966826        3.83093589        0.60869382
 C            4.56113702        2.03082117        1.48122245
 C            3.56291633        3.06908759        1.68326462
 C            4.28197004        0.95997482        2.42564610
 C            5.09791176       -0.66151441        0.76712897
 C            4.58302254       -0.35127481        2.09295242
 C            4.55931959       -1.95391726        0.38438159
 C            3.75519037       -1.00235271       -1.66869807
 C            4.01594316       -2.12819770       -0.88530401
 C            2.55069836       -0.90963967       -2.37606381
 C            2.78044468        1.50632215       -2.52437688
 C            2.05077036        0.33672560       -2.76614735
 C            2.46358737        3.71910547       -1.63629677
 C            2.14491448        2.74876741       -2.58240683
 C            1.72694881        4.20239127        0.52640777
 C            1.38598869        4.32968889       -0.87497813
 C            0.80292157        3.62267614        1.38501171
 C            2.58529740        2.56872314        2.63373159
 C            3.00946476        1.24937140        3.06234837
 C            1.22939719        2.78867197        2.41888401
 C            2.04835782        0.24933701        3.18991164
 C            3.64804724       -1.40150692        2.46001092
 C            3.83699051       -2.49074751        1.52558080
 C            2.35621360       -1.07098192        2.85481341
 C            2.78330888       -3.35993926        1.28023419
 C            3.28830441       -3.28739460       -1.11117024
 C            2.75610187       -3.99505571        0.04123415
 C            1.78996144       -2.05900601       -2.60319553
 C            2.25068574       -3.27986865       -2.12057277
 C            0.46851042       -1.94281563       -3.04213025
 C            0.78594359        0.41431697       -3.34624587
 C           -0.06893782       -0.68044913       -3.27833536
 C            0.91281355        2.84918916       -3.21248762
 C            0.28058133        1.64811703       -3.71886814
 C            0.07672691        4.09307571       -1.27973727
 C           -0.12179972        3.65213459       -2.58079716
 C           -0.53909503        3.60069217        1.01411088
 C           -0.90257359        3.81607071       -0.32230065
 C           -1.47352150        3.08774869        1.91054637
 C            0.31343300        1.91413162        2.99389623
 C            0.71496135        0.61761757        3.33224483
 C           -1.04243970        2.21363597        2.90963825
 C           -0.24152983       -0.37527097        3.51241612
 C            1.32400321       -1.99036487        2.64653036
 C            1.58807249       -3.19641262        1.98463706
 C            0.01791888       -1.65901073        3.02810192
 C            0.55361882       -4.09779468        1.76159094
 C            1.56078536       -4.70021005       -0.38507015
 C            1.30048020       -4.31987748       -1.76576256
 C            0.50567787       -4.82985607        0.50664646
 C           -0.38147309       -3.04306172       -2.99110669
 C           -0.00524092       -4.21119012       -2.21607283
 C           -1.79901812       -2.82451974       -2.78930960
 C           -1.45935792       -0.49595504       -3.28175602
 C           -2.29627879       -1.53290858       -2.86387556
 C           -1.15259014        1.85995833       -3.68877201
 C           -1.40302267        3.08980697       -2.95203595
 C           -2.00211465        0.77787831       -3.48606906
 C           -2.21219119        3.54564964       -0.73515122
 C           -2.45496503        3.11857203       -2.04574056
 C           -2.82519667        3.20121940        1.60919431
 C           -3.21100095        3.42655278        0.22895299
 C           -3.78182580        2.28349804        2.20330263
 C           -1.94750646        1.37019109        3.54403409
 C           -1.54659711        0.00138663        3.80977272
 C           -3.34231993        1.36152362        3.14193747
 C           -2.63723035       -0.86372213        3.40773050
 C           -3.77000328       -0.02602434        3.05585401
 C           -1.04884187       -2.50861396        2.71703202
 C           -0.80309921       -3.73144737        2.11239405
 C           -2.34106592       -1.99165356        2.65500539
 C           -0.86236359       -4.78839518        0.01692752
 C           -1.10968815       -4.51936058       -1.32036167
 C           -2.21899378       -3.65334528       -1.67594851
 C           -1.67707948       -4.14699460        1.03211296
 C           -3.19164636       -2.39679080        1.62006034
 C           -3.00707545       -3.07463247       -0.68567319
 C           -2.71631639       -3.29727335        0.66676576
 C           -3.45897308       -1.22717852       -2.16308761
 C           -3.80300985       -1.98313247       -1.03679178
 C           -3.29449692        1.04738697       -3.03877550
 C           -3.53525083        2.28230910       -2.30959384
 C           -4.06650746       -0.00172395       -2.39895006
 C           -4.38904751        2.61893240       -0.04152188
 C           -4.71360730        1.87483815        1.16525466
 C           -4.52467592        2.01591050       -1.28249600
 C           -4.89215545        0.61101339       -1.37363788
 C           -4.61769938       -0.42834591        2.03549463
 C           -4.33135920       -1.65904578        1.31917222
 C           -4.65995461       -1.45382141       -0.07658320
 C           -5.11289785        0.54542351        1.07529493
 C           -5.18212295       -0.10591280       -0.22315345




