%chk=000195.chk
%mem=8GB
%Nproc=16
#p B3LYP/6-31G* opt pop=NPA

Template file

0 1
 C           -4.52408198       -1.55230428        0.79375874
 C           -4.59778529       -0.25381630        1.43971390
 C           -3.72115154       -0.29665938        2.60127560
 C           -3.88549563       -2.46113122        1.72971635
 C           -3.22688733       -1.64904991        2.73828288
 C           -3.22448945       -3.57259433        1.23646919
 C           -3.07406416       -3.71244546       -0.20003508
 C           -4.21390845       -1.62202047       -0.56153613
 C           -3.35380747       -2.62263502       -1.02299029
 C           -4.45292336       -0.50663009       -1.35554487
 C           -4.62814049        0.90086614        0.66185004
 C           -4.69518276        0.78381665       -0.72511300
 C           -4.16368975        2.08616365        1.22450990
 C           -2.87119548        0.77402505        2.83260986
 C           -3.29873035        2.01634193        2.39231469
 C           -1.50226255        0.54144596        3.01107918
 C           -1.88136702       -1.86093619        3.00398010
 C           -1.03144382       -0.76376548        3.19809238
 C           -1.96452926       -3.96641791        1.84330636
 C           -1.34589546       -3.12776101        2.76650062
 C           -1.88500935       -4.51391771       -0.43692006
 C           -1.14861139       -4.58755302        0.81313580
 C           -1.18696122       -4.34756835       -1.61790684
 C           -2.58739580       -2.40722149       -2.17288716
 C           -1.64174012       -3.34535105       -2.56436850
 C           -3.62559180       -0.28475060       -2.52640576
 C           -2.57579916       -1.15279110       -2.77385575
 C           -4.10135207        1.80836769       -1.57093605
 C           -3.41580753        1.14144412       -2.66770154
 C           -3.66980967        3.15446719        0.36955014
 C           -3.52688594        2.93762904       -0.99608885
 C           -2.35961482        3.10960797        2.32079621
 C           -2.63104571        3.86002145        1.10426024
 C           -0.59123097        1.60561081        2.95103492
 C           -1.04209344        2.90687009        2.69915158
 C            0.77938083        1.35210752        3.08293705
 C            0.30917584       -0.97687719        3.52025717
 C            1.21518024        0.08345714        3.46621877
 C           -0.00868100       -3.35787902        3.04832364
 C            0.78891402       -2.28198154        3.59544977
 C            0.22804985       -4.36962193        0.83300014
 C            0.80474573       -4.04025952        2.05156572
 C            0.26169782       -4.27440048       -1.57014488
 C            0.89722643       -4.05105009       -0.35306577
 C           -0.48589574       -2.90196255       -3.31902463
 C            0.68956469       -3.53730927       -2.74061423
 C           -1.40024330       -0.67141848       -3.35423740
 C           -0.39814628       -1.57393462       -3.72980349
 C           -2.17633006        1.61445717       -3.07943850
 C           -1.16168649        0.70890966       -3.40802769
 C           -2.52829359        3.61045437       -1.69257978
 C           -1.84631976        2.93515710       -2.78592225
 C           -1.56550306        4.44108935        0.42272821
 C           -1.54263585        4.40110909       -0.97012679
 C           -0.13078006        3.88527923        2.33284370
 C           -0.37293261        4.64248448        1.11362193
 C            1.71908013        2.34301295        2.77069977
 C            1.28729890        3.61218362        2.41352540
 C            3.04172286        1.99107774        2.50166216
 C            2.58267927       -0.18030750        3.51792793
 C            3.50771251        0.75149012        2.90516245
 C            2.16460105       -2.56086042        3.23125710
 C            2.12400615       -3.44678543        2.08192417
 C            3.06766877       -1.51662842        3.22662858
 C            2.07226868       -3.28724147       -0.32347022
 C            2.72046574       -3.04125966        0.89417947
 C            1.87527850       -2.82093681       -2.69609965
 C            2.63104442       -2.82088191       -1.52148080
 C            0.85389769       -1.09546707       -4.10067321
 C            2.03604595       -1.78622951       -3.61320403
 C            0.13753263        1.18235068       -3.58968936
 C            1.12274857        0.32706995       -4.04627702
 C           -0.45110611        3.33437340       -2.75736035
 C           -0.27082297        4.27202051       -1.66843340
 C            0.51923706        2.37625186       -2.99397648
 C            0.87920789        4.68656977        0.37987002
 C            1.92920787        4.28687590        1.29866879
 C            0.90783965        4.24018529       -0.93723470
 C            3.73546687        2.65854527        1.49763552
 C            3.09547594        3.74847001        0.78303991
 C            4.49027895        1.88317943        0.52895184
 C            4.37584789       -0.00326668        2.01079658
 C            3.99763794       -1.40226126        2.11689637
 C            3.78375734       -2.13861704        0.95499283
 C            4.70583266        0.52625246        0.76388576
 C            3.82320844       -2.10454751       -1.49121847
 C            4.39083754       -1.71423303       -0.21596822
 C            4.84054261       -0.33329108       -0.32536608
 C            3.08279602       -0.79960590       -3.41933031
 C            2.48185094        0.51438025       -3.56860085
 C            4.01488904       -1.00082275       -2.41705096
 C            4.48128779        0.14031306       -1.65140784
 C            1.75304449        2.45828951       -2.34492170
 C            1.96822086        3.44039422       -1.37202773
 C            3.14448038        3.42251511       -0.63133119
 C            4.07709443        2.32394997       -0.79605396
 C            2.73949439        1.50235884       -2.61919618
 C            3.84983321        1.37396577       -1.78039139




