%chk=000071.chk
%mem=8GB
%Nproc=16
#p B3LYP/6-31G* opt pop=NPA

Template file

0 1
 C            5.25148010        0.06921826        0.01256182
 C            4.80685178        0.44063667       -1.32091822
 C            4.44774236        1.84884477       -1.29136675
 C            4.95710614        1.17931434        0.90550748
 C            4.42659925        2.26537509        0.10218329
 C            4.41284485        0.93707851        2.15716747
 C            4.18351673       -0.43100174        2.59698255
 C            5.06641195       -1.23482363        0.44492415
 C            4.53719071       -1.49067159        1.77756334
 C            4.44591973       -2.18643325       -0.45719102
 C            4.03736089       -0.44355700       -2.07302612
 C            3.75739630       -1.72014287       -1.57610629
 C            3.27859705        0.06528682       -3.12002330
 C            3.46511616        2.32617208       -2.15621125
 C            2.98053382        1.49027785       -3.16045620
 C            2.70871849        3.42936286       -1.76539785
 C            3.35136563        3.01958834        0.56089117
 C            2.69503379        3.81816937       -0.36336833
 C            3.29438633        1.74597750        2.61077694
 C            2.69760239        2.65788722        1.74425176
 C            2.90502078       -0.46794850        3.28173583
 C            2.44995347        0.90237430        3.43126462
 C            1.97259355       -1.46021428        2.97343722
 C            3.64738891       -2.63480763        1.68239183
 C            3.85024626       -3.21833820        0.36904570
 C            2.35336509       -2.56205641        2.20359151
 C            2.83989568       -3.99363730       -0.16476202
 C            2.63956173       -2.42290998       -2.03999660
 C            2.31046316       -3.64763090       -1.47365831
 C            2.09389237       -0.65250122       -3.55040941
 C            1.70715870       -1.78609331       -2.85337885
 C            1.61173731        1.64445381       -3.62927323
 C            1.09165535        0.32202324       -3.92690164
 C            1.36009160        3.60182771       -2.28447464
 C            0.78028722        2.58496955       -3.02599308
 C            1.37917590        4.33406865       -0.05660140
 C            0.57895966        4.27611059       -1.26979725
 C            1.35914919        3.01821061        1.94987982
 C            0.77792643        4.00729460        1.15087683
 C            1.08808278        1.13784344        3.44888273
 C            0.57929010        2.29974531        2.86984774
 C            0.61896802       -1.20207478        3.19674710
 C            0.23858208        0.06069615        3.65338811
 C           -0.34867159       -2.09889255        2.73691658
 C            1.38222929       -3.44714248        1.73066717
 C            1.69779247       -4.29814484        0.67072612
 C            0.04354106       -3.26951719        2.08648184
 C            0.92611210       -4.09049081       -1.51034290
 C            0.64956112       -4.72377715       -0.23167265
 C            0.34867159       -2.09889255       -2.73691658
 C           -0.04354106       -3.26951719       -2.08648184
 C           -0.23858208        0.06069615       -3.65338811
 C           -0.61896802       -1.20207478       -3.19674710
 C           -0.57929010        2.29974531       -2.86984774
 C           -1.08808278        1.13784344       -3.44888273
 C           -0.77792643        4.00729460       -1.15087683
 C           -1.35914919        3.01821061       -1.94987982
 C           -0.57895966        4.27611059        1.26979725
 C           -1.37917590        4.33406865        0.05660140
 C           -0.78028722        2.58496955        3.02599308
 C           -1.36009160        3.60182771        2.28447464
 C           -1.09165535        0.32202324        3.92690164
 C           -1.61173731        1.64445381        3.62927323
 C           -1.70715870       -1.78609331        2.85337885
 C           -2.09389237       -0.65250122        3.55040941
 C           -2.63956173       -2.42290998        2.03999660
 C           -0.92611210       -4.09049081        1.51034290
 C           -0.64956112       -4.72377715        0.23167265
 C           -2.31046316       -3.64763090        1.47365831
 C           -1.38222929       -3.44714248       -1.73066717
 C           -1.69779247       -4.29814484       -0.67072612
 C           -2.83989568       -3.99363730        0.16476202
 C           -1.97259355       -1.46021428       -2.97343722
 C           -2.35336509       -2.56205641       -2.20359151
 C           -2.44995347        0.90237430       -3.43126462
 C           -2.90502078       -0.46794850       -3.28173583
 C           -2.69760239        2.65788722       -1.74425176
 C           -3.29438633        1.74597750       -2.61077694
 C           -2.69503379        3.81816937        0.36336833
 C           -2.70871849        3.42936286        1.76539785
 C           -3.35136563        3.01958834       -0.56089117
 C           -2.98053382        1.49027785        3.16045620
 C           -3.27859705        0.06528682        3.12002330
 C           -3.46511616        2.32617208        2.15621125
 C           -3.75739630       -1.72014287        1.57610629
 C           -4.03736089       -0.44355700        2.07302612
 C           -3.85024626       -3.21833820       -0.36904570
 C           -3.64738891       -2.63480763       -1.68239183
 C           -4.44591973       -2.18643325        0.45719102
 C           -4.18351673       -0.43100174       -2.59698255
 C           -4.41284485        0.93707851       -2.15716747
 C           -4.53719071       -1.49067159       -1.77756334
 C           -5.06641195       -1.23482363       -0.44492415
 C           -4.42659925        2.26537509       -0.10218329
 C           -4.44774236        1.84884477        1.29136675
 C           -4.80685178        0.44063667        1.32091822
 C           -4.95710614        1.17931434       -0.90550748
 C           -5.25148010        0.06921826       -0.01256182




