%chk=000229.chk
%mem=8GB
%Nproc=16
#p B3LYP/6-31G* opt pop=NPA

Template file

0 1
 C           -2.78136243       -2.51009164       -2.82961053
 C           -1.64870884       -2.34333304       -3.72459595
 C           -1.59778861       -0.93832094       -4.10572576
 C           -3.56018130       -1.28746748       -2.87782816
 C           -2.72570270       -0.26872238       -3.49076587
 C           -4.32843949       -0.94294503       -1.78102095
 C           -4.18434676       -1.71225108       -0.55489538
 C           -2.59370544       -3.16352358       -1.61669819
 C           -3.14741417       -2.63102982       -0.44984117
 C           -1.56035786       -4.08148240       -1.52558954
 C           -0.46102270       -3.02472678       -3.46091553
 C           -0.43810102       -3.98237870       -2.44746786
 C            0.74220285       -2.46589662       -3.88603973
 C           -0.36694173       -0.29966296       -4.15679987
 C            0.76073404       -1.08572356       -4.34264400
 C           -0.22265832        0.97787878       -3.60941617
 C           -2.52067960        0.93561301       -2.82906122
 C           -1.30724860        1.60425937       -2.97665604
 C           -4.40033003        0.45252017       -1.39819980
 C           -3.41658799        1.33913158       -1.83814178
 C           -4.45901237       -0.81953901        0.55466680
 C           -4.80599792        0.47519165       -0.00788905
 C           -3.65855322       -0.87645454        1.68980307
 C           -2.50736678       -2.81799338        0.78141726
 C           -2.75281720       -1.93361909        1.84685406
 C           -1.03943739       -4.43800049       -0.22314546
 C           -1.57145352       -3.84883362        0.91760120
 C            0.78214677       -4.18052228       -1.67975913
 C            0.40533585       -4.56373453       -0.33625594
 C            1.94849141       -2.68395849       -3.10100216
 C            1.84860783       -3.31461299       -1.87154790
 C            2.06776514       -0.53930195       -4.04335862
 C            2.78666703       -1.51517125       -3.23856577
 C            1.03719000        1.58627014       -3.60802807
 C            2.19023038        0.80478019       -3.72060583
 C            1.15293889        2.91853363       -3.22745659
 C           -1.15326609        2.86231036       -2.39770769
 C            0.01374846        3.58455534       -2.62437499
 C           -3.15414747        2.49228560       -1.09681973
 C           -2.04055659        3.27729130       -1.40276871
 C           -4.55111982        1.61478125        0.73116402
 C           -3.84407702        2.71324256        0.09663313
 C           -3.59817770        0.23429680        2.53733834
 C           -4.01709010        1.47888350        2.07449559
 C           -2.74496948        0.21198403        3.63104189
 C           -2.05536203       -2.06658884        3.05203786
 C           -1.98160452       -0.98278719        3.91608464
 C           -0.83760784       -3.96172818        2.08982266
 C           -1.08655716       -3.04992610        3.18323840
 C            1.19071319       -4.16311884        0.73423913
 C            0.59973929       -4.16429725        1.99422823
 C            2.51184213       -2.78382886       -0.76045275
 C            2.31036774       -3.36003115        0.50005897
 C            3.52899808       -1.06773564       -2.15456404
 C            3.35349538       -1.66623885       -0.90197112
 C            3.35033323        1.19695857       -3.05953542
 C            4.03800688        0.22342057       -2.22608470
 C            2.34334937        3.35729825       -2.51640590
 C            3.40915270        2.48434530       -2.39159108
 C            0.52229991        4.46349962       -1.58472708
 C            1.90106895        4.08574949       -1.34443166
 C           -1.66601625        4.29963885       -0.53055656
 C           -0.28767549        4.74602365       -0.50149973
 C           -3.21686767        3.48376271        1.15533489
 C           -3.17910340        2.63899892        2.33635056
 C           -2.11358043        4.25680114        0.84711385
 C           -1.88559264        1.36065786        3.87391700
 C           -1.98411362        2.45971659        3.03038926
 C           -0.67928440       -0.57216996        4.41831059
 C           -0.57821752        0.86386809        4.24980750
 C            0.19557768       -2.69485670        3.77399610
 C            1.22919477       -3.45829728        3.09467648
 C            0.42572919       -1.36883565        4.13720847
 C            3.07624631       -2.93795888        1.58040994
 C            2.47548297       -2.88827755        2.90371598
 C            3.97032736       -1.10288816        0.22195180
 C            3.92191336       -1.76890969        1.44054124
 C            4.46592190        0.89564856       -1.01741220
 C            4.00405186        2.27423321       -1.08207973
 C            4.40144938        0.22549951        0.19396842
 C            2.28540356        3.64341371       -0.07926453
 C            3.43057008        2.85109544        0.05100813
 C            0.21499960        4.48266579        0.83680234
 C           -0.92403888        4.14162015        1.67304008
 C           -0.81927002        3.08509494        2.57535695
 C            1.40117845        3.77707134        0.99728761
 C            0.54784785        1.38283816        3.63626910
 C            0.43052451        2.49224376        2.79407360
 C            1.55824964        2.97964957        2.12654692
 C            1.64492669       -0.76464836        3.81162536
 C            2.72439759       -1.56547401        3.44054980
 C            3.81214435       -0.99700204        2.66829524
 C            1.71244295        0.62119781        3.62279997
 C            4.34604758        0.99036769        1.35509650
 C            3.75620009        2.31803931        1.29456656
 C            2.80281005        2.42289088        2.38267153
 C            3.93740763        0.37918071        2.60535659
 C            2.88804124        1.20759743        3.17201199




