%chk=000022.chk
%mem=8GB
%Nproc=16
#p B3LYP/6-31G* opt pop=NPA

Template file

0 1
 C            5.27773169       -1.17458711        0.15936667
 C            4.81626889       -1.37877145        1.52421524
 C            3.96617165       -2.55483491        1.53348175
 C            4.70450839       -2.22276366       -0.67243739
 C            3.93518559       -3.10144493        0.18706204
 C            4.22165496       -1.92095940       -1.93611623
 C            4.31464734       -0.56094041       -2.44344030
 C            5.40664569        0.11464519       -0.34201991
 C            4.93694872        0.42006335       -1.68483426
 C            5.11254279        1.25786100        0.51008453
 C            4.46817564       -0.29005192        2.31020351
 C            4.64229636        1.06100831        1.79857171
 C            3.22079058       -0.32894285        3.05349186
 C            2.79021157       -2.56469671        2.28009601
 C            2.32464810       -1.37251244        2.84119035
 C            1.88790393       -3.58640012        2.02251542
 C            2.74786340       -3.67122556       -0.26413862
 C            1.90818023       -4.20554396        0.70589882
 C            2.94431668       -2.46915044       -2.35719477
 C            2.19823894       -3.26337521       -1.48696606
 C            3.06449805       -0.24656194       -3.11406184
 C            2.25859450       -1.45046181       -3.13091728
 C            2.45032418        0.98114115       -2.88506437
 C            4.37370575        1.75688955       -1.66321390
 C            4.50420921        2.28370179       -0.31500733
 C            3.20781125        2.03661207       -2.36912879
 C            3.47435801        3.07819263        0.18526555
 C            3.53436944        1.86774555        2.27926031
 C            2.72255063        1.02778027        3.14152404
 C            2.89871012        2.77212471        1.42485159
 C            1.35870658        1.24528522        3.16181166
 C            0.94755476       -1.12641301        2.93359722
 C            0.48022931        0.16159795        3.20085761
 C            0.50092894       -3.42396428        2.40651978
 C            0.03299248       -2.16072105        2.73574053
 C            0.54660836       -4.55173297        0.36281329
 C           -0.28590629       -4.25286374        1.51670296
 C            0.81853789       -3.37174410       -1.69850124
 C            0.06630091       -4.23640115       -0.89943534
 C            0.88477842       -1.34440907       -3.00414263
 C            0.17366212       -2.43026408       -2.51167655
 C            1.05153576        1.06709306       -2.91176685
 C            0.27718426       -0.09087662       -3.02377248
 C            0.42663948        2.30864492       -2.78970536
 C            2.57705372        3.23737418       -2.08160390
 C            2.73427488        3.79517684       -0.74531684
 C            1.19495650        3.42230036       -2.46553397
 C            1.46321068        4.37161046       -0.36316168
 C            0.65109879        4.41947651       -1.56433464
 C            1.56952922        3.13182244        1.69703013
 C            0.89033960        2.47474984        2.72607734
 C            0.87366887        3.98744000        0.83432639
 C           -0.42267882        2.80157432        3.01215848
 C           -0.89394885        0.40854609        3.22414215
 C           -1.33199361        1.72341688        3.35461023
 C           -1.31462937       -1.86393645        2.52645261
 C           -1.78077973       -0.56734521        2.76531776
 C           -1.61366855       -3.92327312        1.29366187
 C           -2.16006488       -2.83366085        1.97311886
 C           -1.30687367       -4.32677637       -1.09670135
 C           -2.16760386       -4.30115520        0.07415998
 C           -1.21262694       -2.40756960       -2.59450227
 C           -1.93117851       -3.48428603       -2.09353250
 C           -1.11034710       -0.01623306       -2.90374153
 C           -1.85611118       -1.19564500       -2.84919933
 C           -0.96155141        2.38124094       -2.65267822
 C           -1.72758177        1.21623987       -2.67575796
 C           -0.72012349        4.49318204       -1.42647091
 C           -1.53548143        3.55680070       -2.17576083
 C           -0.49919974        4.19204155        1.00363372
 C           -1.12648392        3.72757659        2.15062743
 C           -1.28198115        4.55631112       -0.08894693
 C           -2.64928851        2.08937334        2.87769247
 C           -2.52057711        3.31135791        2.09556769
 C           -3.12184221       -0.24048315        2.53015557
 C           -3.51204398        1.09725574        2.44023388
 C           -3.50815201       -2.54929818        1.79517280
 C           -4.00823027       -1.22773456        2.11568880
 C           -3.45308466       -3.76015724       -0.33011856
 C           -3.32106529       -3.30895967       -1.70804716
 C           -4.17054426       -2.99554623        0.57925966
 C           -3.24380449       -1.12888218       -2.81057698
 C           -3.99197606       -2.16976110       -2.12658474
 C           -3.09276198        1.27634980       -2.36901831
 C           -3.88057600        0.14037287       -2.52014229
 C           -2.81905801        3.49597683       -1.50823604
 C           -2.65133068        4.07580383       -0.18219385
 C           -3.24462336        3.44797261        0.91143172
 C           -3.59545968        2.35635848       -1.64093559
 C           -4.52772305        1.45871499        1.56174859
 C           -4.32203676        2.59483113        0.68060115
 C           -4.56810603        2.13044882       -0.67397877
 C           -5.03851824       -0.89570054        1.14582900
 C           -5.00461716       -1.90627923        0.10178445
 C           -4.93654566       -1.51957956       -1.23310966
 C           -4.95990212       -0.10781537       -1.57693562
 C           -5.23145289        0.43552875        0.80759763
 C           -5.21971906        0.83508023       -0.59254084




