%chk=000130.chk
%mem=8GB
%Nproc=16
#p B3LYP/6-31G* opt pop=NPA

Template file

0 1
 C            4.66615374        1.76742756        1.18231424
 C            4.88830918        0.34370127        1.01309738
 C            4.25363860       -0.34068403        2.12900785
 C            3.84865165        1.94844590        2.37269223
 C            3.44714197        0.63247443        2.83607215
 C            2.93044106        2.98499087        2.42960023
 C            2.76568496        3.87186909        1.28818913
 C            4.44400194        2.55437974        0.06395396
 C            3.45985865        3.62414114        0.11372449
 C            4.35698657        1.92433777       -1.24134181
 C            4.83218178       -0.23674209       -0.25349060
 C            4.50664913        0.54503174       -1.37068686
 C            4.73162849       -1.62558860       -0.31972725
 C            3.74720931       -1.61585261        1.92412341
 C            4.24002646       -2.34457545        0.84480370
 C            2.50439536       -1.95167178        2.46496454
 C            2.10137410        0.36077942        3.05910390
 C            1.63236450       -0.94377133        2.89454389
 C            1.61072333        2.72367033        2.97607696
 C            1.19211799        1.41357779        3.18593395
 C            1.36295027        4.24249421        1.21754936
 C            0.69120579        3.65862116        2.36117524
 C            0.69804201        4.24582507       -0.00505076
 C            2.74076033        3.63106221       -1.14721294
 C            3.30401456        2.59185424       -1.99193752
 C            1.36646778        3.83192417       -1.16324648
 C            2.46085988        1.83144468       -2.80008545
 C            4.00168560       -0.05548269       -2.52225201
 C            2.90944409        0.58937287       -3.23517440
 C            4.17562090       -2.26745321       -1.49820877
 C            3.77723645       -1.48791051       -2.56661862
 C            3.52164670       -3.51597533        0.37461239
 C            3.31806521       -3.35337363       -1.05316400
 C            2.02464539       -3.24354813        2.28396532
 C            2.48186397       -4.01504426        1.14104660
 C            0.61117108       -3.51318310        2.45903039
 C            0.27945845       -1.22020893        3.11218320
 C           -0.23795689       -2.48811214        2.83610687
 C           -0.17267373        1.13892691        3.21742721
 C           -0.59143077       -0.17248950        3.41235430
 C           -0.63650099        3.28955962        2.21586838
 C           -1.09280788        2.11978352        2.82428746
 C           -0.69804201        4.24582507        0.00505076
 C           -1.36646778        3.83192417        1.16324648
 C           -1.36295027        4.24249421       -1.21754936
 C            0.63650099        3.28955962       -2.21586838
 C            1.09280788        2.11978352       -2.82428746
 C           -0.69120579        3.65862116       -2.36117524
 C            0.17267373        1.13892691       -3.21742721
 C            1.94350551       -0.43350668       -3.58752700
 C            2.47275872       -1.71514544       -3.16134653
 C            0.59143077       -0.17248950       -3.41235430
 C            2.03268120       -3.48916561       -1.57499071
 C            1.59974507       -2.63528174       -2.59593271
 C            1.30199823       -4.53319839        0.47096818
 C            0.18659640       -4.40129837        1.39403798
 C            1.09942789       -4.26643217       -0.88179403
 C           -1.09942789       -4.26643217        0.88179403
 C           -1.59974507       -2.63528174        2.59593271
 C           -2.03268120       -3.48916561        1.57499071
 C           -1.94350551       -0.43350668        3.58752700
 C           -2.47275872       -1.71514544        3.16134653
 C           -2.46085988        1.83144468        2.80008545
 C           -2.90944409        0.58937287        3.23517440
 C           -2.74076033        3.63106221        1.14721294
 C           -3.30401456        2.59185424        1.99193752
 C           -2.76568496        3.87186909       -1.28818913
 C           -3.45985865        3.62414114       -0.11372449
 C           -1.61072333        2.72367033       -2.97607696
 C           -1.19211799        1.41357779       -3.18593395
 C           -2.93044106        2.98499087       -2.42960023
 C           -2.10137410        0.36077942       -3.05910390
 C           -0.27945845       -1.22020893       -3.11218320
 C            0.23795689       -2.48811214       -2.83610687
 C           -1.63236450       -0.94377133       -2.89454389
 C           -0.18659640       -4.40129837       -1.39403798
 C           -1.30199823       -4.53319839       -0.47096818
 C           -0.61117108       -3.51318310       -2.45903039
 C           -2.50439536       -1.95167178       -2.46496454
 C           -2.48186397       -4.01504426       -1.14104660
 C           -2.02464539       -3.24354813       -2.28396532
 C           -3.31806521       -3.35337363        1.05316400
 C           -3.52164670       -3.51597533       -0.37461239
 C           -3.77723645       -1.48791051        2.56661862
 C           -4.00168560       -0.05548269        2.52225201
 C           -4.17562090       -2.26745321        1.49820877
 C           -4.35698657        1.92433777        1.24134181
 C           -4.44400194        2.55437974       -0.06395396
 C           -4.50664913        0.54503174        1.37068686
 C           -3.84865165        1.94844590       -2.37269223
 C           -3.44714197        0.63247443       -2.83607215
 C           -4.66615374        1.76742756       -1.18231424
 C           -3.74720931       -1.61585261       -1.92412341
 C           -4.24002646       -2.34457545       -0.84480370
 C           -4.73162849       -1.62558860        0.31972725
 C           -4.83218178       -0.23674209        0.25349060
 C           -4.25363860       -0.34068403       -2.12900785
 C           -4.88830918        0.34370127       -1.01309738




