%chk=000256.chk
%mem=8GB
%Nproc=16
#p B3LYP/6-31G* opt pop=NPA

Template file

0 1
 C            3.85992729       -2.58086494        0.88910983
 C            2.75823596       -3.47059366        1.22449344
 C            2.29150882       -3.12118672        2.55007187
 C            4.08956269       -1.70323502        2.02497818
 C            3.03933197       -1.95584219        2.99432834
 C            4.49937036       -0.40164060        1.80058577
 C            4.74820441        0.02483457        0.43756906
 C            3.95242651       -2.08727072       -0.41069885
 C            4.24765163       -0.73468540       -0.61945853
 C            3.35207237       -2.82443644       -1.42544240
 C            1.84011343       -3.80198797        0.23552855
 C            2.27222272       -3.73997054       -1.08231511
 C            0.47158038       -3.74072864        0.52134005
 C            0.93670178       -3.18820173        2.83546065
 C            0.05067866       -3.63323406        1.85267497
 C            0.45879728       -2.41134758        3.88739389
 C            2.34777357       -0.89283199        3.57149502
 C            1.15046602       -1.17561130        4.21551553
 C            3.79944609        0.68084435        2.47226858
 C            2.61030249        0.41278831        3.14772085
 C            4.61090146        1.46848290        0.41740871
 C            3.88512439        1.85117687        1.61653311
 C            4.30583259        2.09383800       -0.77639238
 C            3.84464301       -0.09823166       -1.80088879
 C            4.00379524        1.27820956       -1.94018109
 C            2.99099075       -2.16532975       -2.66259954
 C            3.05105028       -0.77943997       -2.72346591
 C            1.30246567       -3.70742342       -2.15538924
 C            1.84291806       -2.86469610       -3.20836130
 C           -0.47158038       -3.74072864       -0.52134005
 C           -0.05067866       -3.63323406       -1.85267497
 C           -1.84011343       -3.80198797       -0.23552855
 C           -1.30246567       -3.70742342        2.15538924
 C           -2.27222272       -3.73997054        1.08231511
 C           -0.96632965       -2.17581952        4.02706988
 C           -1.84291806       -2.86469610        3.20836130
 C            0.15135257       -0.13590813        4.35517672
 C           -1.15760472       -0.75005492        4.22838226
 C            1.59065138        1.37325040        3.14983288
 C            0.36207114        1.09723576        3.75773288
 C            2.78210927        2.68964562        1.51593944
 C            1.76969230        2.57919588        2.46355929
 C            3.37139248        3.20433933       -0.76914046
 C            2.56342544        3.42402775        0.34495975
 C            3.04904475        2.00951078       -2.75231556
 C            2.78688661        3.27782209       -2.09389391
 C            2.14078514       -0.07085557       -3.51596184
 C            2.00623552        1.30587535       -3.34403890
 C            0.96632965       -2.17581952       -4.02706988
 C            1.15760472       -0.75005492       -4.22838226
 C           -0.93670178       -3.18820173       -2.83546065
 C           -0.45879728       -2.41134758       -3.88739389
 C           -2.75823596       -3.47059366       -1.22449344
 C           -2.29150882       -3.12118672       -2.55007187
 C           -3.85992729       -2.58086494       -0.88910983
 C           -3.35207237       -2.82443644        1.42544240
 C           -2.99099075       -2.16532975        2.66259954
 C           -3.95242651       -2.08727072        0.41069885
 C           -2.14078514       -0.07085557        3.51596184
 C           -3.05105028       -0.77943997        2.72346591
 C           -0.74341592        1.89453375        3.47035095
 C           -2.00623552        1.30587535        3.34403890
 C            0.76648405        3.53803284        2.48213389
 C           -0.53083713        3.19452601        3.03224760
 C            1.39391741        4.17672490        0.20170395
 C            0.54992946        4.34237108        1.29408651
 C            1.54416266        3.86805016       -2.24038499
 C            0.88539975        4.42611230       -1.07209561
 C            0.74341592        1.89453375       -3.47035095
 C            0.53083713        3.19452601       -3.03224760
 C           -0.15135257       -0.13590813       -4.35517672
 C           -1.15046602       -1.17561130       -4.21551553
 C           -0.36207114        1.09723576       -3.75773288
 C           -3.03933197       -1.95584219       -2.99432834
 C           -4.08956269       -1.70323502       -2.02497818
 C           -2.34777357       -0.89283199       -3.57149502
 C           -4.49937036       -0.40164060       -1.80058577
 C           -4.24765163       -0.73468540        0.61945853
 C           -3.84464301       -0.09823166        1.80088879
 C           -4.74820441        0.02483457       -0.43756906
 C           -3.04904475        2.00951078        2.75231556
 C           -4.00379524        1.27820956        1.94018109
 C           -1.54416266        3.86805016        2.24038499
 C           -0.88539975        4.42611230        1.07209561
 C           -2.78688661        3.27782209        2.09389391
 C           -0.54992946        4.34237108       -1.29408651
 C           -0.76648405        3.53803284       -2.48213389
 C           -1.39391741        4.17672490       -0.20170395
 C           -1.59065138        1.37325040       -3.14983288
 C           -2.61030249        0.41278831       -3.14772085
 C           -3.79944609        0.68084435       -2.47226858
 C           -1.76969230        2.57919588       -2.46355929
 C           -4.61090146        1.46848290       -0.41740871
 C           -4.30583259        2.09383800        0.77639238
 C           -3.37139248        3.20433933        0.76914046
 C           -2.56342544        3.42402775       -0.34495975
 C           -3.88512439        1.85117687       -1.61653311
 C           -2.78210927        2.68964562       -1.51593944




