%chk=000010.chk
%mem=8GB
%Nproc=16
#p B3LYP/6-31G* opt pop=NPA

Template file

0 1
 C            5.24462650       -1.13844191       -0.38459676
 C            5.33345944        0.15730404        0.27025073
 C            4.76230081        0.02624932        1.60002661
 C            4.73551699       -2.09523185        0.58588690
 C            4.40251688       -1.36879076        1.79832269
 C            3.91381702       -3.13136621        0.17198038
 C            3.51561182       -3.22998187       -1.22451671
 C            4.84266036       -1.21752867       -1.71334234
 C            3.92350650       -2.26382670       -2.13140427
 C            4.49550309       -0.00614833       -2.43909058
 C            5.10118814        1.31658345       -0.45353048
 C            4.67565559        1.23264306       -1.84421669
 C            4.34717603        2.38988511        0.16708151
 C            3.92216200        1.01671445        2.10751008
 C            3.61478281        2.13591897        1.32696717
 C            3.10154454        0.68397250        3.17916007
 C            3.23846311       -1.66706567        2.50361375
 C            2.77186113       -0.71593773        3.40140302
 C            2.76589522       -3.48823694        0.98558955
 C            2.37031364       -2.66068277        2.03597974
 C            2.14147822       -3.69776881       -1.25971416
 C            1.75430907       -4.02887345        0.09643367
 C            1.20941505       -3.07353785       -2.08271365
 C            2.94084464       -1.66741215       -3.01894219
 C            3.27042710       -0.26303938       -3.17523242
 C            1.60092239       -2.02422196       -2.91557354
 C            2.23684771        0.67047613       -3.15987350
 C            3.67880711        2.26684703       -2.05767208
 C            3.73871098        3.15020462       -0.90887723
 C            2.43548898        1.93424088       -2.59732472
 C            2.63602137        3.93146557       -0.62360771
 C            2.45841055        2.88211063        1.58496033
 C            2.11040533        3.91872277        0.72878874
 C            1.90838188        1.46685316        3.43672050
 C            1.52887671        2.43740814        2.52439376
 C            1.40534129       -0.78089325        3.87139643
 C            0.90306768        0.57593527        3.97676856
 C            1.02916553       -2.68189552        2.44015816
 C            0.55593100       -1.76102538        3.38128405
 C            0.42355313       -3.89389215        0.45374281
 C            0.12305090       -3.49365217        1.74892203
 C           -0.14608319       -3.23140402       -1.79607424
 C           -0.53573752       -3.72377454       -0.54426631
 C           -1.08542046       -2.61721781       -2.62074757
 C            0.63692270       -1.12497541       -3.35967809
 C            0.94034794        0.23858540       -3.42086229
 C           -0.69186307       -1.53352189       -3.40667653
 C           -0.08972269        1.17131991       -3.42926425
 C            1.33540701        2.76157363       -2.34196549
 C            1.49205031        3.86548319       -1.51415921
 C            0.04889105        2.33160872       -2.67327227
 C            0.72358927        4.32680252        0.64523031
 C            0.35406987        4.34408110       -0.76296638
 C            0.17453054        2.76743492        2.38949832
 C           -0.19781690        3.83116485        1.55993065
 C           -0.43100757        0.80262608        3.67853287
 C           -0.80467325        1.96602786        3.00054828
 C           -0.81684308       -1.56990654        3.52362145
 C           -1.30877787       -0.27574342        3.71696012
 C           -1.20055581       -3.55259657        2.16070729
 C           -1.67396559       -2.58984303        3.13277241
 C           -1.88825503       -3.75242682       -0.19206994
 C           -2.23865125       -3.71822408        1.15603033
 C           -2.43297949       -2.88677302       -2.41944745
 C           -2.85297625       -3.41880256       -1.13767811
 C           -3.43934685       -1.93806303       -2.86341955
 C           -1.64012551       -0.64494918       -3.90371032
 C           -1.34673455        0.77488765       -3.85786168
 C           -3.04499673       -0.82270197       -3.58729838
 C           -2.51380579        1.45372079       -3.33293858
 C           -3.59523743        0.48498299       -3.26693491
 C           -1.07653216        2.90901291       -2.06099973
 C           -0.92200715        3.92214127       -1.10879821
 C           -2.35069117        2.38174530       -2.30921246
 C           -1.53794885        4.01490114        1.24950691
 C           -1.91234319        4.09723272       -0.15306474
 C           -2.16489323        2.22979271        2.80123509
 C           -2.54864589        3.24032009        1.93458352
 C           -2.67052405       -0.02452997        3.63466192
 C           -3.11020724        1.26374495        3.13414792
 C           -3.06553396       -2.29940679        2.83500543
 C           -3.39147601       -2.93306252        1.57024494
 C           -3.56471283       -1.03987636        3.10814099
 C           -4.03255502       -2.67890034       -0.71459900
 C           -4.42762111       -1.80555164       -1.80470353
 C           -4.12146473       -2.24264852        0.60553184
 C           -4.55042785        0.60750544       -2.26979825
 C           -4.96990589       -0.56360513       -1.51492139
 C           -3.39676593        2.60908758       -1.40789901
 C           -3.18841853        3.43636136       -0.31541849
 C           -3.63549877        2.99808513        0.99771167
 C           -4.46934269        1.72502630       -1.34775517
 C           -4.23872794        1.03548709        2.24233098
 C           -4.44333814       -0.40194902        2.14570581
 C           -4.65091802       -0.97849574        0.89583509
 C           -5.13337228       -0.16762679       -0.12734246
 C           -4.38764245        1.82995129        1.10708079
 C           -4.93673597        1.27179815       -0.04686316




