%chk=000254.chk
%mem=8GB
%Nproc=16
#p B3LYP/6-31G* opt pop=NPA

Template file

0 1
 C            2.58781391       -3.65155154       -1.51955401
 C            1.23729239       -4.06545759       -1.86960584
 C            0.82424964       -3.30646243       -3.03128816
 C            3.05963843       -2.74961169       -2.55704333
 C            1.93455887       -2.45337062       -3.42586021
 C            3.93678152       -1.73442822       -2.22012590
 C            4.38462712       -1.63063859       -0.84528294
 C            2.89725664       -3.40571234       -0.18186277
 C            3.67559831       -2.29379069        0.15507429
 C            2.11732978       -4.01599211        0.79566551
 C            0.32631096       -4.30271666       -0.85285063
 C            0.82651060       -4.56831730        0.41835579
 C           -0.99346984       -3.86938107       -0.99766718
 C           -0.46539799       -2.79363105       -3.09818628
 C           -1.32907802       -2.96061214       -2.00947051
 C           -0.68895476       -1.76181938       -3.99824281
 C            1.66728941       -1.13971466       -3.80320052
 C            0.41050795       -0.86724906       -4.32632913
 C            3.66308651       -0.38588520       -2.68709712
 C            2.42681846       -0.09808960       -3.26217513
 C            4.80485861       -0.25748778       -0.64139166
 C            4.22931957        0.53406666       -1.71541783
 C            4.80485861        0.25748778        0.64139166
 C            3.53804071       -1.70126243        1.41553467
 C            4.22931957       -0.53406666        1.71541783
 C            1.95347428       -3.36234880        2.08020665
 C            2.51140774       -2.10569310        2.26233651
 C           -0.04761877       -4.47877618        1.57224834
 C            0.60011218       -3.61256654        2.54127983
 C           -1.90188279       -4.13651960        0.01904468
 C           -1.41029558       -4.35515170        1.37032108
 C           -3.11501692       -3.34982835        0.11680116
 C           -2.49857160       -2.18556171       -1.90600198
 C           -3.34391028       -2.32875126       -0.79789304
 C           -1.89106831       -0.96880535       -3.89450916
 C           -2.80814096       -1.23977401       -2.89027833
 C           -0.09805986        0.48817944       -4.29213426
 C           -1.54029300        0.41639631       -4.17151824
 C            1.84676363        1.15836238       -3.04666597
 C            0.58329193        1.45031976       -3.56810904
 C            3.53804071        1.70126243       -1.41553467
 C            2.51140774        2.10569310       -2.26233651
 C            4.38462712        1.63063859        0.84528294
 C            3.67559831        2.29379069       -0.15507429
 C            3.66308651        0.38588520        2.68709712
 C            3.93678152        1.73442822        2.22012590
 C            1.84676363       -1.15836238        3.04666597
 C            2.42681846        0.09808960        3.26217513
 C           -0.11238994       -2.56981783        3.12008571
 C            0.58329193       -1.45031976        3.56810904
 C           -2.17022082       -3.48882307        2.25002433
 C           -3.36831479       -3.11060969        1.52883378
 C           -1.50898619       -2.53562289        3.02379783
 C           -4.02974991       -1.95456896        1.90260298
 C           -4.24616023       -1.31479926       -0.46642196
 C           -4.54759067       -1.07504040        0.87155150
 C           -3.76519801       -0.26878716       -2.62696641
 C           -4.48182534       -0.28959427       -1.36988745
 C           -2.21820237        1.42567780       -3.49597604
 C           -3.46254218        1.11835554       -2.94805955
 C           -0.11238994        2.56981783       -3.12008571
 C           -1.50898619        2.53562289       -3.02379783
 C            1.95347428        3.36234880       -2.08020665
 C            0.60011218        3.61256654       -2.54127983
 C            2.89725664        3.40571234        0.18186277
 C            2.11732978        4.01599211       -0.79566551
 C            3.05963843        2.74961169        2.55704333
 C            2.58781391        3.65155154        1.51955401
 C            1.66728941        1.13971466        3.80320052
 C            1.93455887        2.45337062        3.42586021
 C           -0.09805986       -0.48817944        4.29213426
 C            0.41050795        0.86724906        4.32632913
 C           -2.21820237       -1.42567780        3.49597604
 C           -3.46254218       -1.11835554        2.94805955
 C           -1.54029300       -0.41639631        4.17151824
 C           -4.48182534        0.28959427        1.36988745
 C           -3.76519801        0.26878716        2.62696641
 C           -4.54759067        1.07504039       -0.87155150
 C           -4.02974992        1.95456896       -1.90260298
 C           -4.24616023        1.31479926        0.46642196
 C           -2.17022082        3.48882307       -2.25002433
 C           -3.36831479        3.11060969       -1.52883378
 C           -0.04761877        4.47877618       -1.57224834
 C            0.82651060        4.56831730       -0.41835579
 C           -1.41029558        4.35515170       -1.37032108
 C            1.23729239        4.06545759        1.86960584
 C            0.82424964        3.30646243        3.03128816
 C            0.32631096        4.30271666        0.85285063
 C           -0.68895476        1.76181938        3.99824281
 C           -1.89106831        0.96880535        3.89450916
 C           -2.80814096        1.23977401        2.89027833
 C           -0.46539799        2.79363105        3.09818628
 C           -3.34391028        2.32875126        0.79789304
 C           -3.11501692        3.34982835       -0.11680116
 C           -1.90188279        4.13651960       -0.01904468
 C           -0.99346984        3.86938107        0.99766718
 C           -2.49857160        2.18556171        1.90600198
 C           -1.32907802        2.96061214        2.00947051




