%chk=000108.chk
%mem=8GB
%Nproc=16
#p B3LYP/6-31G* opt pop=NPA

Template file

0 1
 C            4.62976579        1.41970369        1.61077181
 C            3.82059021        2.60963645        1.41506909
 C            2.82976261        2.65968958        2.47864308
 C            4.07798767        0.69313205        2.74402438
 C            2.88667026        1.39733769        3.18640993
 C            4.07798767       -0.69313205        2.74402438
 C            4.62976579       -1.41970369        1.61077181
 C            5.09400747        0.72768366        0.50146388
 C            5.09400747       -0.72768366        0.50146388
 C            4.69532319        1.17155866       -0.82282928
 C            3.44499337        2.99970486        0.13211235
 C            3.71731876        2.15758172       -0.95270234
 C            2.44075329        3.95384801        0.02313663
 C            1.59242687        3.23434096        2.20760184
 C            1.50908490        4.11253310        1.13064600
 C            0.42656816        2.61760302        2.67423509
 C            1.70674428        0.69726505        3.39927378
 C            0.49455246        1.37499952        3.31780951
 C            2.88667026       -1.39733769        3.18640993
 C            1.70674428       -0.69726505        3.39927378
 C            3.82059021       -2.60963645        1.41506909
 C            2.82976261       -2.65968958        2.47864308
 C            3.44499337       -2.99970486        0.13211235
 C            4.69532319       -1.17155866       -0.82282928
 C            4.65939458       -0.00000000       -1.68013788
 C            3.71731876       -2.15758172       -0.95270234
 C            3.82267717       -0.00000000       -2.78006706
 C            2.88948187        2.17007624       -2.08376371
 C            3.00570001        1.16972114       -3.04442149
 C            1.67633102        4.04019514       -1.20247349
 C            1.77696523        3.00833697       -2.12566553
 C            0.20961005        4.44427163        0.57369397
 C            0.37160508        4.57869462       -0.86265151
 C           -0.81531946        3.12462698        2.28605934
 C           -0.92195498        3.81901398        1.08395428
 C           -1.96759458        2.62463048        2.87571366
 C           -0.67875347        0.69816582        3.64337100
 C           -1.87855651        1.40086444        3.64732434
 C            0.49455246       -1.37499952        3.31780951
 C           -0.67875347       -0.69816582        3.64337100
 C            1.59242687       -3.23434096        2.20760184
 C            0.42656816       -2.61760302        2.67423509
 C            2.44075329       -3.95384801        0.02313663
 C            1.50908490       -4.11253310        1.13064600
 C            1.67633102       -4.04019514       -1.20247349
 C            2.88948187       -2.17007624       -2.08376371
 C            3.00570001       -1.16972114       -3.04442149
 C            1.77696523       -3.00833697       -2.12566553
 C            1.80980541        0.72462535       -3.73581392
 C            1.80980541       -0.72462535       -3.73581392
 C            0.66217928        2.64498766       -2.88782690
 C            0.61927889        1.39610212       -3.50217207
 C           -0.70293771        4.29348638       -1.68449691
 C           -0.50658297        3.38992997       -2.80345882
 C           -2.03905834        3.62191393        0.26538186
 C           -1.97992123        3.96065614       -1.07969464
 C           -3.17875039        2.55641185        2.08018887
 C           -3.09961880        2.83957331        0.71977563
 C           -3.13891940        0.69320189        3.50770837
 C           -3.95294609        1.42042823        2.54634807
 C           -1.87855651       -1.40086444        3.64732434
 C           -3.13891940       -0.69320189        3.50770837
 C           -0.81531946       -3.12462698        2.28605934
 C           -1.96759458       -2.62463048        2.87571366
 C            0.20961005       -4.44427163        0.57369397
 C            0.37160508       -4.57869462       -0.86265151
 C           -0.92195498       -3.81901398        1.08395428
 C           -0.70293771       -4.29348638       -1.68449691
 C            0.66217928       -2.64498766       -2.88782690
 C            0.61927889       -1.39610212       -3.50217207
 C           -0.50658297       -3.38992997       -2.80345882
 C           -0.59177224        0.70176683       -3.57317068
 C           -0.59177224       -0.70176683       -3.57317068
 C           -1.77511112        2.73756094       -3.06594810
 C           -2.71249664        3.15490762       -2.03273092
 C           -1.79378397        1.41265317       -3.49178925
 C           -3.89190152        2.13203339       -0.19556754
 C           -3.64545843        2.23499941       -1.56957406
 C           -4.74496712        0.72787332        1.64408574
 C           -4.79216483        1.16971021        0.26164478
 C           -3.95294609       -1.42042823        2.54634807
 C           -3.17875039       -2.55641185        2.08018887
 C           -4.74496712       -0.72787332        1.64408574
 C           -2.03905834       -3.62191393        0.26538186
 C           -1.97992123       -3.96065614       -1.07969464
 C           -3.09961880       -2.83957331        0.71977563
 C           -1.77511112       -2.73756094       -3.06594810
 C           -1.79378397       -1.41265317       -3.49178925
 C           -2.71249664       -3.15490762       -2.03273092
 C           -2.99372513        0.72354350       -3.38601865
 C           -3.97324322        1.17208166       -2.40812152
 C           -2.99372513       -0.72354350       -3.38601865
 C           -5.05983507        0.00000000       -0.55526839
 C           -4.79216483       -1.16971021        0.26164478
 C           -3.89190152       -2.13203339       -0.19556754
 C           -3.64545843       -2.23499941       -1.56957406
 C           -4.64617265       -0.00000000       -1.87563859
 C           -3.97324322       -1.17208166       -2.40812152




