%chk=000090.chk
%mem=8GB
%Nproc=16
#p B3LYP/6-31G* opt pop=NPA

Template file

0 1
 C            5.04371709        0.67556686        0.70654108
 C            4.86911689        0.27031021       -0.67816959
 C            4.64789432       -1.16751094       -0.69722970
 C            4.77011491       -0.48077605        1.54471094
 C            4.45703671       -1.59951659        0.67286856
 C            4.06351329       -0.32740872        2.72772648
 C            3.57907163        0.98675311        3.12164325
 C            4.61635473        1.93434096        1.10147509
 C            3.86790346        2.09346531        2.34103845
 C            4.01337769        2.80994223        0.11431585
 C            4.15562330        1.07892752       -1.56162488
 C            3.60960666        2.28568895       -1.11347593
 C            3.67973774        0.50688670       -2.73616871
 C            3.84638105       -1.71206422       -1.69499701
 C            3.59184671       -0.94226242       -2.82883584
 C            3.01614835       -2.79802773       -1.39672728
 C            3.38270126       -2.42988100        0.96253454
 C            2.83236856       -3.19250195       -0.06521212
 C            3.03970945       -1.29742959        3.07135874
 C            2.68660085       -2.29177291        2.16854165
 C            2.23385693        0.82557853        3.64355375
 C            1.98347765       -0.59806511        3.77278820
 C            1.20253141        1.65402012        3.19663031
 C            2.82430719        3.07363321        2.10055028
 C            3.13122937        3.71034030        0.83382314
 C            1.49636067        2.77048038        2.41085014
 C            2.10568925        4.32481653        0.14385832
 C            2.51410046        2.85013457       -1.77616590
 C            1.90756960        3.98694037       -1.25417926
 C            2.49942991        1.06292233       -3.37157115
 C            1.85200928        2.12976593       -2.76772236
 C            2.46414313       -1.26150827       -3.68733032
 C            1.70634056       -0.03850308       -3.88298311
 C            2.18759263       -3.30995408       -2.39436543
 C            1.78309832       -2.44978009       -3.48920889
 C            1.03627257       -4.11907448       -2.03896755
 C            1.87241868       -4.14624916        0.25831896
 C            0.92466000       -4.59571820       -0.74587794
 C            1.45364947       -2.92222701        2.32416545
 C            1.16160824       -4.00983271        1.51653468
 C            0.67938916       -1.04444910        3.63525325
 C            0.42291461       -2.26525637        3.00391958
 C           -0.11189230        1.19292873        3.28445973
 C           -0.34057344       -0.10981070        3.72918984
 C           -1.14820778        1.91764623        2.69087506
 C            0.46887799        3.44746658        1.74937129
 C            0.79090852        4.36590424        0.75455280
 C           -0.84704471        2.99265008        1.84872785
 C            0.51376543        4.24900475       -1.56217374
 C           -0.15255404        4.60037541       -0.31663383
 C            0.46942563        2.26635806       -2.91794412
 C           -0.15818406        3.43184649       -2.46586802
 C            0.33391746       -0.03169296       -3.66318382
 C           -0.29385369        1.16847889       -3.33846992
 C            0.33084725       -2.44136009       -3.51495154
 C           -0.13119466       -3.53239130       -2.67793567
 C           -0.35255842       -1.23233305       -3.47517472
 C           -1.30561552       -3.37266286       -1.94749874
 C           -0.38522314       -4.64899613       -0.12402146
 C           -0.21975190       -4.38499577        1.29601163
 C           -1.49147187       -4.11439243       -0.77806136
 C           -0.90379500       -2.69890230        2.87474894
 C           -1.23257774       -3.71296944        1.96899172
 C           -1.63508863       -0.57381722        3.86048102
 C           -1.91980840       -1.93891617        3.45662764
 C           -2.47431149        1.50896766        2.87047768
 C           -2.73535138        0.26472128        3.43315796
 C           -3.48282224        2.09745639        2.11848782
 C           -1.83450682        3.54108716        1.02086415
 C           -1.47207708        4.21185172       -0.14901702
 C           -3.16032360        3.16418268        1.19393312
 C           -1.54663367        3.51639151       -2.48919565
 C           -2.22361015        4.01276389       -1.30241514
 C           -1.67939189        1.18955941       -3.21351503
 C           -2.32021344        2.40027576       -2.99092273
 C           -1.64961926       -1.20202210       -2.96977289
 C           -2.13678071       -2.28031840       -2.21834912
 C           -2.36573084       -0.01055505       -3.02951576
 C           -3.39390072       -2.20381205       -1.61122827
 C           -2.64141686       -3.91537455       -0.02561101
 C           -2.51000876       -3.75647843        1.41346321
 C           -3.64450504       -2.97581251       -0.48476875
 C           -3.25788143       -1.96088350        2.89204048
 C           -3.73372152       -0.59188270        2.81320968
 C           -3.53752538       -2.83250339        1.85858761
 C           -4.23649160       -2.34212743        0.68419636
 C           -4.48140929        1.24272934        1.49235580
 C           -4.39578039       -0.13657469        1.67480081
 C           -4.62318804       -1.00594974        0.59786269
 C           -4.01858092        3.01937296        0.02918390
 C           -3.52032371        3.36545505       -1.21894621
 C           -3.61043182        2.42229038       -2.32281021
 C           -4.78785413        1.79548681        0.18648384
 C           -3.69781953       -0.00017567       -2.63917398
 C           -4.19185220       -1.08383765       -1.81619438
 C           -4.87430693       -0.49390193       -0.67389120
 C           -4.29970711        1.23068841       -2.15784484
 C           -4.95174279        0.93876600       -0.89024119




