%chk=000179.chk
%mem=8GB
%Nproc=16
#p B3LYP/6-31G* opt pop=NPA

Template file

0 1
 C            4.79125868        0.02054797        0.24776754
 C            4.59771210        1.29109427       -0.42852151
 C            4.14656192        1.00170348       -1.78276144
 C            4.74134134       -1.01947620       -0.76519292
 C            4.15419732       -0.43586714       -1.95886153
 C            4.36473039       -2.29733136       -0.39281843
 C            3.94277818       -2.52864798        0.97601294
 C            4.19659944       -0.18928325        1.48928975
 C            3.64735225       -1.43781249        1.79202321
 C            3.84570104        0.91622914        2.25425709
 C            4.02923267        2.35855905        0.26161438
 C            3.76550741        2.22646979        1.62490871
 C            3.36671665        3.34190732       -0.46758773
 C            3.11288747        1.75509818       -2.32030889
 C            2.92852094        3.04183695       -1.82302708
 C            2.05841205        1.11499300       -2.98192636
 C            3.06466487       -1.05688374       -2.55666999
 C            2.06888508       -0.27817961       -3.15804903
 C            3.46639279       -3.04608285       -1.25445942
 C            2.85531891       -2.42116303       -2.33829385
 C            3.06247644       -3.68419273        0.96725991
 C            2.66591980       -3.91898163       -0.41051237
 C            2.11781425       -3.81361792        1.96770869
 C            2.62895174       -1.54164655        2.74512101
 C            2.01121373       -2.76549118        2.96602881
 C            2.74957425        0.80460080        3.19854315
 C            2.05426588       -0.39132754        3.27888516
 C            2.63953788        2.93433079        2.21715374
 C            2.00939668        2.04926712        3.17892917
 C            2.32162651        4.12723008        0.16756646
 C            1.84178640        3.74319125        1.41697581
 C            1.66672736        3.72318411       -2.04298350
 C            1.39208436        4.53550614       -0.87194229
 C            0.93002472        1.85580729       -3.34113222
 C            0.63385937        3.03280206       -2.66036234
 C           -0.05532674        1.27538998       -4.12179027
 C            1.04537675       -0.90328369       -3.87843643
 C           -0.00590389       -0.14793016       -4.38253155
 C            1.73982608       -3.03584513       -2.88846382
 C            0.83885296       -2.26762654       -3.72041664
 C            1.32304473       -4.11425735       -0.73064994
 C            0.93647053       -3.91130134       -2.04866837
 C            0.76718434       -4.20211074        1.60633037
 C            0.35841999       -4.09801673        0.28186172
 C            0.65238659       -2.78531836        3.46957764
 C           -0.10677777       -3.72586750        2.65787958
 C            0.69827876       -0.38317766        3.62059448
 C            0.04231048       -1.59611007        3.85638956
 C            0.62594592        2.01136543        3.24614471
 C           -0.01875968        0.82370403        3.60406442
 C            0.47950201        3.86525724        1.70333254
 C           -0.10407435        3.05284578        2.68070904
 C            0.07708653        4.79584053       -0.53062031
 C           -0.33347427        4.60553848        0.84645156
 C           -0.69664870        3.34747248       -2.36646620
 C           -0.98766110        4.27602992       -1.37243266
 C           -1.43749548        1.63966323       -3.87128320
 C           -1.71445425        2.50814555       -2.82003723
 C           -1.36000152       -0.66871425       -4.27138387
 C           -2.25593926        0.45841984       -4.07719092
 C           -0.51139859       -2.75394698       -3.48120080
 C           -0.45658745       -3.66384770       -2.35380169
 C           -1.57159782       -1.85959336       -3.57860873
 C           -0.95776896       -3.70982043        0.00142567
 C           -1.36087892       -3.49479387       -1.32006423
 C           -1.42935310       -3.42697179        2.36381304
 C           -1.87793778       -3.53861386        1.04499650
 C           -1.33777568       -1.61088858        4.00163936
 C           -2.10461297       -2.58987360        3.24774735
 C           -1.39928350        0.83364516        3.82942477
 C           -2.07512501       -0.36640993        3.99533868
 C           -1.47499338        3.10528608        2.89584823
 C           -2.14673538        1.93892242        3.43524098
 C           -1.76708414        4.37793895        0.83552318
 C           -2.14374162        4.04424124       -0.52770337
 C           -2.33997667        3.67684236        1.87993804
 C           -2.84876496        2.30900229       -2.02429145
 C           -2.93119898        2.92430815       -0.77553334
 C           -3.39984106        0.28793206       -3.31821497
 C           -3.74726469        1.29191346       -2.32744712
 C           -2.63562777       -1.95444030       -2.67552549
 C           -2.54989102       -2.82295879       -1.58114121
 C           -3.66049162       -1.01153320       -2.72938959
 C           -3.19572717       -3.19559716        0.74628614
 C           -3.54540668       -2.82677908       -0.61365434
 C           -3.36044046       -1.97539444        2.85722810
 C           -3.31203326       -0.57985606        3.25927893
 C           -3.92377990       -2.30846173        1.63880655
 C           -3.35895295        1.72319343        2.65763561
 C           -3.37114476        2.69837462        1.58761655
 C           -3.55616411        2.25777164        0.28421772
 C           -3.75907564        0.41781833        2.39501604
 C           -4.42696720        0.61921951       -1.23543131
 C           -4.50254280       -0.79299083       -1.56758619
 C           -4.48701419       -1.72274604       -0.54504147
 C           -4.50528201       -1.25592783        0.82781679
 C           -4.14346851        1.01116880        0.07026702
 C           -4.20226878        0.07538048        1.11193127




