%chk=000087.chk
%mem=8GB
%Nproc=16
#p B3LYP/6-31G* opt pop=NPA

Template file

0 1
 C           -4.81297294       -1.36595456       -0.87307162
 C           -4.89646359        0.05479618       -0.58390594
 C           -4.90183413        0.21919739        0.86004136
 C           -4.61176973       -2.06354889        0.38832269
 C           -4.55354473       -1.06637645        1.44284217
 C           -3.76190375       -3.15708902        0.44708745
 C           -3.12975533       -3.65047344       -0.76636561
 C           -4.13626559       -1.78142898       -2.01010094
 C           -3.31699797       -2.98209728       -1.96673029
 C           -3.43415918       -0.79211891       -2.80991931
 C           -4.18931698        0.96752533       -1.35988376
 C           -3.29392223        0.50383528       -2.32659977
 C           -4.05258135        2.25617058       -0.86952955
 C           -4.37190097        1.38534069        1.40850791
 C           -4.13996866        2.47326677        0.56826972
 C           -3.70524437        1.31485423        2.63144680
 C           -3.55164865       -1.12294205        2.40697084
 C           -3.31016441        0.01715028        3.15957217
 C           -2.78651192       -3.23424817        1.52012601
 C           -2.59157509       -2.13903253        2.36045489
 C           -1.80171793       -4.11973658       -0.41575201
 C           -1.62981933       -3.95100628        1.01378196
 C           -0.72179893       -3.85172514       -1.24694656
 C           -2.18250707       -2.77432642       -2.84750597
 C           -2.29898077       -1.44866523       -3.42323201
 C           -0.91633302       -3.22217357       -2.48264162
 C           -1.13408404       -0.73176109       -3.64040136
 C           -2.12759825        1.22567307       -2.61214856
 C           -1.08910707        0.63149192       -3.33713900
 C           -2.99578963        3.10362801       -1.38285948
 C           -2.00419064        2.54908868       -2.18687195
 C           -3.12519969        3.45170769        0.92190582
 C           -2.62139103        4.01509425       -0.31682902
 C           -2.63713992        2.25836953        2.92956937
 C           -2.24623445        3.17396499        1.96418074
 C           -2.03656621        0.17627150        3.82963755
 C           -1.62774304        1.56153661        3.69939567
 C           -1.33983663       -1.96101529        2.96237030
 C           -1.06740517       -0.80715190        3.70412047
 C           -0.37612786       -3.61481928        1.50354750
 C           -0.30287873       -2.85085811        2.66190963
 C            0.56057282       -3.91300709       -0.70481957
 C            0.73997553       -3.69500370        0.66447101
 C            1.64443254       -3.82421009       -1.56379431
 C            0.18518528       -2.68453047       -3.14907496
 C            0.05659753       -1.43872911       -3.77230171
 C            1.44707784       -3.18762958       -2.85129843
 C            1.17894316       -0.75817986       -4.22134715
 C            0.08677348        1.34649183       -3.58120153
 C            1.17528423        0.69221723       -4.16087848
 C           -0.77687475        3.20333132       -2.30026350
 C            0.26674725        2.60656634       -3.00757171
 C           -1.35211674        4.55976703       -0.33300223
 C           -0.50696895        4.30116675       -1.48136694
 C           -0.89966947        3.53153078        1.85220613
 C           -0.51457003        4.41570100        0.84593956
 C           -0.28603721        1.82909289        3.47194171
 C            0.08151831        2.81726297        2.55242066
 C            0.25544690       -0.46406517        3.97211228
 C            0.64962611        0.87360795        3.85948051
 C            0.93298829       -2.69801510        3.27333666
 C            1.20575671       -1.47589436        4.00246820
 C            2.00605873       -3.37949858        1.17383008
 C            2.12638125       -3.04366538        2.52157311
 C            2.93293384       -3.40768400       -1.04897152
 C            3.08533812       -3.16663013        0.30963781
 C            2.63477659       -2.40859127       -3.15461690
 C            2.50490211       -1.21660005       -3.84413050
 C            3.50847955       -2.46506701       -1.99549637
 C            2.52654109        1.11486759       -3.83553656
 C            3.25182419       -0.05984219       -3.38918103
 C            1.55052050        3.14651614       -2.91238094
 C            2.70551108        2.30599653       -3.16034551
 C            0.85418760        4.55002148       -1.05159839
 C            0.86720929        4.42602871        0.39613703
 C            1.88521698        3.99101256       -1.78197841
 C            1.43186551        2.98943258        2.22464653
 C            1.77402133        3.56879233        1.00489702
 C            1.99553253        1.20764312        3.80540709
 C            2.40451281        2.28073722        2.92070519
 C            2.61373756       -1.16181294        3.84237809
 C            3.19263101       -2.15653014        2.95327176
 C            3.00473014        0.16534304        3.74712440
 C            4.13860033       -2.34434790        0.70420071
 C            4.17011667       -1.78493817        2.04307801
 C            4.10970247       -1.30408235       -1.51150419
 C            3.83416784       -0.07566041       -2.12245026
 C            4.62034708       -1.32772285       -0.21803492
 C            3.51213642        2.31510992       -1.95137782
 C            2.97860366        3.34412102       -1.07803343
 C            2.86077513        3.06748578        0.27984861
 C            3.92600839        1.11247794       -1.38664172
 C            3.58134411        1.83498870        2.19955478
 C            3.99740637        0.56214243        2.76165767
 C            4.56774536       -0.38985710        1.93082352
 C            4.73702509       -0.08656436        0.52068628
 C            3.63538428        2.04474055        0.82539910
 C            4.17398717        1.06375179       -0.01566127




