%chk=000173.chk
%mem=8GB
%Nproc=16
#p B3LYP/6-31G* opt pop=NPA

Template file

0 1
 C            4.82999428        0.22699621        0.34956300
 C            4.45782679        1.10574107        1.44431960
 C            3.85624255        0.27987809        2.48165831
 C            4.73934475       -1.13753204        0.83881799
 C            3.98372924       -1.10669528        2.07967590
 C            4.49828390       -2.15762140       -0.06466351
 C            4.21224662       -1.81424732       -1.44576583
 C            4.40708697        0.53242261       -0.94146993
 C            3.94072611       -0.48759368       -1.77564105
 C            4.10046916        1.85423521       -1.24163560
 C            3.90528360        2.35214725        1.16269956
 C            3.88095298        2.79949521       -0.15612151
 C            3.04901222        2.92737377        2.09622732
 C            2.68899277        0.71356371        3.09404906
 C            2.42996064        2.08179052        3.10587420
 C            1.63882449       -0.18686110        3.30321102
 C            2.90602021       -1.96861863        2.24289949
 C            1.77557388       -1.53653699        2.94571909
 C            3.59667610       -3.23211730        0.31149333
 C            2.85541582       -3.14221301        1.48698434
 C            3.39614043       -2.88112846       -2.00100141
 C            2.93365940       -3.70024382       -0.89463592
 C            2.52255383       -2.59200618       -3.03274661
 C            3.00885855       -0.19869518       -2.77805343
 C            2.44135333       -1.22700295       -3.51768980
 C            3.12785591        2.13396109       -2.28088198
 C            2.45696773        1.07493674       -2.86719593
 C            2.85935918        3.74078768       -0.58829109
 C            2.38900987        3.31919090       -1.89956122
 C            2.06642952        3.91461460        1.67547307
 C            1.94449199        4.24949157        0.32883059
 C            1.07277217        2.55208177        3.31140588
 C            0.86815981        3.72036728        2.47982661
 C            0.39640113        0.30244246        3.70829299
 C            0.05734953        1.62004118        3.43162353
 C           -0.61099384       -0.57895878        4.05631402
 C            0.74670940       -2.44213422        3.22425300
 C           -0.43031583       -1.99378793        3.80935266
 C            1.76639982       -3.99146794        1.62392868
 C            0.72599198       -3.66971192        2.57829992
 C            1.59566031       -4.08011543       -0.81386068
 C            1.12581543       -4.50172960        0.42150511
 C            1.16824983       -3.11259868       -2.97146918
 C            0.68697611       -3.62476920       -1.77418054
 C            1.11506939       -1.04126758       -4.07065704
 C            0.33180822       -2.22600579       -3.74950654
 C            1.12832567        1.23167873       -3.26977694
 C            0.50149676        0.20561455       -3.98784396
 C            1.03363250        3.40708936       -2.18952262
 C            0.39200183        2.34389083       -2.83417949
 C            0.72065959        4.71790077       -0.14173138
 C            0.27756260        4.32780432       -1.47192937
 C           -0.37694084        3.93355027        1.90535258
 C           -0.44014245        4.67606444        0.73073906
 C           -1.21872097        1.91561837        2.94878839
 C           -1.45031940        3.11269234        2.26191289
 C           -1.98040605       -0.23152609        3.72479093
 C           -2.23123911        0.95601066        3.04909127
 C           -1.70368082       -2.53698614        3.35791516
 C           -2.65899556       -1.43975928        3.29747725
 C           -0.53134565       -4.17180991        2.04694271
 C           -0.29908979       -4.55439979        0.66317144
 C           -1.72079624       -3.52799782        2.37706376
 C           -0.66800800       -3.47313745       -1.45153983
 C           -1.17728725       -4.10645948       -0.31260638
 C           -1.00305090       -2.06262637       -3.40810286
 C           -1.49855892       -2.65775703       -2.24231070
 C           -0.87232682        0.25043257       -4.18950734
 C           -1.65120308       -0.94939000       -3.92638631
 C           -1.00036234        2.34754804       -2.94308574
 C           -1.63158316        1.38643029       -3.71092514
 C           -1.16837275        4.20235966       -1.43983240
 C           -1.61678347        4.59127008       -0.11454767
 C           -1.76401884        3.12025861       -2.07422432
 C           -2.69519525        3.33736373        1.68021384
 C           -2.76490580        4.01212552        0.39485347
 C           -3.35052615        1.04051113        2.22522311
 C           -3.68035151        2.26941757        1.66563166
 C           -3.56037087       -1.37382640        2.24278580
 C           -3.96542835       -0.12703617        1.75832958
 C           -2.77245947       -3.56642704        1.46383782
 C           -2.49170698       -3.88662020        0.07050829
 C           -3.77614214       -2.51644368        1.47662770
 C           -2.81001827       -2.38220146       -1.83391494
 C           -3.35327118       -3.07105217       -0.75750017
 C           -4.28956312       -2.39497593        0.12320945
 C           -2.92664097       -0.54239060       -3.37925698
 C           -2.93823045        0.91047391       -3.29914898
 C           -3.49320629       -1.27652533       -2.34849301
 C           -3.01489940        2.66230323       -1.64547787
 C           -3.57251270        3.18181132       -0.47824026
 C           -4.35462779        2.31537700        0.37951782
 C           -3.57939556        1.52150184       -2.22551903
 C           -4.80150978       -0.06951097        0.64471783
 C           -4.83017410       -1.18750297       -0.27925105
 C           -4.49244868       -0.66848180       -1.59323828
 C           -4.86285623        1.14384014       -0.14937030
 C           -4.52940178        0.78400630       -1.51850797




