%chk=000185.chk
%mem=8GB
%Nproc=16
#p B3LYP/6-31G* opt pop=NPA

Template file

0 1
 C            2.47937033       -4.11984200        0.26921796
 C            3.50534406       -3.22858213        0.78513869
 C            3.06151164       -2.75640854        2.08866601
 C            1.56491494       -4.40624265        1.36177518
 C            1.81302641       -3.42469218        2.40199776
 C            0.25865487       -4.75447400        1.06808446
 C           -0.15871915       -4.77241712       -0.31959906
 C            1.98343448       -3.92113367       -1.01690671
 C            0.62314511       -4.12220115       -1.27265070
 C            2.74634255       -3.18927868       -1.92079928
 C            4.14189747       -2.33813502       -0.07530202
 C            3.87332112       -2.40191227       -1.44018812
 C            4.68812428       -1.17464021        0.45866863
 C            3.22139413       -1.41132636        2.40462955
 C            4.24359054       -0.72296956        1.76842337
 C            2.15064713       -0.70207092        2.96045833
 C            0.76026886       -2.67387374        2.90519726
 C            1.02268534       -1.39995320        3.40312094
 C           -0.82079295       -4.15068581        1.83095561
 C           -0.55970866       -3.06767561        2.66341065
 C           -1.60039080       -4.60443965       -0.33147639
 C           -1.99110001       -4.10076376        0.97435663
 C           -2.20276781       -4.07653854       -1.45750769
 C            0.00534037       -3.42477384       -2.31561721
 C           -1.36465934       -3.53042384       -2.51177697
 C            2.06995963       -2.41908654       -2.94709911
 C            0.68711901       -2.39283910       -2.94822703
 C            3.95089751       -1.19700226       -2.25261093
 C            2.80415571       -1.18802173       -3.14771773
 C            4.86411606        0.00000000       -0.38186263
 C            4.37513206        0.00000000       -1.68367690
 C            4.24359054        0.72296956        1.76842337
 C            4.68812428        1.17464021        0.45866863
 C            2.15064713        0.70207092        2.96045833
 C            3.22139413        1.41132636        2.40462955
 C            1.02268534        1.39995320        3.40312094
 C            0.01210938       -0.72430674        4.07014116
 C            0.01210938        0.72430674        4.07014116
 C           -1.60354774       -2.20265188        2.98710169
 C           -1.35603198       -1.17120418        3.88722649
 C           -2.83747395       -2.99921054        1.06549862
 C           -2.75156959       -2.17538565        2.18720008
 C           -3.32844929       -3.17697457       -1.29339045
 C           -3.56285510       -2.57844328       -0.05633936
 C           -2.06965636       -2.40245183       -3.09491543
 C           -3.39114418       -2.36766603       -2.49348325
 C            0.01455740       -1.20825407       -3.25519079
 C           -1.38013533       -1.20923575       -3.31642639
 C            2.11291513        0.00000000       -3.34595719
 C            0.71418665        0.00000000       -3.30984573
 C            3.95089751        1.19700226       -2.25261093
 C            2.80415571        1.18802173       -3.14771773
 C            4.14189747        2.33813502       -0.07530202
 C            3.87332112        2.40191227       -1.44018812
 C            3.06151164        2.75640854        2.08866601
 C            3.50534406        3.22858213        0.78513869
 C            0.76026886        2.67387374        2.90519726
 C            1.81302641        3.42469218        2.40199776
 C           -0.55970866        3.06767561        2.66341065
 C           -1.35603198        1.17120418        3.88722649
 C           -2.21332905       -0.00000000        3.90598495
 C           -1.60354774        2.20265188        2.98710169
 C           -3.69587598       -1.17144163        2.35679413
 C           -3.37150907       -0.00000000        3.15008704
 C           -4.32513161       -1.40628527       -0.00075827
 C           -4.45848645       -0.72830828        1.20648488
 C           -4.06338101       -1.16249001       -2.44270839
 C           -4.63641120       -0.72771468       -1.17836491
 C           -2.07839499       -0.00000000       -3.31122814
 C           -3.45016440       -0.00000000       -3.05448512
 C            0.01455740        1.20825407       -3.25519079
 C           -1.38013533        1.20923575       -3.31642639
 C            2.06995963        2.41908654       -2.94709911
 C            2.74634255        3.18927868       -1.92079928
 C            0.68711901        2.39283910       -2.94822703
 C            2.47937033        4.11984200        0.26921796
 C            1.56491494        4.40624265        1.36177518
 C            1.98343448        3.92113367       -1.01690671
 C           -0.82079295        4.15068581        1.83095561
 C            0.25865487        4.75447400        1.06808446
 C           -1.99110001        4.10076376        0.97435663
 C           -2.75156959        2.17538565        2.18720008
 C           -3.69587598        1.17144163        2.35679413
 C           -4.45848645        0.72830828        1.20648488
 C           -2.83747395        2.99921054        1.06549862
 C           -4.63641120        0.72771468       -1.17836491
 C           -4.06338101        1.16249001       -2.44270839
 C           -4.32513161        1.40628527       -0.00075827
 C           -3.56285510        2.57844328       -0.05633936
 C           -2.06965636        2.40245183       -3.09491543
 C           -3.39114418        2.36766603       -2.49348325
 C           -3.32844929        3.17697457       -1.29339045
 C            0.00534037        3.42477384       -2.31561721
 C            0.62314511        4.12220115       -1.27265070
 C           -0.15871915        4.77241712       -0.31959906
 C           -1.60039080        4.60443965       -0.33147639
 C           -1.36465934        3.53042384       -2.51177697
 C           -2.20276781        4.07653854       -1.45750769




