%chk=000128.chk
%mem=8GB
%Nproc=16
#p B3LYP/6-31G* opt pop=NPA

Template file

0 1
 C            4.40783975       -2.53784645        0.20515585
 C            4.26349201       -1.78593372        1.43952120
 C            3.24504707       -2.43771442        2.24727587
 C            3.44183850       -3.62508495        0.22871285
 C            2.69463544       -3.53419281        1.47039858
 C            2.77873025       -3.98811031       -0.93353437
 C            2.98403686       -3.22604187       -2.15523731
 C            4.65666827       -1.85715695       -0.97658828
 C            3.91528890       -2.19986910       -2.18260554
 C            4.79070976       -0.41152881       -0.94030361
 C            4.32051491       -0.39376062        1.42852977
 C            4.42509190        0.28774484        0.21063766
 C            3.84241870        0.27539259        2.54827407
 C            2.39761521       -1.64743021        3.02047996
 C            2.84565232       -0.38168576        3.38279421
 C            1.02619770       -1.92726722        3.03639666
 C            1.31994366       -3.72860932        1.47084679
 C            0.56886268       -3.12017294        2.47183650
 C            1.37160689       -4.34163065       -0.86611192
 C            0.67583882       -4.23060222        0.33400563
 C            1.68263564       -3.00935263       -2.76254223
 C            0.73330856       -3.86075079       -2.07520572
 C            1.29164612       -1.72462309       -3.12658951
 C            3.56607681       -0.95716205       -2.84530490
 C            4.37569191        0.08347425       -2.24022323
 C            2.23271334       -0.69123515       -3.15938148
 C            3.95022290        1.39339424       -2.34499725
 C            3.98650377        1.61414059        0.09879059
 C            3.94082126        2.21831709       -1.15149801
 C            3.47523624        1.67263433        2.44283765
 C            3.38832413        2.25440126        1.18398378
 C            1.88798688        0.62336325        3.79555242
 C            2.42945071        1.91625523        3.41923261
 C            0.10547858       -0.93483681        3.40152150
 C            0.53347924        0.37130487        3.62488724
 C           -1.26183692       -1.19277629        3.32466506
 C           -0.76486993       -3.47397784        2.60838163
 C           -1.69285036       -2.50301840        3.15015606
 C           -0.71882519       -4.22010252        0.28727344
 C           -1.41554632       -4.12353461        1.48779580
 C           -0.59044012       -3.45864994       -1.99524937
 C           -1.35355994       -3.89476340       -0.91705777
 C           -0.06769326       -1.42175099       -3.18768929
 C           -1.01335830       -2.34234950       -2.71791013
 C           -0.45540230       -0.12330599       -3.49734672
 C            1.80508983        0.63516731       -3.26194008
 C            2.71263469        1.66554064       -3.05256018
 C            0.44189225        0.92068342       -3.30124007
 C            2.98846447        3.28425752       -1.38289311
 C            2.22741185        2.94247717       -2.57713930
 C            2.53054802        3.34433403        0.98142872
 C            2.31696758        3.85007247       -0.30602195
 C            1.55723118        2.96781525        3.20889101
 C            1.74395192        3.80336249        2.03846131
 C           -0.34883385        1.42873915        3.40190039
 C            0.12960088        2.73211976        3.34109227
 C           -2.14457146       -0.13249386        3.11452014
 C           -1.64112387        1.15582170        2.96249037
 C           -3.47478711       -0.38077402        2.80514332
 C           -2.99704735       -2.76653550        2.56739353
 C           -2.81384990       -3.73070167        1.49381824
 C           -3.88687748       -1.71527337        2.40838970
 C           -2.72394665       -3.67324867       -0.95156571
 C           -3.47291645       -3.55579821        0.28632836
 C           -2.37524645       -2.02398573       -2.74243303
 C           -3.24905504       -2.69677536       -1.89006292
 C           -1.79424912        0.15647348       -3.70708037
 C           -2.78843795       -0.81184983       -3.28553878
 C           -2.29059653        1.48206863       -3.39208238
 C           -0.03019705        2.19856652       -2.96602083
 C            0.86409430        3.20647744       -2.59357156
 C           -1.40831939        2.43158848       -2.88325610
 C            1.15311828        4.56521457       -0.58293476
 C            0.41004845        4.24356661       -1.79153400
 C            0.46498354        4.42843081        1.76109176
 C           -0.55305034        3.68962298        2.49167951
 C            0.19392629        4.84701681        0.47166190
 C           -2.34100638        2.10189908        2.20080195
 C           -1.72149822        3.30361076        1.84067974
 C           -4.18631933        0.56646293        1.97262062
 C           -3.59827486        1.79039861        1.67477585
 C           -4.65726829       -1.59512078        1.17992982
 C           -4.42934596       -2.47116120        0.13112856
 C           -4.29839009       -1.94663399       -1.21648313
 C           -4.82261174       -0.18152409        0.89855109
 C           -3.87267480       -0.08531031       -2.64421602
 C           -3.61015194        1.33253190       -2.80066998
 C           -4.40787580       -0.57842287       -1.45544181
 C           -4.72243456        0.29751739       -0.40666723
 C           -4.03249778        2.45267987        0.53438158
 C           -4.00321636        2.20370677       -1.80317587
 C           -4.56329172        1.67155983       -0.57334588
 C           -1.89689166        3.45820241       -2.06942878
 C           -1.00246380        4.34928612       -1.49134929
 C           -1.13579028        4.64298008       -0.07359094
 C           -2.09605924        3.95354863        0.66169026
 C           -3.13712681        3.31424641       -1.45338299
 C           -3.22889095        3.52396727       -0.01778974




