%chk=000174.chk
%mem=8GB
%Nproc=16
#p B3LYP/6-31G* opt pop=NPA

Template file

0 1
 C            4.73783857        0.64931269        0.67767829
 C            4.21901068        1.18597090        1.92355705
 C            3.70417110        0.06738771        2.70059584
 C            4.80449802       -0.79466011        0.82040024
 C            4.01940613       -1.15539299        1.98871304
 C            4.71820788       -1.58406905       -0.31273086
 C            4.43879368       -0.94855609       -1.58757979
 C            4.32665359        1.21139839       -0.52818962
 C            4.01981963        0.38059679       -1.60937032
 C            3.86967142        2.52376538       -0.52394206
 C            3.51419324        2.38660110        1.90895222
 C            3.48482094        3.13981796        0.73785574
 C            2.55342120        2.60944265        2.89033192
 C            2.47609010        0.19575375        3.33364162
 C            2.02860434        1.47839369        3.63979012
 C            1.55862943       -0.85851424        3.28998712
 C            3.05731894       -2.15304587        1.88358544
 C            1.87464602       -2.05213272        2.62468071
 C            3.94296647       -2.81091621       -0.25895028
 C            3.16534093       -3.09795190        0.86002667
 C            3.77614922       -1.93094290       -2.42907861
 C            3.37369873       -3.03644409       -1.57750196
 C            2.91203542       -1.49578494       -3.41677638
 C            3.10103741        0.80229314       -2.57614360
 C            2.69514737       -0.07014178       -3.57580955
 C            2.91710741        2.94280254       -1.53473347
 C            2.40477163        1.99384287       -2.40127925
 C            2.36674983        4.03170934        0.47261515
 C            2.02453396        3.91211350       -0.93770197
 C            1.45372989        3.52890721        2.64051031
 C            1.34765678        4.17348871        1.41078678
 C            0.61299713        1.70840514        3.86463698
 C            0.25941518        2.97824334        3.26609681
 C            0.25982645       -0.64312209        3.74877080
 C           -0.25982645        0.64312209        3.74877080
 C           -0.61299713       -1.70840514        3.86463698
 C            0.96633781       -3.11604172        2.62667971
 C           -0.25941518       -2.97824334        3.26609681
 C            2.18072782       -4.06671160        0.72336155
 C            1.09365757       -4.12042714        1.67822363
 C            2.08431556       -3.55693257       -1.66627896
 C            1.62606874       -4.31522053       -0.59849282
 C            1.62222273       -2.14804491       -3.55628634
 C            1.16124405       -2.97284396       -2.53851985
 C            1.38406915        0.10491279       -4.16586345
 C            0.72004268       -1.19064325       -4.15859142
 C            1.09056569        2.10991862       -2.86352121
 C            0.63391852        1.23603193       -3.85805710
 C            0.68738586        3.93578020       -1.31051084
 C            0.20886955        3.01659851       -2.25091319
 C            0.09137296        4.58426421        0.97418076
 C           -0.20683722        4.55418386       -0.44883559
 C           -0.96633781        3.11604172        2.62667971
 C           -1.09365757        4.12042714        1.67822363
 C           -1.55862943        0.85851424        3.28998712
 C           -1.87464602        2.05213272        2.62468071
 C           -2.02860434       -1.47839369        3.63979012
 C           -2.47609010       -0.19575375        3.33364162
 C           -1.45372989       -3.52890721        2.64051031
 C           -2.55342120       -2.60944265        2.89033192
 C           -0.09137296       -4.58426421        0.97418076
 C            0.20683722       -4.55418386       -0.44883559
 C           -1.34765678       -4.17348871        1.41078678
 C           -0.20886955       -3.01659851       -2.25091319
 C           -0.68738586       -3.93578020       -1.31051084
 C           -0.63391852       -1.23603193       -3.85805710
 C           -1.09056569       -2.10991862       -2.86352121
 C           -0.72004268        1.19064325       -4.15859142
 C           -1.38406915       -0.10491279       -4.16586345
 C           -1.16124405        2.97284396       -2.53851985
 C           -1.62222273        2.14804491       -3.55628634
 C           -1.62606874        4.31522053       -0.59849282
 C           -2.18072782        4.06671160        0.72336155
 C           -2.08431556        3.55693257       -1.66627896
 C           -3.05731894        2.15304587        1.88358544
 C           -3.16534093        3.09795190        0.86002667
 C           -3.70417110       -0.06738771        2.70059584
 C           -4.01940613        1.15539299        1.98871304
 C           -3.51419324       -2.38660110        1.90895222
 C           -4.21901068       -1.18597090        1.92355705
 C           -2.36674983       -4.03170934        0.47261515
 C           -2.02453396       -3.91211350       -0.93770197
 C           -3.48482094       -3.13981796        0.73785574
 C           -2.40477163       -1.99384287       -2.40127925
 C           -2.91710741       -2.94280254       -1.53473347
 C           -3.86967142       -2.52376538       -0.52394206
 C           -2.69514737        0.07014178       -3.57580955
 C           -2.91203542        1.49578494       -3.41677638
 C           -3.10103741       -0.80229314       -2.57614360
 C           -3.37369873        3.03644409       -1.57750196
 C           -3.94296647        2.81091621       -0.25895028
 C           -3.77614922        1.93094290       -2.42907861
 C           -4.80449802        0.79466011        0.82040024
 C           -4.73783857       -0.64931269        0.67767829
 C           -4.32665359       -1.21139839       -0.52818962
 C           -4.01981963       -0.38059679       -1.60937032
 C           -4.71820788        1.58406905       -0.31273086
 C           -4.43879368        0.94855609       -1.58757979




