%chk=000016.chk
%mem=8GB
%Nproc=16
#p B3LYP/6-31G* opt pop=NPA

Template file

0 1
 C            5.24722715       -0.83580715        0.50271048
 C            4.64033383       -2.04102104        1.04882850
 C            4.10290954       -2.81124534       -0.05706894
 C            5.09983533       -0.87507525       -0.94470486
 C            4.33604580       -2.06289026       -1.28060565
 C            4.86224781        0.29544825       -1.64934888
 C            4.84012130        1.56979618       -0.94884025
 C            5.12359282        0.37208367        1.18053715
 C            4.89600736        1.60109900        0.43685724
 C            4.33954368        0.44002665        2.40248629
 C            3.93273350       -1.98370463        2.23864376
 C            3.78057874       -0.71394599        2.93264777
 C            2.67943073       -2.71075950        2.35340277
 C            2.89753279       -3.49541336        0.07638889
 C            2.13127010       -3.34089292        1.23894128
 C            2.26934594       -3.88723112       -1.09887775
 C            3.31113256       -1.99168355       -2.22169743
 C            2.42873049       -3.05737716       -2.28317941
 C            3.79769788        0.31307600       -2.63982623
 C            2.90035867       -0.74336301       -2.69221263
 C            3.89270079        2.42607427       -1.63469757
 C            3.30389347        1.66660365       -2.72666508
 C            3.06903358        3.28132919       -0.90942928
 C            3.92223701        2.39701310        1.16705159
 C            3.54453965        1.65486370        2.35534804
 C            2.93983431        3.09846964        0.47133327
 C            2.20503307        1.62218947        2.72286424
 C            2.43408618       -0.66471310        3.47099296
 C            1.80774979       -1.94967890        3.22627001
 C            1.66573826        0.48608372        3.32880460
 C            0.44077489       -1.98319955        2.99943113
 C            0.75081939       -3.57707050        1.20553170
 C           -0.08729871       -2.92723632        2.12510007
 C            0.89676047       -4.33590293       -1.06035591
 C            0.20196483       -4.29616292        0.13959549
 C            1.11370670       -2.85167501       -2.85257213
 C            0.23926174       -3.84149476       -2.25912350
 C            1.54174019       -0.49099037       -2.93530407
 C            0.64611200       -1.55633116       -3.03011782
 C            1.97167849        1.89747290       -3.03905931
 C            1.07263838        0.82218759       -3.07181281
 C            2.02477618        3.87260218       -1.60765014
 C            1.49127469        3.16822499       -2.76269763
 C            0.90463726        4.43506940       -0.88141271
 C            1.70735104        3.33548943        1.09066745
 C            1.34491771        2.59791662        2.22557258
 C            0.77801935        4.17695228        0.47423015
 C            0.03970357        2.65123008        2.70716898
 C            0.28251426        0.38108089        3.44598017
 C           -0.32717036       -0.87279974        3.33207642
 C           -0.48948356        1.53503566        3.35418120
 C           -1.71440675       -0.96584707        3.25052373
 C           -1.47311908       -3.02846230        2.00997705
 C           -2.29140187       -2.04472307        2.57584014
 C           -1.17255303       -4.48685731        0.07639911
 C           -2.01314821       -3.95270162        1.12542085
 C           -1.11946055       -3.58325578       -2.19420430
 C           -1.84018499       -4.21895101       -1.18682213
 C           -0.72628560       -1.31864855       -2.96281504
 C           -1.60377277       -2.38524809       -2.72018856
 C           -0.30989819        1.06419259       -3.12892063
 C           -1.21109504       -0.01190001       -3.09449491
 C            0.07353186        3.41979071       -2.82085886
 C           -0.26755424        4.32412144       -1.73349548
 C           -0.79094022        2.38106331       -3.11866283
 C           -1.52926687        4.22998279       -1.15047193
 C           -0.46162466        4.38762736        1.06512083
 C           -0.79896128        3.67105166        2.27780142
 C           -1.65200989        4.42481845        0.22473849
 C           -2.23756267        3.47667994        2.28908653
 C           -2.72806295        3.77029237        0.95399185
 C           -1.85485924        1.45229187        3.60293494
 C           -2.48796431        0.14664162        3.57222458
 C           -2.76277002        2.39546466        2.97185832
 C           -3.79961181        0.31309717        2.96888563
 C           -3.81725475        1.62184933        2.34590314
 C           -3.65169852       -2.01515428        2.26820987
 C           -4.36185302       -0.75086938        2.29083828
 C           -3.32859633       -3.72040814        0.55243514
 C           -3.19876726       -3.79914679       -0.89454599
 C           -4.14392905       -2.75447911        1.12125387
 C           -2.97215855       -2.15832678       -2.69543794
 C           -3.78677270       -2.83087592       -1.69565785
 C           -2.59202872        0.22580784       -3.11895350
 C           -3.47119027       -0.81042396       -2.83873339
 C           -2.13715079        2.61601823       -2.89722585
 C           -2.52312264        3.52833452       -1.83120463
 C           -3.06200701        1.51080103       -2.89688142
 C           -3.54531431        2.85507692        0.29454828
 C           -4.02068055        1.72790162        0.97040352
 C           -3.60647662        2.90246523       -1.08888811
 C           -4.02086470        1.72622304       -1.82427532
 C           -4.87939960       -0.52973968        0.95192375
 C           -4.85974467       -1.81330668        0.27068506
 C           -4.67533766       -1.84405888       -1.10317239
 C           -4.48822288       -0.59709239       -1.82042501
 C           -4.52685961        0.63031032        0.25928926
 C           -4.50380803        0.61881982       -1.14034180




