%chk=000223.chk
%mem=8GB
%Nproc=16
#p B3LYP/6-31G* opt pop=NPA

Template file

0 1
 C           -4.76412588       -0.03157280        0.29479982
 C           -4.58487790       -1.43389105       -0.03845470
 C           -4.12529989       -1.49713567       -1.41856500
 C           -4.70900166        0.72137240       -0.94401349
 C           -4.13865330       -0.15164627       -1.95595905
 C           -4.30493819        2.04401995       -0.90146650
 C           -3.78541504        2.57604093        0.34702675
 C           -4.15827483        0.47422274        1.43996718
 C           -3.50038401        1.70490254        1.38983409
 C           -3.89006455       -0.40247550        2.47751364
 C           -4.02713259       -2.29594376        0.90361203
 C           -3.78727801       -1.82718100        2.19627645
 C           -3.34135879       -3.42168904        0.45278604
 C           -3.08438924       -2.35627877       -1.74022457
 C           -2.89937831       -3.47380200       -0.93291474
 C           -2.02527871       -1.89661587       -2.52982986
 C           -3.05980885        0.29472404       -2.70830898
 C           -2.05813008       -0.60705739       -3.08527680
 C           -3.46666940        2.55315557       -1.97071812
 C           -2.86020117        1.66885342       -2.85637380
 C           -2.84379170        3.62496503        0.01870671
 C           -2.68943501        3.65426516       -1.42944753
 C           -1.72626098        3.82083181        0.81618510
 C           -2.40239319        1.95370930        2.22312151
 C           -1.47889246        2.96267804        1.89342333
 C           -2.87426688       -0.06139977        3.45093608
 C           -2.19850951        1.14877493        3.35016027
 C           -2.65788111       -2.34720935        2.95333302
 C           -2.10637866       -1.26237008        3.73869645
 C           -2.27886997       -3.98476655        1.26873170
 C           -1.80219275       -3.25740623        2.35352912
 C           -1.63616379       -4.18796220       -0.97027380
 C           -1.34553867       -4.64612207        0.37673271
 C           -0.89494053       -2.70088608       -2.69231441
 C           -0.60817174       -3.69447594       -1.76203317
 C            0.07834414       -2.34239884       -3.60580702
 C           -1.04055832       -0.18606548       -3.94914062
 C            0.04030781       -1.02283384       -4.19870857
 C           -1.78706633        2.12694303       -3.60314554
 C           -0.85181889        1.17417537       -4.16323718
 C           -1.44058013        3.94563047       -1.97635215
 C           -1.02935917        3.27553011       -3.12883325
 C           -0.67930935        4.55397662        0.27634774
 C           -0.47954174        4.54263640       -1.16443741
 C            0.62286749        4.51216754        0.90479845
 C           -0.29050522        3.09952032        2.62340931
 C            0.78899433        3.80847196        2.08866087
 C           -1.02130542        1.27041210        4.07512804
 C           -0.09358037        2.33491357        3.76540477
 C           -0.72988105       -1.14881500        3.88576450
 C           -0.24458720        0.06832898        4.34469316
 C           -0.42548402       -3.14699682        2.56181387
 C            0.10464626       -1.98814411        3.13976933
 C           -0.02414451       -4.77059109        0.76571544
 C            0.42647328       -4.06135967        1.95282724
 C            0.72138960       -3.99394072       -1.44524620
 C            1.01320882       -4.62595210       -0.23732290
 C            1.46234776       -2.66340442       -3.31359474
 C            1.76183085       -3.43318826       -2.19316089
 C            1.38151001       -0.46409949       -4.12845996
 C            2.26066234       -1.47859835       -3.59014213
 C            0.48790078        1.72358685       -4.02334396
 C            0.38376543        2.98431394       -3.32432531
 C            1.53171487        0.85782520       -3.73171105
 C            0.92915450        4.27456058       -1.40916579
 C            1.62253563        4.36618563       -0.14230171
 C            1.28192190        3.28255988       -2.31249759
 C            2.72128940        3.55312654        0.09495770
 C            2.08852168        3.46823135        2.45840316
 C            3.10018148        3.35446024        1.41996651
 C            1.23778522        1.84333173        4.07191466
 C            1.15065804        0.39763725        4.15801212
 C            2.31950115        2.40227148        3.41813023
 C            1.43192398       -1.61444079        2.87275172
 C            1.92211607       -0.38516588        3.30905593
 C            1.81775108       -3.70595797        1.74620218
 C            2.22500597       -4.27158849        0.47125049
 C            2.25205622       -2.43261856        2.09761737
 C            3.03117835       -3.31045818       -1.62773320
 C            3.24500522       -3.65827373       -0.23124311
 C            3.25665314       -1.11506139       -2.69636048
 C            3.81455149       -2.11577961       -1.90556139
 C            2.41249642        1.16057743       -2.68762034
 C            2.27579477        2.36110082       -1.96835145
 C            3.11318313        2.63056242       -0.87877371
 C            3.38524442        0.22408541       -2.31497342
 C            4.19939957        1.80248133       -0.62341156
 C            4.34803434        0.57003155       -1.37411168
 C            3.96781787        2.24418899        1.76834861
 C            3.32789640        1.52253566        2.85363538
 C            3.05576958        0.16192836        2.70566898
 C            4.56723732        1.51964920        0.75503925
 C            3.37935999       -1.89132995        1.47635877
 C            3.94730573       -2.54831020        0.38446638
 C            4.53000481       -1.76771079       -0.69126576
 C            4.83654288       -0.44177239       -0.45152098
 C            3.75709608       -0.57627106        1.75116000
 C            4.63513147        0.07856040        0.88539147




