%chk=000233.chk
%mem=8GB
%Nproc=16
#p B3LYP/6-31G* opt pop=NPA

Template file

0 1
 C            3.96128769       -2.30992018        1.50552802
 C            4.49338300       -0.95578825        1.54301173
 C            5.01532791       -0.65530028        0.21916227
 C            4.14419771       -2.81319207        0.15286050
 C            4.52998391       -1.68688193       -0.67545042
 C            3.23855199       -3.72791448       -0.34887169
 C            2.20399651       -4.22996540        0.53069818
 C            2.79084028       -2.59993033        2.20592041
 C            1.86524849       -3.50033281        1.66936816
 C            2.39976290       -1.74069983        3.22724190
 C            3.80953414        0.02309898        2.26256050
 C            2.92489238       -0.38318178        3.25510003
 C            3.73844326        1.32825889        1.76545727
 C            5.01532791        0.65530028       -0.21916227
 C            4.52998391        1.68688193        0.67545042
 C            4.49338300        0.95578825       -1.54301173
 C            3.73844326       -1.32825889       -1.76545727
 C            3.80953414       -0.02309898       -2.26256050
 C            2.60757114       -3.45629794       -1.62930557
 C            2.72486027       -2.19237097       -2.19675789
 C            1.15484531       -4.74967454       -0.32429166
 C            1.30955298       -4.10921693       -1.61988947
 C           -0.11745758       -4.88738603        0.19934603
 C            0.53524439       -3.48297697        2.10429529
 C           -0.39285919       -4.33099664        1.51226214
 C            1.00385741       -1.68739269        3.61733215
 C            0.08053810       -2.44887846        2.91891202
 C            1.84911764        0.50228397        3.65483191
 C            0.68204688       -0.31253009        3.93911996
 C            2.72486027        2.19237097        2.19675789
 C            1.68506788        1.70922066        2.98765200
 C            2.60757114        3.45629794        1.62930557
 C            4.14419771        2.81319207       -0.15286050
 C            3.96128769        2.30992018       -1.50552802
 C            3.23855199        3.72791448        0.34887169
 C            2.79084028        2.59993033       -2.20592041
 C            2.92489238        0.38318178       -3.25510003
 C            2.39976290        1.74069983       -3.22724190
 C            1.68506788       -1.70922066       -2.98765200
 C            1.84911764       -0.50228397       -3.65483191
 C            0.21507116       -3.46740151       -2.19225547
 C            0.40404630       -2.25753744       -2.86947740
 C           -1.25783627       -4.58087235       -0.64436215
 C           -1.07196173       -3.86804735       -1.82428478
 C           -1.79979071       -3.97690199        1.55193187
 C           -2.35984260       -4.22285470        0.23126846
 C           -1.24208857       -2.00687589        2.81480912
 C           -2.20667040       -2.84675767        2.25041483
 C           -0.56717444        0.18120436        3.60375746
 C           -1.57212800       -0.69637716        3.19194800
 C            0.40404630        2.25753744        2.86947740
 C           -0.69632759        1.53916792        3.34111171
 C            1.30955298        4.10921693        1.61988947
 C            0.21507116        3.46740151        2.19225547
 C            2.20399651        4.22996540       -0.53069818
 C            1.86524849        3.50033281       -1.66936816
 C            1.15484531        4.74967454        0.32429166
 C            0.53524439        3.48297697       -2.10429529
 C            1.00385741        1.68739269       -3.61733215
 C            0.68204688        0.31253009       -3.93911996
 C            0.08053810        2.44887846       -2.91891202
 C           -0.69632759       -1.53916792       -3.34111171
 C           -0.56717444       -0.18120436       -3.60375746
 C           -2.17186026       -3.24351207       -2.39476889
 C           -1.96834310       -2.07174741       -3.22198724
 C           -3.36451008       -3.38309304       -0.24311066
 C           -3.36518041       -3.02352154       -1.58912254
 C           -3.47390388       -2.35108087        1.97993133
 C           -4.06281592       -2.60181646        0.67315107
 C           -2.86563191       -0.20378522        2.99136305
 C           -3.81778232       -1.00295651        2.37636133
 C           -1.96834310        2.07174741        3.22198724
 C           -3.08570260        1.17039456        3.01172858
 C           -1.07196173        3.86804735        1.82428478
 C           -2.17186026        3.24351207        2.39476889
 C           -0.11745758        4.88738603       -0.19934603
 C           -0.39285919        4.33099664       -1.51226214
 C           -1.25783627        4.58087235        0.64436215
 C           -1.79979071        3.97690199       -1.55193187
 C           -2.35984260        4.22285470       -0.23126846
 C           -1.24208857        2.00687589       -2.81480912
 C           -1.57212800        0.69637716       -3.19194800
 C           -2.20667040        2.84675767       -2.25041483
 C           -3.08570260       -1.17039456       -3.01172858
 C           -3.95609925       -1.76091146       -2.00623739
 C           -2.86563191        0.20378522       -2.99136305
 C           -4.72268008       -1.37992014        0.23880665
 C           -4.65925203       -0.42835720        1.33790493
 C           -4.56937070       -0.93420425       -1.06971501
 C           -3.95609925        1.76091146        2.00623739
 C           -3.36518041        3.02352154        1.58912254
 C           -3.36451008        3.38309304        0.24311066
 C           -4.56937070        0.93420425        1.06971501
 C           -3.47390388        2.35108087       -1.97993133
 C           -3.81778232        1.00295651       -2.37636133
 C           -4.65925203        0.42835720       -1.33790493
 C           -4.06281592        2.60181646       -0.67315107
 C           -4.72268008        1.37992014       -0.23880665




