%chk=000086.chk
%mem=8GB
%Nproc=16
#p B3LYP/6-31G* opt pop=NPA

Template file

0 1
 C            4.97233731       -0.95589697       -0.36505002
 C            4.89835826        0.31954720        0.32401683
 C            4.61420759        0.05821639        1.72588221
 C            4.60081678       -1.99514782        0.58359880
 C            4.28166675       -1.35208902        1.84613618
 C            3.83924648       -3.07486882        0.16527771
 C            3.45993265       -3.19636787       -1.23358691
 C            4.54730728       -1.03514724       -1.68253602
 C            3.80623542       -2.20128695       -2.13538526
 C            3.95805278        0.13842638       -2.30538541
 C            4.29848414        1.41342529       -0.29060438
 C            3.67450917        1.25912059       -1.53265863
 C            3.96603440        2.49428364        0.51046490
 C            3.89029527        0.99703858        2.45950762
 C            3.70624280        2.27110226        1.92508096
 C            3.03330405        0.55381651        3.46547519
 C            3.14083120       -1.72011117        2.55312738
 C            2.68226799       -0.85689442        3.53748264
 C            2.70653030       -3.49340778        0.97196034
 C            2.28990177       -2.70783738        2.04602388
 C            2.12556883       -3.76547942       -1.28332576
 C            1.70886237       -4.04924451        0.07554436
 C            1.18341102       -3.26425726       -2.17176422
 C            2.82634125       -1.75214381       -3.10684720
 C            2.98001411       -0.31896551       -3.27051716
 C            1.53958775       -2.28098803       -3.10274404
 C            1.84123493        0.44000965       -3.49133749
 C            2.61975882        2.10293398       -1.90400269
 C            1.73112304        1.71103484       -2.91991491
 C            3.01476807        3.47242172        0.03026929
 C            2.42199527        3.30286725       -1.21413442
 C            2.52101832        3.03631986        2.28165499
 C            2.18127338        3.87567706        1.15186056
 C            1.84004977        1.32361671        3.78632211
 C            1.50944942        2.42408495        3.00795401
 C            1.31139680       -0.95229539        3.99229883
 C            0.80557824        0.39355776        4.18438511
 C            0.94775863       -2.76112184        2.44276117
 C            0.46548982       -1.89739935        3.43168085
 C            0.36980562       -3.90937144        0.40945839
 C            0.05006821       -3.54673858        1.71165449
 C           -0.16462456       -3.50646372       -1.91339820
 C           -0.58322777       -3.74112499       -0.60019320
 C           -1.09459410       -3.15842249       -2.87992767
 C            0.53471503       -1.57036942       -3.75747382
 C            0.69975117       -0.19793979       -3.97020158
 C           -0.72954841       -2.14325349       -3.84910954
 C           -0.37323934        0.57959791       -4.38113983
 C            0.63826246        2.51796456       -3.25907635
 C           -0.43246318        1.96388907       -3.95680709
 C            1.30801655        4.08122439       -1.49450344
 C            0.40094911        3.68581973       -2.54897150
 C            0.85198776        4.18711888        0.90833482
 C            0.51267660        4.57986995       -0.38361686
 C            0.17418911        2.65757727        2.66293529
 C           -0.13653152        3.67364305        1.75079728
 C           -0.51100283        0.65098821        3.84012699
 C           -0.84124331        1.84528900        3.19343230
 C           -0.90816771       -1.70750528        3.56264558
 C           -1.39824575       -0.41836389        3.79388622
 C           -1.27602156       -3.62863542        2.10983608
 C           -1.75992561       -2.71106587        3.12073510
 C           -1.93610356       -3.62721528       -0.25407349
 C           -2.30044988       -3.74413569        1.08684047
 C           -2.47487768       -2.93985775       -2.49833878
 C           -2.87002048       -3.16124103       -1.18584610
 C           -1.89457556       -1.30791061       -4.08545761
 C           -1.72066934        0.04376520       -4.32116932
 C           -2.93561293       -1.73479922       -3.16851159
 C           -1.78568220        2.22610021       -3.48756285
 C           -2.53804198        0.99348500       -3.58697245
 C           -0.95527809        3.97097320       -2.10538273
 C           -0.87872075        4.59859285       -0.79798549
 C           -1.95879549        3.04549573       -2.38229549
 C           -1.46575479        3.98042157        1.48952983
 C           -1.86270424        4.33065045        0.13640800
 C           -2.18766170        2.13067734        2.93177894
 C           -2.51222535        3.15020882        2.04564306
 C           -2.75151346       -0.14734032        3.66597402
 C           -3.15291009        1.15128532        3.16105804
 C           -3.15027532       -2.41281833        2.82758620
 C           -3.49096396       -3.06953914        1.57556699
 C           -3.64309791       -1.14596806        3.10297521
 C           -4.02439698       -2.51532077       -0.74671947
 C           -4.32919937       -2.43841753        0.66923779
 C           -3.65145416       -0.79134727       -2.43489810
 C           -3.28113411        0.55396583       -2.49746917
 C           -4.39058929       -1.24494437       -1.35304622
 C           -2.84284639        2.65935071       -1.37048710
 C           -2.95836459        3.45489647       -0.23576254
 C           -3.47421747        2.87811130        0.98680000
 C           -3.39844335        1.37278419       -1.36624566
 C           -4.17329511        0.93231312        2.14870427
 C           -4.51254364       -0.47961440        2.14623815
 C           -4.82041648       -1.09617989        0.94301116
 C           -4.72633804       -0.32566209       -0.28577327
 C           -4.08199400        1.63271887        0.94928910
 C           -4.14166047        0.93623788       -0.26103869




