%chk=000009.chk
%mem=8GB
%Nproc=16
#p B3LYP/6-31G* opt pop=NPA

Template file

0 1
 C            5.16920146        0.60347796        1.35826361
 C            5.36810816        0.00461953        0.04743273
 C            4.90572229        0.95289018       -0.95163176
 C            4.67853840        1.95938546        1.16194187
 C            4.49667945        2.16651272       -0.26290400
 C            3.75706815        2.49879619        2.04556603
 C            3.27089592        1.70351760        3.16264905
 C            4.67760008       -0.16767774        2.40535142
 C            3.68462898        0.38805881        3.31062843
 C            4.34339964       -1.56553390        2.18231234
 C            5.12668107       -1.34772311       -0.14116030
 C            4.60504472       -2.15320124        0.95450327
 C            4.45649576       -1.77720343       -1.35475112
 C            4.15860170        0.51696766       -2.04568217
 C            3.81291456       -0.83407368       -2.15596011
 C            3.42881412        1.46834827       -2.75074656
 C            3.38822609        2.86158182       -0.73917952
 C            3.07767179        2.71262512       -2.08372194
 C            2.63814444        3.26318897        1.52094914
 C            2.39578963        3.29053111        0.15062706
 C            1.87157635        2.03179106        3.36162607
 C            1.52235538        3.08515335        2.42778686
 C            0.94175413        1.02465091        3.60166355
 C            2.69422858       -0.64112348        3.57447188
 C            3.07340876       -1.83004256        2.83469080
 C            1.34579231       -0.31032318        3.64366059
 C            2.08060355       -2.54628611        2.17016490
 C            3.63328033       -3.07574542        0.39441369
 C            3.78929558       -3.02916635       -1.04706003
 C            2.35103788       -3.15152950        0.93965082
 C            2.72705780       -3.42556619       -1.83681239
 C            2.68951960       -1.21593597       -2.89884780
 C            2.28984932       -2.54533875       -2.90449706
 C            2.28262680        1.05088171       -3.53531747
 C            1.83008156       -0.24993548       -3.41655181
 C            1.77942360        3.12469086       -2.56736988
 C            1.32500006        2.13610834       -3.53216736
 C            1.09262450        3.52744426       -0.30634285
 C            0.85482699        3.65291673       -1.67900891
 C            0.23386807        3.10777952        1.91857937
 C            0.01957233        3.49804361        0.60029594
 C           -0.40455355        1.30174886        3.38014618
 C           -0.75828811        2.38847252        2.57401941
 C           -1.34579231        0.31032318        3.64366059
 C            0.40455355       -1.30174886        3.38014618
 C            0.75828811       -2.38847252        2.57401941
 C           -0.94175413       -1.02465091        3.60166355
 C           -0.23386807       -3.10777952        1.91857937
 C            1.29493048       -3.61413417        0.14572162
 C            1.52798263       -3.92281500       -1.18795667
 C           -0.01957233       -3.49804361        0.60029594
 C            0.90146396       -2.86017808       -3.17477025
 C            0.44862703       -3.77684174       -2.13820649
 C            0.46678333       -0.52522705       -3.56152251
 C            0.03433079       -1.85645104       -3.59494770
 C           -0.03433079        1.85645104       -3.59494770
 C           -0.46678333        0.52522705       -3.56152251
 C           -0.44862703        3.77684174       -2.13820649
 C           -0.90146396        2.86017808       -3.17477025
 C           -1.29493048        3.61413417        0.14572162
 C           -1.52798263        3.92281500       -1.18795667
 C           -2.08060355        2.54628611        2.17016490
 C           -2.35103788        3.15152950        0.93965082
 C           -2.69422858        0.64112348        3.57447188
 C           -3.07340876        1.83004256        2.83469080
 C           -3.68462898       -0.38805881        3.31062843
 C           -1.87157635       -2.03179106        3.36162607
 C           -1.52235538       -3.08515335        2.42778686
 C           -3.27089592       -1.70351760        3.16264905
 C           -2.63814444       -3.26318897        1.52094914
 C           -3.75706815       -2.49879619        2.04556603
 C           -1.09262450       -3.52744426       -0.30634285
 C           -0.85482699       -3.65291673       -1.67900891
 C           -2.39578963       -3.29053111        0.15062706
 C           -1.32500006       -2.13610834       -3.53216736
 C           -1.77942360       -3.12469086       -2.56736988
 C           -1.83008156        0.24993548       -3.41655181
 C           -2.28262680       -1.05088171       -3.53531747
 C           -2.28984932        2.54533875       -2.90449706
 C           -2.72705780        3.42556619       -1.83681239
 C           -2.68951960        1.21593597       -2.89884780
 C           -3.63328033        3.07574542        0.39441369
 C           -3.78929558        3.02916635       -1.04706003
 C           -4.34339964        1.56553390        2.18231234
 C           -4.67760008        0.16767774        2.40535142
 C           -4.60504472        2.15320124        0.95450327
 C           -4.67853840       -1.95938546        1.16194187
 C           -5.16920146       -0.60347796        1.35826361
 C           -3.38822609       -2.86158182       -0.73917952
 C           -3.07767179       -2.71262512       -2.08372194
 C           -3.42881412       -1.46834827       -2.75074656
 C           -4.49667945       -2.16651272       -0.26290400
 C           -3.81291456        0.83407368       -2.15596011
 C           -4.45649576        1.77720343       -1.35475112
 C           -5.12668107        1.34772311       -0.14116030
 C           -5.36810816       -0.00461953        0.04743273
 C           -4.15860170       -0.51696766       -2.04568217
 C           -4.90572229       -0.95289018       -0.95163176




