%chk=000068.chk
%mem=8GB
%Nproc=16
#p B3LYP/6-31G* opt pop=NPA

Template file

0 1
 C            5.15651985       -0.68547926        0.55295941
 C            4.95311659       -0.17516457       -0.79323724
 C            4.82194516        1.26946679       -0.70224117
 C            4.91625663        0.40632885        1.48366711
 C            4.66544094        1.60501597        0.70384506
 C            4.17734258        0.18512681        2.63585445
 C            3.70327681       -1.15497831        2.94882083
 C            4.72164315       -1.96535056        0.86045944
 C            3.99042484       -2.20823951        2.09667301
 C            4.08840605       -2.75441186       -0.17850745
 C            4.15614285       -0.87738660       -1.69354351
 C            3.63689785       -2.12557623       -1.33878150
 C            3.61810492       -0.19347962       -2.77658605
 C            4.05864440        1.95350437       -1.64529733
 C            3.55612925        1.26074538       -2.74677029
 C            3.46416856        3.15641264       -1.27013977
 C            3.65070105        2.48251510        1.07331287
 C            3.26766976        3.43795031        0.14552161
 C            3.12690581        1.12412608        2.99003090
 C            2.76545844        2.12638256        2.09469163
 C            2.36417702       -1.03549234        3.49462568
 C            2.09006037        0.37850810        3.67132757
 C            1.33820292       -1.86804539        3.03980744
 C            2.95273807       -3.18267158        1.80861922
 C            3.23547520       -3.71863715        0.49033992
 C            1.62893506       -2.92367205        2.17255743
 C            2.19942982       -4.28918171       -0.22094317
 C            2.52206754       -2.63892458       -2.01008707
 C            1.95328287       -3.83184404       -1.57703091
 C            2.39751424       -0.68105020       -3.39043072
 C            1.80469351       -1.83107697       -2.89101886
 C            2.28763321        1.66305269       -3.33859621
 C            1.55786765        0.46269887       -3.69135347
 C            2.27930513        3.61966003       -1.97034285
 C            1.59623715        2.74033301       -2.80451125
 C            1.98887517        4.10271825        0.29163390
 C            1.53575141        4.45195262       -1.04266259
 C            1.44066337        2.58425795        2.07502553
 C            1.06903153        3.62151247        1.21888967
 C            0.77894928        0.79742305        3.56190682
 C            0.48239055        1.99028770        2.90176340
 C            0.01780533       -1.44206778        3.19600656
 C           -0.21498606       -0.15887584        3.69042966
 C           -1.02199698       -2.14884535        2.58710760
 C            0.59498370       -3.57237778        1.49223293
 C            0.90460198       -4.40517391        0.42116118
 C           -0.72604647       -3.15485193        1.66220632
 C            0.55614312       -4.09619626       -1.86692304
 C           -0.06416147       -4.57315235       -0.63963857
 C            0.42108762       -1.98693552       -3.00306367
 C           -0.15942310       -3.21400224       -2.66951904
 C            0.20177362        0.38577135       -3.41114034
 C           -0.38269982       -0.86475619       -3.24620861
 C            0.19938230        2.72573471       -2.79322014
 C           -0.48855556        1.52317659       -2.99220139
 C            0.18092813        4.62511739       -1.24818985
 C           -0.47333553        3.82246357       -2.26732618
 C           -0.28039952        3.94422975        1.06317853
 C           -0.69237369        4.60787169       -0.09355527
 C           -0.85076146        2.40391127        2.83553912
 C           -1.23834840        3.35672911        1.89118455
 C           -1.51007908        0.28229325        3.87364384
 C           -1.82048714        1.64950827        3.50035308
 C           -2.34838524       -1.76724552        2.81797384
 C           -2.61094973       -0.56040619        3.45649667
 C           -3.36975219       -2.33583867        2.06796114
 C           -1.72706860       -3.66280886        0.82437791
 C           -1.38681049       -4.23423702       -0.40360005
 C           -3.05474186       -3.33110468        1.06438401
 C           -1.54431289       -3.33733168       -2.66888734
 C           -2.17464714       -3.96007059       -1.51660694
 C           -1.76551185       -0.95097822       -3.13856979
 C           -2.36053269       -2.20203533       -3.04359615
 C           -1.84984656        1.41985058       -2.68173199
 C           -2.50656728        0.20018265       -2.86487777
 C           -1.86595954        3.69324601       -1.88023029
 C           -2.02620591        4.37702366       -0.60716698
 C           -2.52669833        2.48862744       -2.08208340
 C           -2.59324523        3.54839334        1.61060181
 C           -2.99664707        3.92779101        0.26899794
 C           -3.20119580        1.67703920        3.05395177
 C           -3.65622708        0.30366117        2.93060003
 C           -3.57868284        2.60124685        2.10168197
 C           -4.41734864       -1.47442915        1.53787706
 C           -4.36550487       -0.10710300        1.80417984
 C           -3.95531092       -3.13163690       -0.05998903
 C           -3.48709570       -3.36471979       -1.34537246
 C           -3.63913476       -2.34229487       -2.36918455
 C           -4.76165309       -1.95286938        0.21204564
 C           -3.84488446        0.08811610       -2.49995074
 C           -4.37869110       -1.20196450       -2.10001081
 C           -5.00608722       -1.03508106       -0.79723872
 C           -3.71571213        2.25718013       -1.38746447
 C           -3.94571171        2.92915619       -0.18990677
 C           -4.37995984        2.16712439        0.97023113
 C           -4.69624069        0.81945099        0.80539847
 C           -4.41747393        1.08367532       -1.61893599
 C           -4.99673068        0.38150150       -0.48366374




