%chk=000112.chk
%mem=8GB
%Nproc=16
#p B3LYP/6-31G* opt pop=NPA

Template file

0 1
 C            4.52994185       -1.07188947        1.97103146
 C            3.83853933       -2.33018173        1.75145671
 C            2.75566909       -2.42253069        2.71778393
 C            3.81280313       -0.34976880        3.01041485
 C            2.64824265       -1.13683202        3.37716453
 C            3.69738356        1.03002244        2.94125847
 C            4.27497148        1.75298035        1.81853875
 C            5.04961217       -0.38695540        0.88232295
 C            4.92725062        1.06164540        0.80973464
 C            4.83130086       -0.91755561       -0.45170876
 C            3.62159485       -2.79545679        0.45674838
 C            3.94213797       -1.97711221       -0.63326886
 C            2.70549251       -3.82790352        0.29296705
 C            1.59806555       -3.10348983        2.35552703
 C            1.68752446       -4.02338016        1.31526434
 C            0.34936604       -2.56358940        2.67824252
 C            1.40189958       -0.53128658        3.46243507
 C            0.26000379       -1.30797989        3.29255221
 C            2.42152695        1.64824602        3.25654315
 C            1.29103033        0.85953555        3.44107598
 C            3.36170670        2.82476904        1.46587502
 C            2.30509752        2.85214437        2.45918167
 C            3.02778888        3.05423990        0.13397504
 C            4.66693332        1.41689895       -0.57404567
 C            4.81298619        0.20920575       -1.36713124
 C            3.65241702        2.32208207       -0.88624202
 C            4.10822538        0.09942775       -2.55151883
 C            3.23495192       -2.09486450       -1.83815658
 C            3.36217233       -1.11621280       -2.82131500
 C            2.06784817       -4.00998807       -0.99300598
 C            2.18044205       -3.00202007       -1.94025039
 C            0.47724997       -4.48313562        0.65648295
 C            0.77998751       -4.63642484       -0.75491966
 C           -0.80789423       -3.18309372        2.20191794
 C           -0.74819565       -3.95106294        1.04264671
 C           -2.04393908       -2.76603583        2.67073637
 C           -0.98764396       -0.72857009        3.50910568
 C           -2.12617531       -1.52019727        3.40704381
 C            0.03370384        1.43567279        3.27402351
 C           -1.09918175        0.66186727        3.50859876
 C            1.04279491        3.26938597        2.06498700
 C           -0.08451367        2.67754030        2.63729482
 C            1.87055263        3.78223018       -0.14076857
 C            0.91094989        3.95616332        0.86247375
 C            1.54739657        4.05461783       -1.46310355
 C            3.12925229        2.33385926       -2.18441476
 C            3.30151216        1.22011204       -3.00249129
 C            2.09454947        3.20637317       -2.49909241
 C            2.18859289       -0.75594041       -3.59551136
 C            2.14724720        0.68658471       -3.70795226
 C            1.09879140       -2.70669799       -2.77583702
 C            1.01524823       -1.45166270       -3.36626804
 C           -0.23443683       -4.45206402       -1.67583549
 C           -0.03597073       -3.50450095       -2.75956402
 C           -1.81459310       -3.93078246        0.13653315
 C           -1.59183700       -4.27506413       -1.19570430
 C           -3.19058167       -2.83687609        1.78387162
 C           -3.02025696       -3.31718283        0.48982750
 C           -3.40914643       -0.91014022        3.10663931
 C           -3.99670394       -1.64465200        2.00100412
 C           -2.35047556        1.26234163        3.46151963
 C           -3.52135459        0.46772306        3.13662665
 C           -1.34807128        3.20823618        2.35906471
 C           -2.48710465        2.54383125        2.79855579
 C           -0.31793343        4.53005029        0.56002429
 C           -1.48448891        4.14020297        1.33527165
 C            0.17258391        4.34549535       -1.82570374
 C           -0.72925070        4.66543872       -0.82608917
 C            0.97700597        2.70519182       -3.28666761
 C            0.93230483        1.35258650       -3.59713378
 C           -0.22184553        3.37838715       -2.83502010
 C           -0.20582648       -0.77434466       -3.36842187
 C           -0.23143770        0.62317747       -3.32741761
 C           -1.31842304       -2.88576110       -3.04538942
 C           -2.31182576       -3.57084809       -2.23712337
 C           -1.38684399       -1.49933704       -3.19640712
 C           -3.88981661       -2.87511283       -0.50725545
 C           -3.46890914       -2.89705137       -1.89926836
 C           -4.51295498       -0.96069824        0.90245528
 C           -4.64596912       -1.64770758       -0.30203146
 C           -4.22711112        1.14303018        2.06294208
 C           -3.64876798        2.47128010        1.92302398
 C           -4.60456444        0.43584581        0.92500558
 C           -2.61155846        4.02867358        0.42207112
 C           -2.09107529        4.17127565       -0.92658553
 C           -3.59931402        3.07820220        0.66960795
 C           -1.38860069        2.64923147       -2.65077103
 C           -1.40900951        1.28400510       -2.96034062
 C           -2.40643682        3.20382484       -1.87428450
 C           -2.57473937       -0.83313684       -2.89125867
 C           -3.67008465       -1.56110085       -2.42351932
 C           -4.64069843       -0.91816369       -1.55910828
 C           -2.59413934        0.56065559       -2.81746360
 C           -4.81024061        1.14002786       -0.25770213
 C           -4.22661377        2.46338307       -0.41354660
 C           -3.59794664        2.51344644       -1.72694113
 C           -4.69021131        0.46134822       -1.53517913
 C           -3.72993567        1.20384696       -2.33071383




