%chk=000159.chk
%mem=8GB
%Nproc=16
#p B3LYP/6-31G* opt pop=NPA

Template file

0 1
 C            4.96083351        0.99302302        0.78376686
 C            4.92684731       -0.29568878        0.11431764
 C            4.70689319       -1.29625930        1.13979327
 C            4.46001418        0.79344944        2.13663674
 C            4.10362236       -0.60816425        2.26527961
 C            3.64040476        1.74723271        2.71819747
 C            3.34224849        2.98191629        2.00778346
 C            4.59910503        2.12691202        0.07361148
 C            3.82915987        3.17523298        0.72453869
 C            4.08978262        1.97465436       -1.27781364
 C            4.27289793       -0.42666719       -1.11033271
 C            3.77640978        0.71032652       -1.75743237
 C            3.87913084       -1.69800555       -1.53591264
 C            4.18986580       -2.52089544        0.76381296
 C            3.92090948       -2.76624671       -0.64351183
 C            3.06492191       -3.05457264        1.50794428
 C            2.81654042       -0.96251888        2.67428985
 C            2.29540807       -2.20211414        2.29595714
 C            2.42502710        1.31604775        3.38238699
 C            1.98197831       -0.00150590        3.24877306
 C            1.96796927        3.34962107        2.30643364
 C            1.46154457        2.39596900        3.27207865
 C            1.12685221        3.78944017        1.28726285
 C            2.96534877        3.77281174       -0.27582069
 C            3.17255696        3.06817983       -1.53102237
 C            1.67237862        4.16858995        0.05545357
 C            2.07704018        2.87221982       -2.36676981
 C            2.77849947        0.58570551       -2.72020528
 C            1.81412657        1.58953393       -2.86010971
 C            3.14012885       -1.83073987       -2.70511503
 C            2.58141769       -0.64490319       -3.32675271
 C            2.16169071       -2.90303476       -2.82109072
 C            2.89623611       -3.79567896       -0.71126606
 C            2.40132570       -4.00778922        0.64243777
 C            1.99733649       -3.81049547       -1.77670301
 C            1.05203468       -4.25774339        0.82858936
 C            0.93313506       -2.46429004        2.44909643
 C            0.37682183       -3.60628653        1.86119204
 C            0.62324534       -0.27076300        3.41536159
 C            0.11460470       -1.53085311        3.09207429
 C            0.11932056        2.06817093        3.24607829
 C           -0.24985713        0.79245269        3.64405603
 C           -0.25658410        3.60696297        1.41832870
 C           -0.75963101        2.81077998        2.45860740
 C           -1.11951981        4.14381557        0.45931015
 C            0.81969351        4.46078155       -0.99975035
 C            1.04018649        3.79122070       -2.27216858
 C           -0.60785374        4.52290762       -0.77183369
 C           -0.25286746        3.47887084       -2.84102367
 C           -1.27072704        4.06288381       -1.98125905
 C            0.54834696        1.27240826       -3.37705722
 C           -0.47337303        2.22731601       -3.39397520
 C            1.26462396       -0.97844629       -3.82833434
 C            0.98814855       -2.36317742       -3.49014534
 C            0.24636532       -0.04888355       -3.71044169
 C           -0.27918175       -2.71889303       -3.03639971
 C            0.75391748       -4.41258766       -1.59522948
 C            0.32909743       -4.75563840       -0.24978290
 C           -0.40815222       -3.88451302       -2.29499876
 C           -1.12145935       -4.72093139       -0.22172183
 C           -1.56629371       -4.06579448       -1.44047167
 C           -0.96203832       -3.90578428        2.07473708
 C           -1.75740157       -4.41450160        0.96962987
 C           -1.22937863       -1.82495954        3.34581241
 C           -1.78829223       -2.98471664        2.82869632
 C           -1.59004663        0.54378803        3.86856847
 C           -2.09425293       -0.80540682        3.72400420
 C           -2.12985009        2.54623212        2.55249968
 C           -2.56660725        1.45796632        3.30481122
 C           -2.48220430        3.89391248        0.53844954
 C           -3.00474095        3.10243377        1.63132834
 C           -2.51390841        3.44387477       -1.87826532
 C           -3.20421668        3.52653196       -0.67148932
 C           -1.79122232        1.81783117       -3.57580120
 C           -2.84375718        2.44304106       -2.78851334
 C           -1.05656222       -0.50661053       -3.57239825
 C           -1.28839651       -1.75295547       -2.99270894
 C           -2.09211293        0.40218375       -3.68213534
 C           -2.52159299       -3.05958162       -1.36035726
 C           -2.44124215       -1.96136106       -2.22210944
 C           -2.98624553       -3.64438502        0.92806560
 C           -3.08816723       -2.91202049        2.17773586
 C           -3.36934694       -3.01640809       -0.25179219
 C           -3.41162456       -0.72917496        3.11053429
 C           -3.69448866        0.67089923        2.83089202
 C           -3.79757813       -1.71328839        2.20526425
 C           -4.10589950        2.29984520        1.12026859
 C           -4.18073368        2.50761910       -0.31791126
 C           -4.32746931        1.03028110        1.64534683
 C           -3.79928759        1.40903874       -2.42114500
 C           -3.33246437        0.14835790       -2.97929981
 C           -3.47184152       -1.01599834       -2.23395964
 C           -4.38831268        1.42045869       -1.16041058
 C           -4.33866328       -2.02821009       -0.17469279
 C           -4.56826619       -1.36108327        1.09886275
 C           -4.85323554        0.03929911        0.82355451
 C           -4.42595908       -1.03396265       -1.22482138
 C           -4.84308654        0.22145890       -0.62024897




