%chk=000030.chk
%mem=8GB
%Nproc=16
#p B3LYP/6-31G* opt pop=NPA

Template file

0 1
 C            5.30265479       -0.08347351        0.39885124
 C            4.85481871        0.73421575        1.51328390
 C            4.00072314       -0.08885268        2.35177832
 C            4.92189121       -1.45786592        0.68177852
 C            4.09685413       -1.45749703        1.87918937
 C            4.59447526       -2.31154115       -0.36143880
 C            4.46249690       -1.78914881       -1.71267408
 C            5.21171278        0.40767274       -0.89947362
 C            4.72497368       -0.45107647       -1.96616419
 C            4.68395817        1.74271315       -1.13365033
 C            4.50540272        2.05819421        1.29915931
 C            4.42078240        2.57654655       -0.06058512
 C            3.38709811        2.61383740        2.03868086
 C            2.76375323        0.39654001        2.76454041
 C            2.47381213        1.75966024        2.65838053
 C            1.73976034       -0.50300261        3.04506651
 C            2.96950415       -2.27083293        1.93733167
 C            1.86587960       -1.85016330        2.68456953
 C            3.54449282       -3.29432294       -0.16482751
 C            2.83196140       -3.32454409        1.02949848
 C            3.29510145       -2.40779486       -2.31675960
 C            2.81222953       -3.43264710       -1.41392867
 C            2.36658200       -1.62964699       -2.98984298
 C            3.78192955        0.31753413       -2.75949342
 C            3.71283350        1.65856135       -2.21064506
 C            2.60555160       -0.26833824       -3.20145322
 C            2.46443779        2.27150631       -2.07715228
 C            3.25959332        3.44552717       -0.11961861
 C            2.89034339        3.72649135        1.25365669
 C            2.25337760        3.20305628       -1.05828038
 C            1.61214893        4.18101398        1.50281019
 C            1.17195655        2.21382161        2.89526457
 C            0.82927399        3.50746191        2.52244031
 C            0.52035104       -0.01428048        3.49681251
 C            0.16502481        1.30047113        3.21212029
 C           -0.43614845       -0.90138879        3.95677335
 C            0.80858742       -2.73458586        2.90598437
 C           -0.31279990       -2.30367348        3.60673699
 C            1.67109179       -4.08533217        1.05257300
 C            0.67686466       -3.84230680        2.07870387
 C            1.44763989       -3.71264022       -1.35761861
 C            0.96826332       -4.31564391       -0.20041499
 C            1.07281995       -2.12104686       -3.13971174
 C            0.56210947       -3.01014613       -2.18759638
 C            0.20409205       -1.41595610       -3.95904657
 C            1.53317602        0.56282197       -3.49923493
 C            1.37444899        1.74997836       -2.77870123
 C            0.44587659        0.00141743       -4.14634663
 C            0.09626616        2.27920145       -2.57592337
 C            0.96548447        3.68337641       -0.80865869
 C            0.72396064        4.37641954        0.37393699
 C           -0.11890128        3.19707333       -1.54202404
 C           -0.55612002        3.81813550        2.24911169
 C           -0.61686816        4.40013744        0.91535321
 C           -1.18906347        1.64897155        3.07580776
 C           -1.54885317        2.92227339        2.62255037
 C           -1.83631757       -0.53446930        3.86835741
 C           -2.18269710        0.68614967        3.29676861
 C           -1.62392426       -2.76615911        3.18259492
 C           -2.58481538       -1.72984193        3.51794251
 C           -0.62615949       -4.14897902        1.51067543
 C           -0.45115585       -4.30726637        0.07957933
 C           -1.74033511       -3.46255892        1.98081332
 C           -0.82098634       -3.06269730       -1.94877608
 C           -1.30855837       -3.63174993       -0.76877544
 C           -1.22358357       -1.61165801       -3.82864679
 C           -1.71317775       -2.44243850       -2.83201740
 C           -0.82928680        0.68233675       -4.11884462
 C           -0.97235196        1.83692738       -3.36331382
 C           -1.87113659       -0.33059296       -4.06684471
 C           -2.26214610        2.26069808       -3.07836931
 C           -1.42224361        3.56354680       -1.18110835
 C           -1.68292931        4.05696661        0.09938455
 C           -2.48925504        3.18109653       -1.98448518
 C           -2.80078464        3.10348634        2.04970858
 C           -2.87325939        3.71126040        0.73147906
 C           -3.45416852        0.84489322        2.73661342
 C           -3.77589826        2.03557876        2.10196247
 C           -3.73048364       -1.60418254        2.75177683
 C           -4.21913818       -0.27654870        2.42785890
 C           -2.76470568       -3.12971621        1.08948741
 C           -2.55880420       -3.26184047       -0.28824829
 C           -3.86837125       -2.42115593        1.55990455
 C           -3.05448109       -2.31638709       -2.48261056
 C           -3.50302930       -2.78796251       -1.18695228
 C           -3.06894315       -0.03975006       -3.41958071
 C           -3.34343729        1.28419153       -3.07951170
 C           -3.74832300       -1.06762377       -2.76769931
 C           -3.75886279        2.83161500       -1.36873721
 C           -3.92890702        3.05070418       -0.01433389
 C           -4.45932311        1.98528455        0.81763700
 C           -4.20014547        1.57339184       -1.94084335
 C           -4.87232816       -0.34440240        1.12949873
 C           -4.71891102       -1.69870126        0.62884687
 C           -4.55689664       -1.90186658       -0.72867887
 C           -4.59639739       -0.76154568       -1.62551098
 C           -4.76327429        0.74300016        0.26390126
 C           -4.60973398        0.53208447       -1.11238207




