%chk=000194.chk
%mem=8GB
%Nproc=16
#p B3LYP/6-31G* opt pop=NPA

Template file

0 1
 C           -1.28215398       -4.68204859       -0.45613069
 C           -2.33968514       -4.05954043       -1.23319732
 C           -1.72135304       -3.46866403       -2.41105779
 C           -0.11472955       -4.76935692       -1.31620948
 C           -0.32677202       -3.85290288       -2.42317906
 C            1.14019375       -4.82870828       -0.73510880
 C            1.24998128       -4.65392139        0.70101039
 C           -1.13016266       -4.34073979        0.88509317
 C            0.15411911       -4.16837146        1.41200042
 C           -2.22113592       -3.80735014        1.56287208
 C           -3.35094333       -3.35786914       -0.58215068
 C           -3.38078200       -3.34798894        0.81027332
 C           -4.01409381       -2.35652917       -1.28539104
 C           -2.08426235       -2.18137612       -2.77663996
 C           -3.37293050       -1.78181473       -2.45809244
 C           -1.09059902       -1.21356576       -2.96431462
 C            0.64206438       -2.90051475       -2.70654837
 C            0.25563516       -1.59342461       -3.03147790
 C            2.23101314       -4.08680803       -1.34408881
 C            1.96635407       -3.17314140       -2.36051345
 C            2.57970397       -4.13688309        0.97551380
 C            3.15536941       -3.70687444       -0.28826245
 C            2.78159868       -3.36442066        2.10354092
 C            0.35328212       -3.27499635        2.46979751
 C            1.63587427       -2.98797698        2.91400152
 C           -1.98292416       -2.85903184        2.63390194
 C           -0.68547510       -2.44466624        2.86958272
 C           -3.94232891       -2.20718829        1.51826372
 C           -3.04829348       -1.88208597        2.61885140
 C           -4.68173950       -1.27941114       -0.57013212
 C           -4.54255275       -1.17063063        0.80939515
 C           -3.72379493       -0.38284058       -2.52041091
 C           -4.60535012       -0.08746810       -1.40146338
 C           -1.43095056        0.14430365       -3.02772215
 C           -2.76284735        0.54881949       -2.87847851
 C           -0.42362768        1.10412686       -3.16400154
 C            1.22749503       -0.64692363       -3.35985851
 C            0.88744042        0.70525966       -3.42712472
 C            2.94850826       -2.24430615       -2.66515807
 C            2.57020313       -1.01441770       -3.32748006
 C            3.81049217       -2.47923692       -0.38291439
 C            3.93211719       -1.90831703       -1.64465102
 C            3.64114781       -2.20180986        2.00850640
 C            3.94964061       -1.67573575        0.75407867
 C            1.89690409       -1.66929781        3.46342213
 C            3.25109373       -1.30858122        3.08264100
 C           -0.42362768       -1.10412686        3.16400154
 C            0.88744042       -0.70525966        3.42712472
 C           -2.76284735       -0.54881949        2.87847851
 C           -1.43095056       -0.14430365        3.02772215
 C           -4.60535012        0.08746810        1.40146338
 C           -3.72379493        0.38284058        2.52041091
 C           -4.54255275        1.17063063       -0.80939515
 C           -4.68173950        1.27941114        0.57013212
 C           -3.04829348        1.88208597       -2.61885140
 C           -3.94232891        2.20718829       -1.51826372
 C           -0.68547510        2.44466624       -2.86958272
 C           -1.98292416        2.85903184       -2.63390194
 C            0.35328212        3.27499635       -2.46979751
 C            1.89690409        1.66929781       -3.46342213
 C            1.63587427        2.98797698       -2.91400152
 C            3.57510051       -0.02873687       -2.97942255
 C            4.22342172       -0.49458295       -1.76651643
 C            3.25109373        1.30858122       -3.08264100
 C            4.20073387       -0.30320845        0.62835036
 C            4.20073387        0.30320845       -0.62835036
 C            3.57510051        0.02873687        2.97942255
 C            4.22342172        0.49458295        1.76651643
 C            1.22749503        0.64692363        3.35985851
 C            2.57020313        1.01441770        3.32748006
 C           -1.09059902        1.21356576        2.96431462
 C            0.25563516        1.59342461        3.03147790
 C           -3.37293050        1.78181473        2.45809244
 C           -4.01409381        2.35652917        1.28539104
 C           -2.08426235        2.18137612        2.77663996
 C           -3.38078200        3.34798894       -0.81027332
 C           -2.22113592        3.80735014       -1.56287208
 C           -3.35094333        3.35786914        0.58215068
 C            0.15411911        4.16837146       -1.41200042
 C           -1.13016266        4.34073979       -0.88509317
 C            1.24998128        4.65392139       -0.70101039
 C            2.78159868        3.36442066       -2.10354092
 C            3.64114781        2.20180986       -2.00850640
 C            3.94964061        1.67573575       -0.75407867
 C            2.57970397        4.13688309       -0.97551380
 C            3.93211719        1.90831703        1.64465102
 C            2.94850826        2.24430615        2.66515807
 C            3.81049217        2.47923692        0.38291439
 C            3.15536941        3.70687444        0.28826245
 C            0.64206438        2.90051475        2.70654837
 C            1.14019375        4.82870828        0.73510880
 C            1.96635407        3.17314140        2.36051345
 C            2.23101314        4.08680803        1.34408881
 C           -1.72135304        3.46866403        2.41105779
 C           -2.33968514        4.05954043        1.23319732
 C           -1.28215398        4.68204859        0.45613069
 C           -0.32677202        3.85290288        2.42317906
 C           -0.11472955        4.76935692        1.31620948




