%chk=000001.chk
%mem=8GB
%Nproc=16
#p B3LYP/6-31G* opt pop=NPA

Template file

0 1
 C            5.48773511       -0.82501651       -0.23619450
 C            5.49183787        0.56030066       -0.68294970
 C            5.24958306        1.39511388        0.48290442
 C            5.17985397       -0.82826755        1.18729690
 C            4.79928572        0.52297018        1.55074723
 C            4.47228162       -1.88416002        1.73719904
 C            4.11183891       -3.02066442        0.90523159
 C            4.96381918       -1.81607549       -1.05972485
 C            4.25493431       -2.94183652       -0.47255961
 C            4.27451303       -1.44926743       -2.28639043
 C            4.91523587        0.89596899       -1.90334135
 C            4.23279294       -0.12140441       -2.68666741
 C            4.16017097        2.13338903       -2.03056936
 C            4.62695816        2.62325314        0.33383328
 C            4.11081322        3.02260689       -0.96908510
 C            3.63307344        3.01223729        1.31549561
 C            3.55993741        0.75774750        2.14992158
 C            2.99980700        2.02825794        2.07756698
 C            3.33279099       -1.58732977        2.58923859
 C            2.77410658       -0.31773434        2.56117954
 C            2.89119263       -3.57869933        1.45043859
 C            2.46422661       -2.73814545        2.55806402
 C            1.91281523       -4.07338354        0.59650226
 C            3.11295616       -3.24924029       -1.32093496
 C            3.06742705       -2.25301477       -2.37417243
 C            1.91712394       -3.66768222       -0.74150651
 C            1.85063823       -1.64964194       -2.66927113
 C            2.97316020        0.44038515       -3.14012227
 C            2.93861064        1.84094288       -2.75892334
 C            1.80412385       -0.30408212       -3.03896585
 C            1.72900257        2.39107472       -2.33869333
 C            2.88900277        3.77674516       -0.73619255
 C            2.83197280        4.04200296        0.68893702
 C            1.71262229        3.42998221       -1.40502062
 C            1.60421499        4.33326254        1.24494575
 C            1.67919475        2.22363792        2.47999397
 C            1.12823623        3.48873734        2.32571619
 C            1.38919969       -0.16435134        2.68472306
 C            0.83887848        1.11900496        2.66772065
 C            1.10040179       -2.57765890        2.75921183
 C            0.55119229       -1.28710736        2.75209580
 C            0.69940576       -4.39318483        1.18396135
 C            0.30562274       -3.64496113        2.36938274
 C           -0.47743451       -4.50641680        0.35246800
 C            0.70821770       -3.33503274       -1.36724216
 C            0.67153621       -2.29108594       -2.29356881
 C           -0.48918729       -3.86585254       -0.88188812
 C           -0.54836079       -1.71156050       -2.62146140
 C            0.58799799        0.36750544       -2.98933022
 C            0.54836079        1.71156050       -2.62146140
 C           -0.58799799       -0.36750544       -2.98933022
 C           -0.67153621        2.29108594       -2.29356881
 C            0.48918729        3.86585254       -0.88188812
 C            0.47743451        4.50641680        0.35246800
 C           -0.70821770        3.33503274       -1.36724216
 C           -0.30562274        3.64496113        2.36938274
 C           -0.69940576        4.39318483        1.18396135
 C           -0.55119229        1.28710736        2.75209580
 C           -1.10040179        2.57765890        2.75921183
 C           -0.83887848       -1.11900496        2.66772065
 C           -1.38919969        0.16435134        2.68472306
 C           -1.12823623       -3.48873734        2.32571619
 C           -1.60421499       -4.33326254        1.24494575
 C           -1.67919475       -2.22363792        2.47999397
 C           -2.83197280       -4.04200296        0.68893702
 C           -1.71262229       -3.42998221       -1.40502062
 C           -1.72900257       -2.39107472       -2.33869333
 C           -2.88900277       -3.77674516       -0.73619255
 C           -2.93861064       -1.84094288       -2.75892334
 C           -1.80412385        0.30408212       -3.03896585
 C           -1.85063823        1.64964194       -2.66927113
 C           -2.97316020       -0.44038515       -3.14012227
 C           -3.06742705        2.25301477       -2.37417243
 C           -1.91712394        3.66768222       -0.74150651
 C           -1.91281523        4.07338354        0.59650226
 C           -3.11295616        3.24924029       -1.32093496
 C           -2.46422661        2.73814545        2.55806402
 C           -2.89119263        3.57869933        1.45043859
 C           -2.77410658        0.31773434        2.56117954
 C           -3.33279099        1.58732977        2.58923859
 C           -2.99980700       -2.02825794        2.07756698
 C           -3.63307344       -3.01223729        1.31549561
 C           -3.55993741       -0.75774750        2.14992158
 C           -4.11081322       -3.02260689       -0.96908510
 C           -4.16017097       -2.13338903       -2.03056936
 C           -4.62695816       -2.62325314        0.33383328
 C           -4.23279294        0.12140441       -2.68666741
 C           -4.27451303        1.44926743       -2.28639043
 C           -4.91523587       -0.89596899       -1.90334135
 C           -4.25493431        2.94183652       -0.47255961
 C           -4.11183891        3.02066442        0.90523159
 C           -4.47228162        1.88416002        1.73719904
 C           -4.96381918        1.81607549       -1.05972485
 C           -4.79928572       -0.52297018        1.55074723
 C           -5.24958306       -1.39511388        0.48290442
 C           -5.49183787       -0.56030066       -0.68294970
 C           -5.17985397        0.82826755        1.18729690
 C           -5.48773511        0.82501651       -0.23619450




