%chk=000066.chk
%mem=8GB
%Nproc=16
#p B3LYP/6-31G* opt pop=NPA

Template file

0 1
 C           -3.94354553       -3.44209540        0.65709386
 C           -4.58639308       -2.17118758        0.94065813
 C           -3.85944037       -1.53863996        2.03162906
 C           -2.97239520       -3.67841117        1.71298126
 C           -2.77051099       -2.41920060        2.40678897
 C           -1.86928968       -4.47711301        1.46226719
 C           -1.62229838       -4.95926230        0.11028086
 C           -3.62813207       -3.77309287       -0.65709388
 C           -2.38967878       -4.47643742       -0.94065813
 C           -3.81737471       -2.79168284       -1.71298114
 C           -5.03167780       -1.38143151       -0.11028086
 C           -4.56199074       -1.65137044       -1.46226729
 C           -5.04218815        0.06022409        0.06082644
 C           -3.63956595       -0.16812451        1.98800325
 C           -4.48981829        0.61762809        1.20988245
 C           -2.39021618        0.33570092        2.36502669
 C           -1.48286623       -1.90259975        2.52702556
 C           -1.29186237       -0.52195967        2.46834222
 C           -0.58772840       -4.08066125        2.01732783
 C           -0.38702268       -2.76122260        2.41486677
 C           -0.18282371       -5.03923246       -0.06082635
 C            0.43016462       -4.73053905        1.21959073
 C            0.40054999       -4.51436504       -1.20988255
 C           -1.72283565       -3.78081099       -2.03162911
 C           -2.54989756       -2.65071353       -2.40678906
 C           -0.34331513       -3.62723593       -1.98800314
 C           -1.97184895       -1.38945888       -2.52702551
 C           -4.10424301       -0.39040250       -2.01732761
 C           -4.70431388        0.65762499       -1.21959092
 C           -2.77666350       -0.25351259       -2.41486704
 C           -4.10983025        1.91029567       -1.20988226
 C           -4.31184930        1.99273578        1.21959081
 C           -4.27269133        2.67794640       -0.06082648
 C           -2.19777729        1.71578183        2.41486686
 C           -3.24009218        2.54931870        2.01732773
 C           -0.90626696        2.23550073        2.52702552
 C            0.00000019        0.00000102        2.46773775
 C            0.19390139        1.37976401        2.46834222
 C            0.90438342       -2.23783751        2.36502676
 C            1.09796048       -0.85780697        2.46834217
 C            1.71002787       -4.19711050        1.20988257
 C            1.96538253       -3.06789479        1.98800311
 C            1.78263728       -4.40286791       -1.21959074
 C            2.46893831       -4.39677517        0.06082635
 C            2.39021954       -3.35917712       -2.01732784
 C            0.22012677       -2.40361628       -2.36502670
 C           -0.58360435       -1.26520902       -2.46834215
 C            1.60788136       -2.27790593       -2.41486679
 C           -0.00000182        0.00000040       -2.46773775
 C           -2.19165808        1.01117200       -2.36502646
 C           -2.96961989        2.11093816       -1.98800351
 C           -0.80389834        1.13802159       -2.46834227
 C           -2.41286107        3.38242462       -2.03162891
 C           -3.48369804        3.88458267        0.11028091
 C           -2.94264875        3.85740880        1.46226724
 C           -2.68186900        4.30774133       -0.94065821
 C           -0.70983353        3.60893282        2.40678906
 C           -1.69939995        4.41337541        1.71298119
 C            0.59721873        4.11169362        2.03162900
 C            1.48583315        1.90213857        2.36502655
 C            1.67418318        3.23601829        1.98800336
 C            2.38913351       -0.33289910        2.52702553
 C            2.58479968        1.04543912        2.41486694
 C            3.26222175       -2.57305317        2.03162913
 C            3.48034440       -1.18973296        2.40678901
 C            3.71219375       -3.66684497       -0.11028087
 C            3.71112419       -3.12511475       -1.46226716
 C            4.17350007       -2.88633920        0.94065812
 C            4.32635554       -1.91010189       -1.71298129
 C            2.18922973       -1.01294053       -2.52702557
 C            1.38750741        0.12718639       -2.46834219
 C            3.57053456       -0.88291985       -2.40678892
 C            1.97152775        1.39244506       -2.36502684
 C           -0.21738413        2.40240019       -2.52702553
 C           -1.02063567        3.53363306       -2.40678906
 C            1.16878507        2.53141782       -2.41486674
 C           -1.45352818        5.02860100       -0.65709385
 C           -1.00916934        5.13625831        0.65709386
 C            0.41289302        5.05752668        0.94065818
 C           -0.50898123        4.70178485       -1.71298122
 C            1.71402241        3.74957986       -2.01732781
 C            1.31948400        5.04827659       -0.11028088
 C            0.85086692        4.77648511       -1.46226723
 C            2.77979059        3.57948287        1.20988238
 C            2.57324974        4.33655094        0.06082641
 C            2.92167708        3.74524282       -1.21959071
 C            3.82782070        1.53134314        2.01732769
 C            3.88168457        2.73780300        1.21959084
 C            4.67179518       -0.73496400        1.71298120
 C            4.95271482       -1.69416293        0.65709387
 C            5.08166032       -1.25550809       -0.65709386
 C            4.81193840        0.61970400        1.46226725
 C            4.13569581        0.39838654       -2.03162916
 C            3.31293691        1.51629740       -1.98800308
 C            3.70927940        2.60406952       -1.20988259
 C            4.45551531        2.36128604       -0.06082636
 C            5.07154797        0.16869602       -0.94065809
 C            5.10599628        1.07467969        0.11028084




