%chk=000186.chk
%mem=8GB
%Nproc=16
#p B3LYP/6-31G* opt pop=NPA

Template file

0 1
 C            3.49186923       -3.22689904        0.67999223
 C            4.19397864       -2.06663650        1.20232667
 C            3.53708512       -1.67798034        2.44195766
 C            2.60399728       -3.70529700        1.72618070
 C            2.50238040       -2.65518452        2.72318068
 C            1.46406637       -4.40332786        1.37036095
 C            1.16841766       -4.57863272       -0.03803848
 C            3.06722180       -3.22816109       -0.64612104
 C            1.82905177       -3.78670037       -0.97573854
 C            3.69368015       -2.37422258       -1.54641252
 C            4.63009240       -1.07505452        0.32750447
 C            4.51437520       -1.28070308       -1.04539295
 C            4.78217249        0.22046981        0.81317475
 C            3.29334929       -0.32924220        2.67841784
 C            4.12547023        0.59062665        2.05787530
 C            2.03328731        0.07347922        3.13435434
 C            1.25248420       -2.20898758        3.12931025
 C            1.12021261       -0.89317501        3.56581932
 C            0.21053560       -4.09535534        2.03786938
 C            0.11083203       -2.96443155        2.84247863
 C           -0.26343436       -4.78978437       -0.15053071
 C           -0.86492969       -4.37856848        1.10677702
 C           -0.89698365       -4.46452353       -1.33545028
 C            1.14595860       -3.34437308       -2.11320851
 C           -0.13108424       -3.81704753       -2.38496627
 C            2.94834283       -1.88671552       -2.69163053
 C            1.61647602       -2.24240668       -2.81939176
 C            4.33344002       -0.14517444       -1.93702131
 C            3.34268599       -0.51450414       -2.93687394
 C            4.68806848        1.35340943       -0.09464663
 C            4.33403300        1.14787327       -1.42343143
 C            3.71597081        1.97381389        1.95541212
 C            4.11277214        2.46652166        0.64496831
 C            1.63654800        1.41635046        3.03621662
 C            2.49568691        2.37121237        2.48150421
 C            0.33123776        1.78427232        3.37620741
 C           -0.07679601       -0.49974884        4.14491828
 C           -0.48356090        0.88755933        4.04989524
 C           -1.15035352       -2.41576305        3.07550833
 C           -1.25112509       -1.32399378        3.93186426
 C           -1.97427552       -3.53963731        1.10317983
 C           -2.20892116       -2.73398388        2.21695785
 C           -2.19694737       -3.82156662       -1.28503900
 C           -2.65840004       -3.28490126       -0.09048448
 C           -1.04262205       -2.98007092       -3.14263230
 C           -2.34725595       -3.04755620       -2.49944777
 C            0.71082198       -1.34346814       -3.38611450
 C           -0.60059041       -1.75852694       -3.64430178
 C            2.38405513        0.41578814       -3.31817514
 C            1.06483877        0.00422108       -3.53552091
 C            3.64274107        2.14287533       -2.10688117
 C            2.65314736        1.76527731       -3.10412225
 C            3.29805184        3.38863682       -0.00578265
 C            3.13299456        3.29992804       -1.38630151
 C            1.97989269        3.59047575        2.05578536
 C            2.36142278        4.09489775        0.74479025
 C           -0.25144227        2.89540704        2.77310071
 C            0.57269425        3.88364573        2.25265179
 C           -1.61149336        2.87823193        2.44880921
 C           -1.91190156        0.91903884        3.79295286
 C           -2.40371437       -0.44469084        3.85940400
 C           -2.39747139        1.78903271        2.82059723
 C           -3.40517781       -2.02895838        2.28956493
 C           -3.48190149       -0.80905577        3.07492186
 C           -3.62508656       -2.28112309       -0.13249117
 C           -4.15744496       -1.81632099        1.06714167
 C           -3.14425728       -1.90934276       -2.48402539
 C           -3.84850294       -1.57459799       -1.32198788
 C           -1.56051769       -0.81957965       -4.00586091
 C           -2.89696363       -0.93121011       -3.44456877
 C            0.06995652        0.96963655       -3.68539409
 C           -1.21115575        0.58647666       -4.03539002
 C            1.55318911        2.70923415       -3.02277329
 C            1.85967178        3.67312989       -1.98656450
 C            0.25926031        2.23307117       -3.14404721
 C            1.15624782        4.59012936        0.10173555
 C            0.12286962        4.67075558        1.11837664
 C            0.83618001        4.14348456       -1.17666482
 C           -2.11559682        3.79288087        1.53413469
 C           -1.20223388        4.58526496        0.73106673
 C           -3.20438511        3.38671445        0.67162568
 C           -3.51034007        1.43002625        2.04754520
 C           -4.13061921        0.19893608        2.25677399
 C           -4.74387030       -0.48977836        1.13661973
 C           -3.87894903        2.20056661        0.93849771
 C           -4.61227316       -0.40845527       -1.30297565
 C           -4.96440796        0.20815441       -0.03600473
 C           -4.58501883        1.60916751       -0.10753259
 C           -3.42039201        0.41244538       -3.27039214
 C           -2.33131829        1.34394702       -3.50499618
 C           -4.30556896        0.66033109       -2.23729032
 C           -4.17360524        1.88841671       -1.47366314
 C           -0.77666037        2.83616699       -2.42731013
 C           -0.49034473        3.83436785       -1.48965292
 C           -1.50222981        4.30224644       -0.66045719
 C           -2.80614689        3.67205864       -0.69992596
 C           -2.08777290        2.36944733       -2.59164672
 C           -3.08777134        2.73531782       -1.68503438




