%chk=000211.chk
%mem=8GB
%Nproc=16
#p B3LYP/6-31G* opt pop=NPA

Template file

0 1
 C            3.55009852       -2.40518591        2.00422551
 C            4.34389108       -1.23760174        1.65806884
 C            4.54115870       -1.25519156        0.21510076
 C            3.45830033       -3.24169830        0.82233813
 C            3.90444857       -2.44748261       -0.30915476
 C            2.35451186       -4.06116114        0.66750354
 C            1.25620776       -3.94659083        1.61208589
 C            2.44491443       -2.24994252        2.83442422
 C            1.24580676       -2.89893868        2.52668358
 C            2.43705394       -1.17631402        3.70997360
 C            4.09961303       -0.02581897        2.30432971
 C            3.24217310       -0.00355079        3.40322508
 C            4.35489742        1.16437561        1.62645969
 C            4.45067084       -0.06616316       -0.49209983
 C            4.64571497        1.12298455        0.20324879
 C            3.80009470       -0.04697882       -1.72814577
 C            3.09531524       -2.35315640       -1.43583569
 C            3.02162527       -1.14024425       -2.13155377
 C            1.77692351       -4.21541777       -0.65484453
 C            2.16731499       -3.36651457       -1.68785471
 C            0.03508284       -4.28580033        0.90922209
 C            0.36568580       -4.51729693       -0.48497326
 C           -1.12895308       -3.60036380        1.20766703
 C            0.02241672       -2.36240201        2.94971401
 C           -1.16890870       -2.73994711        2.30751092
 C            1.18216204       -0.72180800        4.26849558
 C            0.00520140       -1.38795794        3.95326248
 C            2.41743819        1.17157930        3.64093924
 C            1.18164205        0.73251409        4.24938195
 C            3.50137234        2.31963435        1.86456860
 C            2.39240018        2.18166717        2.69280765
 C            4.20755672        2.38096901       -0.37262137
 C            3.37854777        3.04814749        0.61545044
 C            3.70368894        1.15689973       -2.42453967
 C            3.82000070        2.41127474       -1.69970080
 C            2.65800613        1.32319075       -3.41809462
 C            2.14089502       -1.00184296       -3.20859524
 C            1.78211842        0.27079183       -3.64441747
 C            1.35551685       -3.28729374       -2.80989530
 C            1.37051012       -2.08159493       -3.61348598
 C           -0.53110626       -4.11535501       -1.47015055
 C           -0.02291664       -3.74192093       -2.71405014
 C           -2.13456829       -3.54289864        0.24898955
 C           -1.81946557       -3.71660978       -1.10250976
 C           -3.37854777       -3.04814749        0.61545044
 C           -2.39240018       -2.18166717        2.69280765
 C           -3.50137234       -2.31963435        1.86456860
 C           -1.18164205       -0.73251409        4.24938195
 C           -2.41743819       -1.17157930        3.64093924
 C           -0.00520140        1.38795794        3.95326248
 C           -1.18216204        0.72180800        4.26849558
 C            1.16890870        2.73994711        2.30751092
 C           -0.02241672        2.36240201        2.94971401
 C            2.13456829        3.54289864        0.24898955
 C            1.12895308        3.60036380        1.20766703
 C            2.69016773        3.23896917       -2.08069061
 C            2.14567268        2.67746636       -3.30078621
 C            1.81946557        3.71660978       -1.10250976
 C            0.82062070        2.92456819       -3.61255005
 C            0.46129703        0.52294312       -4.03074832
 C           -0.01643811        1.82892074       -4.06837844
 C            0.01643811       -1.82892074       -4.06837844
 C           -0.82062070       -2.92456819       -3.61255005
 C           -0.46129703       -0.52294312       -4.03074832
 C           -2.69016773       -3.23896917       -2.08069061
 C           -2.14567268       -2.67746636       -3.30078621
 C           -4.20755672       -2.38096901       -0.37262137
 C           -3.82000070       -2.41127474       -1.69970080
 C           -4.35489742       -1.16437561        1.62645969
 C           -4.64571497       -1.12298455        0.20324879
 C           -3.24217310        0.00355079        3.40322508
 C           -2.43705394        1.17631402        3.70997360
 C           -4.09961303        0.02581897        2.30432971
 C           -1.24580676        2.89893868        2.52668358
 C           -2.44491443        2.24994252        2.83442422
 C           -0.03508284        4.28580033        0.90922209
 C           -1.25620776        3.94659083        1.61208589
 C            0.53110626        4.11535501       -1.47015055
 C            0.02291664        3.74192093       -2.71405014
 C           -0.36568580        4.51729693       -0.48497326
 C           -1.37051012        2.08159493       -3.61348598
 C           -1.35551685        3.28729374       -2.80989530
 C           -1.78211842       -0.27079183       -3.64441747
 C           -2.65800613       -1.32319075       -3.41809462
 C           -3.70368894       -1.15689973       -2.42453967
 C           -2.14089502        1.00184296       -3.20859524
 C           -4.45067084        0.06616316       -0.49209983
 C           -3.80009470        0.04697882       -1.72814577
 C           -3.02162527        1.14024425       -2.13155377
 C           -4.34389108        1.23760174        1.65806884
 C           -3.55009852        2.40518591        2.00422551
 C           -4.54115870        1.25519156        0.21510076
 C           -2.35451186        4.06116114        0.66750354
 C           -1.77692351        4.21541777       -0.65484453
 C           -2.16731499        3.36651457       -1.68785471
 C           -3.09531524        2.35315640       -1.43583569
 C           -3.45830033        3.24169830        0.82233813
 C           -3.90444857        2.44748261       -0.30915476




