%chk=000148.chk
%mem=8GB
%Nproc=16
#p B3LYP/6-31G* opt pop=NPA

Template file

0 1
 C            1.71994370       -4.62123704       -0.15150481
 C            1.17585044       -4.42359836        1.17918912
 C           -0.27464949       -4.47542508        1.08838923
 C            0.60152353       -4.74562710       -1.07335807
 C           -0.62465848       -4.56806805       -0.31549600
 C            0.69092521       -4.20736733       -2.34790190
 C            1.89414227       -3.49953284       -2.75484799
 C            2.85425612       -3.91771574       -0.52749046
 C            2.95414547       -3.36801542       -1.87027764
 C            3.42299954       -2.94991113        0.39597684
 C            1.75518950       -3.49938025        2.04356191
 C            2.74122513       -2.63035853        1.56552269
 C            1.02579338       -3.14498283        3.16878100
 C           -1.02312026       -3.65909430        1.93426670
 C           -0.42426570       -3.25281600        3.11904700
 C           -2.08922033       -2.91745553        1.40981021
 C           -1.63043192       -3.74819490       -0.80460093
 C           -2.51299011       -3.16781784        0.10183876
 C           -0.45036119       -3.49848688       -2.89970927
 C           -1.57996046       -3.27404799       -2.11966174
 C            1.48901099       -2.35487842       -3.55120602
 C            0.04883941       -2.40929243       -3.71547627
 C            2.08856455       -1.11861713       -3.35083344
 C            3.64520926       -2.09563592       -1.77656187
 C            4.01591968       -1.88754717       -0.38989832
 C            3.20391353       -1.00036503       -2.51292288
 C            3.99990578       -0.59240435        0.10183876
 C            2.88117615       -1.34995828        2.11690126
 C            3.57120077       -0.35059012        1.40981021
 C            1.35830139       -1.93167897        3.88333364
 C            2.31049569       -1.06920736        3.36176046
 C           -0.97984051       -2.14324365        3.86083507
 C            0.12512375       -1.38069603        4.42338986
 C           -2.60968624       -1.82019260        2.11690126
 C           -2.08120859       -1.46634428        3.36176046
 C           -3.64856987       -1.05879134        1.56552269
 C           -3.64262364       -2.53411488       -0.38989832
 C           -4.26619775       -1.48944899        0.39597684
 C           -2.46829829       -2.27448800       -2.51292288
 C           -3.63747857       -2.10902586       -1.77656187
 C           -0.67595706       -1.22384025       -3.74379270
 C           -2.01303312       -1.24944139       -3.35083344
 C            1.39785527        0.02652414       -3.74379270
 C           -0.00000000       -0.00000000       -3.81056413
 C            2.06208874        1.24694239       -3.71547627
 C            3.62538896        0.26873809       -2.11966174
 C            4.06124797        0.46210199       -0.80460093
 C            3.25495911        1.35921921       -2.89970927
 C            4.26839222        1.74306391       -0.31549600
 C            3.68042874        0.94349901        1.93426670
 C            4.01315656        1.99985911        1.08838923
 C            2.34602370        0.22305506        3.86083507
 C            3.02915414        1.25898312        3.11904700
 C            0.00000000        0.00000000        4.56937379
 C            1.13315596        0.79870836        4.42338986
 C           -2.35203375       -0.21048402        3.88333364
 C           -1.25827971        0.58198766        4.42338986
 C           -3.90814695        0.22965143        2.04356191
 C           -3.23653171        0.68412829        3.16878100
 C           -4.41887378        1.19348282        1.17918912
 C           -4.81996941       -0.51300044       -0.52749046
 C           -4.39385965       -0.87435732       -1.87027764
 C           -4.86208052        0.82110358       -0.15150481
 C           -2.78389003       -0.11208213       -3.55120602
 C           -3.97775547        0.10939109       -2.75484799
 C           -0.72189821        1.19731611       -3.74379270
 C           -2.11092816        1.16235004       -3.71547627
 C            1.29487904        2.46696055       -3.55120602
 C           -0.07553142        2.36805852       -3.35083344
 C            3.29822439        2.70204245       -2.34790190
 C            3.80907186        2.89374821       -1.07335807
 C            2.08361320        3.39014174       -2.75484799
 C            3.24302333        3.23011554        1.17918912
 C            3.14213682        3.80013345       -0.15150481
 C            2.21073834        2.46085454        3.16878100
 C            0.99373237        2.14216299        3.88333364
 C            2.15295745        3.26972882        2.04356191
 C           -1.36618320        1.92018860        3.86083507
 C           -2.60488844        1.99383288        3.11904700
 C           -0.22928711        2.53555165        3.36176046
 C           -3.73850707        2.47556598        1.08838923
 C           -2.65730849        2.71559528        1.93426670
 C           -4.41059539        1.85187889       -1.07335807
 C           -3.98914959        1.50532488       -2.34790190
 C           -2.80459792        2.13926767       -2.89970927
 C           -3.64373374        2.82500414       -0.31549600
 C           -0.73561524        3.27485303       -2.51292288
 C           -2.04542850        3.00530989       -2.11966174
 C           -2.43081605        3.28609292       -0.80460093
 C            1.43971418        4.24237273       -1.87027764
 C            1.96571329        4.43071618       -0.52749046
 C           -0.00773069        4.20466178       -1.77656187
 C            0.90734474        3.68914986        1.56552269
 C           -0.27148991        3.17015088        2.11690126
 C           -1.48198044        3.26804565        1.40981021
 C           -1.48691567        3.76022219        0.10183876
 C            0.84319821        4.43936012        0.39597684
 C           -0.37329605        4.42166205       -0.38989832




