%chk=000145.chk
%mem=8GB
%Nproc=16
#p B3LYP/6-31G* opt pop=NPA

Template file

0 1
 C            4.67632241       -1.35016243        1.34295355
 C            4.55492852        0.05902670        1.67144828
 C            4.76465507        0.82253758        0.45119242
 C            4.84458578       -1.45276481       -0.09856796
 C            4.74371040       -0.11344492       -0.65267767
 C            4.27096210       -2.50966513       -0.78773224
 C            3.54681022       -3.54145930       -0.06181312
 C            3.88753502       -2.27137486        2.01635142
 C            3.32112459       -3.40323207        1.29939489
 C            2.88769780       -1.79165655        2.95302588
 C            3.58407942        0.48857410        2.57343959
 C            2.64449351       -0.42328117        3.06587186
 C            3.30598595        1.84938302        2.61758321
 C            4.11754199        2.04496938        0.31350406
 C            3.66254802        2.67000997        1.47243653
 C            3.55803431        2.39370214       -0.92075714
 C            3.88882109        0.13474735       -1.71855422
 C            3.45455378        1.43949459       -1.94182956
 C            3.54443447       -2.23637121       -2.01536529
 C            3.24993767       -0.92698622       -2.36691300
 C            2.46631565       -4.00169930       -0.91332044
 C            2.51318412       -3.24468567       -2.15430723
 C            1.22165492       -4.30171513       -0.36818884
 C            1.98761042       -3.64600076        1.82395594
 C            1.76307436       -2.71014765        2.90797641
 C            0.94067345       -3.93518072        0.95257180
 C            0.48908784       -2.20637367        3.10449648
 C            1.36548720        0.00944889        3.43359090
 C            0.35385074       -0.93187105        3.64095862
 C            2.01471284        2.30122052        3.09467160
 C            1.04358693        1.36814403        3.40647219
 C            2.70111918        3.75470542        1.38600832
 C            1.62995319        3.47257557        2.32682051
 C            2.90386923        3.61858440       -1.04546498
 C            2.38458206        4.27341552        0.14315265
 C            1.94470749        3.82632310       -2.11720297
 C            2.67172720        1.69544443       -3.06362743
 C            1.81831827        2.86835915       -3.10509965
 C            2.13513661       -0.68231483       -3.16456767
 C            1.94286293        0.59627583       -3.66743685
 C            1.31035221       -2.92130773       -2.77704261
 C            1.07985046       -1.60061485       -3.18106445
 C            0.17189241       -4.46456328       -1.26128159
 C            0.22913972       -3.75723367       -2.53123313
 C           -1.19214660       -4.40478996       -0.78159312
 C           -0.36871835       -3.60800229        1.32625478
 C           -0.59246247       -2.78781577        2.44209611
 C           -1.43784833       -4.02095906        0.52748150
 C           -1.88732278       -2.38531966        2.77920418
 C           -0.91092487       -0.50217028        4.01692703
 C           -2.06604940       -1.27514858        3.59801086
 C           -0.28938256        1.75519568        3.35054788
 C           -1.24150986        0.90349177        3.88395608
 C            0.30219613        3.61674449        1.92458669
 C           -0.67418245        2.77431470        2.47487677
 C            1.01277064        4.66084412       -0.12982257
 C            0.74677854        4.40526873       -1.53541171
 C            0.00921839        4.38976902        0.79695946
 C           -0.51268041        3.93265538       -1.89819772
 C            0.49063287        2.43443010       -3.50114872
 C            0.59414119        1.05228659       -3.93496322
 C           -0.61945946        2.83440102       -2.75756916
 C           -0.22458156       -1.15814456       -3.45236104
 C           -0.46467550        0.19804812       -3.68342479
 C           -1.10967744       -3.31691889       -2.85669476
 C           -2.01110371       -3.84601580       -1.84480815
 C           -1.31130906       -2.03117938       -3.33352413
 C           -3.15660781       -3.12806235       -1.51162506
 C           -2.73207908       -3.64338937        0.85551584
 C           -2.96592588       -2.83002362        2.02953596
 C           -3.62246019       -3.18113350       -0.19988336
 C           -4.05499385       -1.91128021        1.73247272
 C           -4.42197952       -2.09003290        0.33560750
 C           -3.14607200       -0.34458578        3.30945317
 C           -2.61687647        1.00453998        3.44398202
 C           -4.04420884       -0.63284091        2.28417247
 C           -2.01625735        2.91238412        2.10183990
 C           -2.96310984        1.96725575        2.50773612
 C           -1.30330615        4.47162208        0.35307302
 C           -1.57430519        4.24649428       -1.05980235
 C           -2.35461613        3.82322188        1.10839573
 C           -2.81025662        3.49841595       -1.15586330
 C           -3.40684870        3.48862661        0.16718047
 C           -1.73180270        1.98534868       -2.68642076
 C           -1.68997351        0.74595480       -3.32877231
 C           -2.85067398        2.34282017       -1.92556548
 C           -2.60303296       -1.51529870       -3.28330580
 C           -3.55524089       -2.08094521       -2.33844455
 C           -2.80135594       -0.07822662       -3.31294164
 C           -4.69469334       -0.97620861       -0.45095664
 C           -3.87094681        1.41527356       -1.69786283
 C           -4.35076232       -0.98870143       -1.79971800
 C           -3.91009788        0.24283138       -2.43878108
 C           -4.62567170        0.41606487        1.57704540
 C           -4.11349373        1.76711895        1.74941138
 C           -4.28445673        2.46961363        0.48968797
 C           -4.95135927        0.24239777        0.16893894
 C           -4.60974917        1.47692455       -0.51931679




