%chk=000046.chk
%mem=8GB
%Nproc=16
#p B3LYP/6-31G* opt pop=NPA

Template file

0 1
 C            5.17164333       -0.89551613       -0.22741150
 C            5.12832182        0.55660233       -0.27268204
 C            4.41710229        0.94848595       -1.47986641
 C            4.62966127       -1.38979391       -1.48267719
 C            4.04029676       -0.26206345       -2.18355980
 C            3.98165646       -2.61519037       -1.51929058
 C            3.78787032       -3.36793574       -0.28911862
 C            4.88258897       -1.55855432        0.96129401
 C            4.12085183       -2.79568120        0.93053049
 C            4.44294379       -0.80312562        2.12314427
 C            4.91652159        1.27411256        0.89519648
 C            4.50538179        0.58094172        2.10804413
 C            4.16908862        2.51594839        0.82921864
 C            3.51659801        2.00932101       -1.43208792
 C            3.58141338        2.91327640       -0.36885126
 C            2.38767632        1.98747766       -2.25932199
 C            2.75336911       -0.36437479       -2.69825560
 C            2.00087723        0.79221334       -2.88175077
 C            2.76909957       -2.74457432       -2.30901346
 C            2.12228744       -1.60680998       -2.76985161
 C            2.52905514       -4.08011808       -0.40790603
 C            1.97810093       -3.80712661       -1.72519092
 C            1.65571909       -4.12586682        0.67309303
 C            3.11069282       -2.72635922        1.97554782
 C            3.24503169       -1.44247703        2.63759375
 C            1.83798730       -3.22819527        1.72732713
 C            2.10529236       -0.68015929        2.87652304
 C            3.41384913        1.33749806        2.69670094
 C            3.39704202        2.63489636        2.05487980
 C            2.20267934        0.70943326        2.97178799
 C            2.20649885        3.34585884        2.01516782
 C            2.66557348        3.95520892       -0.31152876
 C            2.01547996        4.23311871        0.95833173
 C            1.57260539        3.12032808       -2.34285814
 C            1.66857038        4.09166173       -1.35539227
 C            0.39675103        3.07029829       -3.08373597
 C            0.76014851        0.69452412       -3.50598697
 C            0.04708998        1.85250210       -3.78268617
 C            0.75693338       -1.66328590       -3.03398195
 C            0.13294756       -0.54901038       -3.58893289
 C            0.59380214       -3.78688279       -1.86477521
 C           -0.01482505       -2.72580422       -2.54320416
 C            0.38026712       -4.61121324        0.42705455
 C           -0.14830352       -4.49384797       -0.92417024
 C           -0.69230113       -4.26131187        1.33343350
 C            0.73005223       -2.58223191        2.28554746
 C            0.85090438       -1.27493679        2.76328497
 C           -0.53263214       -3.16424150        2.17417701
 C           -0.28999022       -0.53466283        3.05503867
 C            1.03982436        1.47907627        3.02016443
 C            1.09183995        2.83741471        2.68212222
 C           -0.19273039        0.85112669        3.22255219
 C           -0.07739866        3.58662760        2.67910612
 C            0.68671136        4.75047006        0.67737617
 C            0.44553585        4.59253026       -0.74627970
 C           -0.33869650        4.48261901        1.56602098
 C           -0.82412201        3.60405067       -2.49562567
 C           -0.77785336        4.10501854       -1.20297936
 C           -1.40095849        1.80263153       -3.86549102
 C           -1.92049973        2.74601080       -2.89168190
 C           -1.20773051       -0.63179984       -3.94780675
 C           -2.01949578        0.57187177       -3.99285651
 C           -1.40971746       -2.63484833       -2.56473998
 C           -2.01724513       -1.69327142       -3.38058474
 C           -1.57807837       -4.26569573       -0.81643060
 C           -1.92589475       -4.40888266        0.58551472
 C           -2.15984663       -3.24770831       -1.56333558
 C           -3.05556566       -3.76832116        1.05463592
 C           -1.66347256       -2.46402606        2.59934301
 C           -1.52545132       -1.17542180        3.11745189
 C           -2.92760945       -2.92779642        2.22892281
 C           -2.65802990       -0.44436595        3.45198849
 C           -1.34105074        1.62310066        3.42417939
 C           -1.33062059        2.95368755        3.02798564
 C           -2.58039239        0.99983001        3.48548035
 C           -1.64732104        4.14375118        1.03923558
 C           -1.76733774        3.73713492       -0.28489194
 C           -2.33363786        3.39881721        2.07240846
 C           -2.82638613        2.30355295       -1.93519148
 C           -2.71837843        2.76220338       -0.61562214
 C           -3.22659619        0.31080996       -3.23004795
 C           -3.28429783       -1.11803442       -2.96810151
 C           -3.62421281        1.19680457       -2.23109879
 C           -3.35140041       -2.66135877       -1.12038575
 C           -3.88350550       -3.03818358        0.11259825
 C           -3.88570509       -1.55892440       -1.79460654
 C           -4.05771686       -2.01612320        2.21538780
 C           -3.93825028       -0.79776227        2.86366947
 C           -4.64954653       -2.07709967        0.88547111
 C           -3.64691700        1.51550564        2.64230370
 C           -3.33605124        2.50920549        1.71850311
 C           -3.60365583        2.29021829        0.36410198
 C           -4.49383968        0.40249057        2.25804404
 C           -4.54945236        0.75379528       -1.29858368
 C           -4.73365908       -0.67847025       -1.12257128
 C           -5.08426173       -0.91449900        0.26673353
 C           -4.58869738        1.37256917        0.01112620
 C           -5.00089619        0.35731222        0.96765647




