%chk=000101.chk
%mem=8GB
%Nproc=16
#p B3LYP/6-31G* opt pop=NPA

Template file

0 1
 C            4.68314191       -1.54740033        1.31207460
 C            3.98684995       -2.71618799        0.80223777
 C            3.02315100       -3.12992561        1.80940762
 C            4.03185609       -1.15551990        2.55309592
 C            2.90268977       -2.04579945        2.76207602
 C            3.89477283        0.18683600        2.86812265
 C            4.40712344        1.20343893        1.96160329
 C            5.11673480       -0.57744609        0.41971574
 C            4.99396966        0.83168372        0.76241641
 C            4.78353237       -0.71987036       -0.98584835
 C            3.62803832       -2.78679784       -0.54310478
 C            3.85578371       -1.68578187       -1.37465107
 C            2.68553256       -3.74007718       -0.91449115
 C            1.87453004       -3.78798127        1.39596362
 C            1.86790894       -4.34787459        0.12148443
 C            0.65852635       -3.47937632        2.00698748
 C            1.64179731       -1.51857703        3.02528480
 C            0.50915560       -2.26152071        2.68031383
 C            2.62569567        0.65973335        3.39030613
 C            1.50918830       -0.17056860        3.36726486
 C            3.47964706        2.31985163        1.97979536
 C            2.47340816        2.04307702        2.98671873
 C            3.07975853        2.92284654        0.79014154
 C            4.65018988        1.55599814       -0.44894126
 C            4.72116450        0.61533642       -1.55298172
 C            3.63432875        2.51176591       -0.43040775
 C            3.93127564        0.83392360       -2.66696080
 C            2.99909112       -1.43370474       -2.45294783
 C            3.11631983       -0.25339490       -3.17732535
 C            1.81962324       -3.47550343       -2.04741621
 C            1.86923669       -2.22523602       -2.64359648
 C            0.60809986       -4.73877272       -0.48440580
 C            0.52863446       -4.08526248       -1.77919208
 C           -0.46828211       -4.20335693        1.63897210
 C           -0.52503915       -4.78574041        0.30785707
 C           -1.78734997       -3.68353609        1.94444340
 C           -0.76282618       -1.71783532        2.89111325
 C           -1.91240341       -2.42850538        2.52739727
 C            0.24302640        0.40527305        3.39359444
 C           -0.87344509       -0.42106739        3.38953701
 C            1.19527945        2.54170896        2.79029635
 C            0.09669964        1.78351328        3.19508091
 C            1.91664313        3.69221191        0.79939087
 C            1.00984980        3.55505076        1.85584498
 C            1.52911604        4.33614195       -0.36828249
 C            3.03455589        2.88703302       -1.63797281
 C            3.13975108        2.04944285       -2.74511642
 C            2.01088775        3.82655921       -1.63347001
 C            1.92305418        0.32437069       -3.76573575
 C            1.94370369        1.75446681       -3.51754053
 C            0.69906677       -1.65495421       -3.15269396
 C            0.71926918       -0.35007695       -3.64995675
 C           -0.62775520       -3.39858895       -2.13484433
 C           -0.52477548       -2.31464154       -3.00403749
 C           -1.79530980       -4.39607448       -0.27105074
 C           -2.65726983       -4.03609376        0.83562300
 C           -1.81635738       -3.61923628       -1.42819985
 C           -3.76035472       -3.24166915        0.58019086
 C           -3.14556858       -1.77570712        2.45918261
 C           -4.07722379       -2.16528469        1.50130827
 C           -2.12533909        0.13744578        3.58943382
 C           -3.29210851       -0.52840495        3.04822190
 C           -1.17845291        2.35367539        3.14511695
 C           -2.29421145        1.56515610        3.40050738
 C           -0.23074219        4.17788674        1.79615149
 C           -1.36004585        3.55638117        2.46893835
 C            0.14293804        4.72307581       -0.55601411
 C           -0.70617614        4.72160115        0.53625276
 C            0.85087146        3.60333298       -2.48573625
 C            0.75812813        2.41439175       -3.19820771
 C           -0.31358315        4.12007249       -1.79633387
 C           -0.45602165        0.38775158       -3.67142034
 C           -0.44749579        1.70323213       -3.20489592
 C           -1.68465591       -1.70551565       -3.46543828
 C           -1.65445164       -0.29203230       -3.79481205
 C           -2.95491674       -2.86126460       -1.71861258
 C           -3.96383412       -2.73294798       -0.76635842
 C           -2.93954292       -1.98291663       -2.79475423
 C           -4.79401708       -1.14429285        0.75568394
 C           -4.69016482       -1.47632429       -0.65817339
 C           -4.11683642        0.47456142        2.39012238
 C           -3.50540681        1.77416934        2.62013914
 C           -4.69717696        0.18379643        1.15815050
 C           -2.53117566        3.72388606        1.62263075
 C           -2.07719777        4.27850177        0.35895217
 C           -3.51374261        2.73725192        1.61505768
 C           -1.49391096        3.38741589       -1.79998592
 C           -1.58811887        2.22957239       -2.57965827
 C           -2.45610578        3.65391104       -0.82435696
 C           -2.86919674        0.31501318       -3.29401344
 C           -3.69005420       -0.73804398       -2.71518856
 C           -4.45960927       -0.46505825       -1.58645909
 C           -2.80907735        1.55250589       -2.66663402
 C           -4.81640565        1.18716080        0.20288563
 C           -4.20541429        2.48738478        0.43171759
 C           -3.64851807        2.94732430       -0.83230428
 C           -4.65562083        0.85959155       -1.20625323
 C           -3.85030808        1.90543595       -1.81802286




