%chk=000015.chk
%mem=8GB
%Nproc=16
#p B3LYP/6-31G* opt pop=NPA

Template file

0 1
 C            5.27751071       -0.56573723       -0.76328972
 C            4.71865536       -1.84373191       -1.17918784
 C            4.28705165       -2.55278180        0.01172054
 C            5.23246693       -0.50829202        0.69014240
 C            4.57816422       -1.71528659        1.16248361
 C            4.96550610        0.69353935        1.32854572
 C            4.79911674        1.90778436        0.54526189
 C            5.02525682        0.57903529       -1.51174384
 C            4.75513111        1.83981954       -0.83969156
 C            4.16392534        0.50566030       -2.68025478
 C            3.94636745       -1.92209350       -2.32663438
 C            3.67417462       -0.72065276       -3.10291751
 C            2.73515330       -2.72444827       -2.30676233
 C            3.09953341       -3.28227846        0.00923609
 C            2.24810725       -3.21707399       -1.09903744
 C            2.57525896       -3.63218115        1.24539322
 C            3.63503444       -1.64506697        2.18417976
 C            2.83233530       -2.75680804        2.38084537
 C            3.98243674        0.71540213        2.39970978
 C            3.17733350       -0.39542961        2.60768891
 C            3.84164332        2.74611439        1.23968412
 C            3.39210724        2.03378182        2.42543716
 C            2.90540988        3.48231507        0.52046581
 C            3.67239485        2.50464376       -1.54717798
 C            3.26958912        1.64939362       -2.64877841
 C            2.69138480        3.18267533       -0.82867782
 C            1.91305877        1.47638094       -2.90278118
 C            2.30734123       -0.80814321       -3.58189782
 C            1.81145025       -2.13015542       -3.24852090
 C            1.44377857        0.28103452       -3.45336744
 C            0.45402697       -2.26871079       -3.03571065
 C            0.86670066       -3.41073697       -0.94657263
 C           -0.00645676       -3.05681396       -1.98042280
 C            1.20160000       -4.07543303        1.34092098
 C            0.35389104       -3.91597043        0.24937345
 C            1.58724695       -2.60797853        3.10089347
 C            0.73402878       -3.69345818        2.66095966
 C            1.83462077       -0.22071860        2.97262378
 C            1.04611396       -1.33574075        3.26262817
 C            2.07107138        2.19219418        2.82139073
 C            1.26657417        1.06001469        3.00527346
 C            1.87024136        4.04999218        1.25155589
 C            1.47104568        3.39799721        2.48882340
 C            0.66335532        4.47567452        0.57194756
 C            1.40137190        3.26912566       -1.36056001
 C            1.00527621        2.38731130       -2.37395445
 C            0.45959095        4.09624280       -0.74564356
 C           -0.33437212        2.28551600       -2.72727111
 C            0.06623173        0.04272319       -3.50864405
 C           -0.37694199       -1.27974632       -3.53666770
 C           -0.82980115        1.06641704       -3.18387171
 C           -1.73023998       -1.54899041       -3.59059616
 C           -1.38683926       -3.19938419       -1.81120074
 C           -2.23606492       -2.62735751       -2.76217343
 C           -1.02516578       -3.92439054        0.46501673
 C           -1.89796139       -3.61085601       -0.57786499
 C           -0.62495494       -3.58018890        2.86112369
 C           -1.50694839       -3.95360113        1.77491858
 C           -0.33651023       -1.19597668        3.39781098
 C           -1.14346880       -2.33590072        3.40153522
 C           -0.12497890        1.19755434        3.11590769
 C           -0.92708825        0.05679316        3.22780492
 C            0.04249009        3.54630448        2.62817389
 C           -0.43327297        4.35659369        1.51792518
 C           -0.71819897        2.46425506        3.03763764
 C           -1.72428313        4.14888025        1.04036597
 C           -0.83156885        4.16530076       -1.25431805
 C           -1.21041164        3.28562350       -2.34190835
 C           -1.95518145        4.24155535       -0.33016260
 C           -2.61874077        2.97966553       -2.20045795
 C           -3.07313295        3.53218289       -0.93269388
 C           -2.20785508        0.81570066       -3.17202159
 C           -2.67065061       -0.45094731       -3.51470005
 C           -3.09011545        1.73662772       -2.59843557
 C           -3.61024476       -2.30705883       -2.42269337
 C           -3.88620030       -0.96226862       -2.90703108
 C           -3.26284751       -3.48360920       -0.30757311
 C           -4.11635249       -2.72159780       -1.20207753
 C           -2.78905194       -3.35201646        2.07585000
 C           -2.52530959       -2.23126331        2.96346691
 C           -3.69542016       -3.18859381        1.04651842
 C           -2.30988409        0.14519465        3.04253731
 C           -3.02762993       -0.97714698        2.64877988
 C           -2.09329217        2.57097963        2.88385016
 C           -2.61682963        3.43819676        1.83856236
 C           -2.91456888        1.38298381        2.93316464
 C           -3.94145527        2.78763459       -0.13847335
 C           -3.76541328        2.77410806        1.24239076
 C           -4.00028225        1.54354032        1.98481462
 C           -4.29166333        1.29474470       -2.05162027
 C           -4.67305190       -0.10314910       -2.15546635
 C           -4.67897453        1.76744820       -0.73282767
 C           -4.90049756       -1.80198015       -0.38940442
 C           -4.47245932       -1.96487040        0.98684418
 C           -4.05665329       -0.84819238        1.70999265
 C           -4.48071984        0.42438927        1.31338165
 C           -5.17352288       -0.52468464       -0.85603914
 C           -5.04862628        0.60244700        0.05422032




