%chk=000190.chk
%mem=8GB
%Nproc=16
#p B3LYP/6-31G* opt pop=NPA

Template file

0 1
 C            1.91556013       -4.32431098       -0.38188749
 C            0.56769548       -4.71993270       -0.00715676
 C            0.37643875       -4.36107312        1.39069266
 C            2.62370263       -3.98370930        0.83996198
 C            1.62985336       -3.82487328        1.88581771
 C            3.67790398       -3.09016627        0.77593940
 C            4.01445490       -2.50502250       -0.50654966
 C            2.11115740       -3.56467770       -1.53237528
 C            3.08748010       -2.56429964       -1.54572762
 C            1.12692806       -3.57479790       -2.51260954
 C           -0.48120767       -4.53121951       -0.90269352
 C           -0.20505640       -4.06655776       -2.18855658
 C           -1.77117389       -4.39725761       -0.39480998
 C           -0.82508949       -3.77324721        1.77590127
 C           -1.94736732       -4.04795100        1.00773076
 C           -0.80573141       -2.63772442        2.59479911
 C            1.60526286       -2.66226578        2.64135079
 C            0.39617231       -2.24754110        3.19135106
 C            3.76583186       -2.02980290        1.76596764
 C            2.69165392       -1.78236711        2.61324706
 C            4.71403905       -1.26342455       -0.23425504
 C            4.43189379       -0.90035532        1.14421913
 C            4.71607964       -0.27378894       -1.19822255
 C            2.97904141       -1.49274407       -2.43919718
 C            3.89400356       -0.44788325       -2.38378977
 C            0.98011689       -2.42051031       -3.37841621
 C            1.81788629       -1.32872630       -3.18931098
 C           -1.17031275       -3.21772570       -2.87210147
 C           -0.43759347       -2.19380835       -3.58747012
 C           -2.76509897       -3.65870967       -1.15344753
 C           -2.35526272       -2.88308245       -2.23339855
 C           -3.11562008       -3.19814517        1.11238991
 C           -3.72529553       -3.12589255       -0.20441367
 C           -1.94603593       -1.82585425        2.71337577
 C           -3.06126070       -2.05479287        1.89885661
 C           -1.94841169       -0.74035753        3.59659448
 C            0.40746928       -1.20567023        4.10303162
 C           -0.79040836       -0.41597375        4.29323127
 C            2.56038171       -0.51490599        3.17827101
 C            1.54678985       -0.30618834        4.10860124
 C            3.98748689        0.38456387        1.44509360
 C            3.20247957        0.57641993        2.58186689
 C            4.58379529        1.10890460       -0.78170200
 C            4.10166462        1.40566236        0.49274333
 C            3.48257101        0.87186652       -2.82974054
 C            4.07414753        1.84205047       -1.92322624
 C            1.34296276       -0.04174608       -3.46171418
 C            2.17973649        1.06619500       -3.28246803
 C           -0.90632536       -0.89097504       -3.58054558
 C            0.00013356        0.13808272       -3.80102840
 C           -2.90976848       -1.61491274       -2.42530089
 C           -2.15708188       -0.60146710       -3.02888496
 C           -4.43945838       -1.99091097       -0.54545014
 C           -4.09057537       -1.28896416       -1.76775558
 C           -3.99146153       -1.03684364        1.67741540
 C           -4.68535211       -0.98659741        0.47321063
 C           -2.90321647        0.25885592        3.44403942
 C           -3.94747227        0.11031107        2.45258246
 C           -2.46972587        1.64731090        3.43291110
 C           -0.39341979        0.98071425        4.37142917
 C            1.05694706        1.03668693        4.36435645
 C           -1.13114232        1.92499280        3.66351376
 C            2.86987644        1.87135674        2.95698655
 C            1.68509345        2.11078665        3.75984607
 C            3.53389985        2.66227825        0.73468158
 C            2.94453105        2.92497249        1.96665149
 C            3.41594292        3.03833062       -1.70346912
 C            3.18877423        3.48250773       -0.33788768
 C            1.64338890        2.35664585       -3.27616263
 C            2.21723535        3.33477158       -2.46642749
 C           -0.48912075        1.41169786       -4.02921652
 C            0.33787739        2.55682832       -3.70693395
 C           -2.62397597        0.71950835       -3.03139022
 C           -1.85424123        1.71318719       -3.63439274
 C           -4.44667661        0.10529124       -1.58825597
 C           -4.84163061        0.29246689       -0.19896147
 C           -3.69326246        1.08842656       -2.21120436
 C           -4.15522897        1.40471137        1.81938697
 C           -3.16211954        2.32270090        2.35533940
 C           -4.48108594        1.46481943        0.46543982
 C           -2.44831797        3.13255065        1.48283851
 C           -0.46851621        2.83258533        2.83431911
 C            0.87531886        3.09608769        3.06413426
 C            1.68366518        3.65361243        2.00097804
 C           -1.06544528        3.26256172        1.64343271
 C            1.91602502        4.18726325       -0.30157478
 C            1.35121904        4.15542394       -1.63541818
 C            1.08746050        4.01893597        0.80130514
 C           -0.27702983        3.78258939        0.60320771
 C           -0.49304515        3.50779549       -2.98853689
 C           -1.86955758        3.06008786       -3.08899369
 C           -0.02135773        4.03922513       -1.79146199
 C           -0.83733382        4.00762784       -0.65959669
 C           -3.75274053        2.37848337       -1.69317584
 C           -4.04991714        2.55841612       -0.28279094
 C           -3.03640230        3.44834587        0.26675758
 C           -2.74403442        3.35502607       -2.05795086
 C           -2.21306390        3.91923109       -0.82778962




