%chk=000161.chk
%mem=8GB
%Nproc=16
#p B3LYP/6-31G* opt pop=NPA

Template file

0 1
 C            4.36110327       -1.97074411       -0.95014349
 C            4.80839915       -0.58778073       -1.02242915
 C            4.97911794       -0.10441105        0.34020398
 C            4.39490554       -2.37409507        0.44616531
 C            4.58412934       -1.17466255        1.24129990
 C            3.50679356       -3.33796783        0.88763029
 C            2.62682192       -3.96257921       -0.07871187
 C            3.32208583       -2.39789545       -1.77411765
 C            2.39444693       -3.32867359       -1.29837083
 C            3.02873304       -1.65767627       -2.91246554
 C            4.27543123        0.25762830       -1.99118676
 C            3.49516221       -0.28239913       -3.01127134
 C            4.20027915        1.62362668       -1.73187839
 C            4.63805511        1.20767625        0.65277064
 C            4.42299400        2.11382958       -0.37974442
 C            4.15777024        1.49437180        1.92763372
 C            3.71536682       -0.89069749        2.29111711
 C            3.66878883        0.41163272        2.76858358
 C            2.71066576       -3.06684940        2.07269822
 C            2.67251664       -1.77321942        2.58724254
 C            1.51100860       -4.51027543        0.66828332
 C            1.47450146       -3.82018523        1.94669204
 C            0.32221462       -4.74886783        0.00500309
 C            1.13877216       -3.44111504       -1.90512998
 C            0.19420071       -4.31024407       -1.37309347
 C            1.69351016       -1.72045278       -3.47684486
 C            0.73465956       -2.50348393       -2.85288844
 C            2.41904653        0.51036436       -3.58392903
 C            1.33141074       -0.39033054       -3.92166556
 C            3.12236557        2.40563349       -2.31835981
 C            2.13192663        1.75956485       -3.04240518
 C            3.55297477        3.26121931       -0.17196079
 C            2.75721802        3.44313807       -1.37754568
 C            3.29770009        2.64828826        2.14040756
 C            2.96486863        3.47705099        1.07232245
 C            2.47784099        0.87639266        3.44912667
 C            2.26824736        2.26777251        3.09735112
 C            1.48543480       -1.29547161        3.15532759
 C            1.37800201        0.04291732        3.53761682
 C            0.28824125       -3.24124568        2.38173928
 C            0.35270709       -2.11438820        3.19783008
 C           -0.92680212       -4.43371623        0.67247968
 C           -0.92386480       -3.59441110        1.77820748
 C           -1.21322053       -4.06050011       -1.61942783
 C           -1.92094324       -4.22345883       -0.35752396
 C           -0.61515039       -2.15236932       -2.95591251
 C           -1.59210401       -3.02481981       -2.46719136
 C            0.02847918        0.04262598       -3.74509312
 C           -0.96920280       -0.88220434       -3.43536890
 C            0.79993505        2.15833186       -2.90699125
 C           -0.19715899        1.39247655       -3.50976486
 C            1.42883267        3.82483342       -1.25540337
 C            0.44946166        3.19011618       -2.02337283
 C            1.78162736        4.20813231        1.13504763
 C            1.05402074        4.48130116       -0.09339235
 C            0.97140161        2.74372741        2.92355351
 C            0.80035385        3.88730643        2.16021683
 C            0.12126821        0.61754982        3.67313362
 C           -0.11445690        1.88748751        3.14225138
 C           -0.82115326       -1.62570596        3.76007725
 C           -0.94248461       -0.20009013        4.00823742
 C           -2.08646494       -2.89425050        2.09725051
 C           -2.08930762       -2.09057698        3.23346536
 C           -3.00647059       -3.39675988       -0.09577541
 C           -3.12377555       -2.78965826        1.15990226
 C           -2.91610642       -2.61043947       -2.41305150
 C           -3.66681327       -2.84260001       -1.18982947
 C           -2.30124489       -0.45968392       -3.41558465
 C           -3.28356519       -1.30500989       -2.91944968
 C           -1.49811475        1.86143017       -3.53595143
 C           -2.58698611        0.90138633       -3.49206899
 C           -0.89857031        3.52491386       -1.84077271
 C           -1.85526506        2.98866235       -2.69825683
 C           -0.34947984        4.59166757        0.24112072
 C           -0.50825005        4.20467776        1.63442685
 C           -1.30810058        4.17599960       -0.67247329
 C           -1.39886535        2.23154999        2.68720016
 C           -1.60146523        3.42376411        1.98384205
 C           -2.28586966        0.20598488        3.65263354
 C           -3.03819435       -0.99880386        3.34955640
 C           -2.46898196        1.34534868        2.87591562
 C           -4.18572277       -1.91744067        1.39698358
 C           -4.08762166       -0.92551535        2.45328244
 C           -4.58312427       -1.73126800       -1.00646260
 C           -4.31357068       -0.75700276       -2.04867836
 C           -4.86405465       -1.29341889        0.27381407
 C           -3.63171070        1.45036827       -2.64281891
 C           -3.21293172        2.77550808       -2.22495775
 C           -4.29342237        0.60471887       -1.75389956
 C           -2.59316215        3.96261523       -0.18167888
 C           -2.74474347        3.56612246        1.20879387
 C           -3.56656857        3.22901118       -0.96912484
 C           -3.63883298        1.47701534        2.12098420
 C           -4.43834603        0.36211780        1.88167416
 C           -4.93595188        0.13267039        0.53437575
 C           -4.61832506        1.05097311       -0.46560486
 C           -3.78799842        2.56663233        1.27628792
 C           -4.29127790        2.34728178       -0.07173529




