%chk=000051.chk
%mem=8GB
%Nproc=16
#p B3LYP/6-31G* opt pop=NPA

Template file

0 1
 C            4.95804266       -1.53177963        0.47717122
 C            5.11861232       -0.08746503        0.44634814
 C            4.42159412        0.46767993        1.59614677
 C            4.28521062       -1.87366577        1.71958861
 C            3.84359294       -0.63625442        2.33859523
 C            3.45679403       -2.98465827        1.77357695
 C            3.20485056       -3.76133261        0.56913116
 C            4.64391872       -2.21683739       -0.69192099
 C            3.71788203       -3.33681286       -0.64711397
 C            4.38208030       -1.47750749       -1.91741593
 C            5.05933597        0.58511246       -0.76544904
 C            4.61004674       -0.11268432       -1.96153286
 C            4.48743697        1.91770986       -0.80089571
 C            3.68850775        1.64278347        1.45273761
 C            3.92515005        2.46593867        0.34869054
 C            2.53652408        1.82932917        2.22503508
 C            2.53776115       -0.52247220        2.79992378
 C            1.95666514        0.73926780        2.88940724
 C            2.20669280       -2.89559005        2.50707867
 C            1.73348700       -1.65698810        2.92441308
 C            1.83414501       -4.23829575        0.63086860
 C            1.27674253       -3.82801092        1.90390154
 C            1.01829372       -4.17472936       -0.49457967
 C            2.82763301       -3.22385312       -1.78889126
 C            3.15795146       -2.00020974       -2.49594966
 C            1.48808755       -3.55991076       -1.66059535
 C            2.12792722       -1.12960839       -2.86030604
 C            3.63708500        0.73629067       -2.62605857
 C            3.77285398        2.06104453       -2.05871367
 C            2.36270350        0.24641499       -2.90080260
 C            2.68727679        2.92234455       -2.10028198
 C            3.17018625        3.62107492        0.19379409
 C            2.60579300        3.90277650       -1.11534613
 C            1.89346196        3.07052220        2.21365541
 C            2.16891563        3.96147881        1.18542290
 C            0.70005385        3.23524098        2.90705597
 C            0.70138310        0.86084418        3.47790896
 C            0.15132244        2.12318257        3.65363931
 C            0.36988674       -1.50194036        3.16786887
 C           -0.09773369       -0.27271514        3.62424340
 C           -0.08026889       -3.54894401        1.95898252
 C           -0.53313168       -2.48843560        2.74674903
 C           -0.36104291       -4.29961652       -0.31497703
 C           -0.90233666       -4.04275796        0.95039691
 C           -1.17398107       -4.22369242       -1.44329086
 C            0.57939056       -2.93226588       -2.50415726
 C            0.81947515       -1.61356413       -2.89444526
 C           -0.70435191       -3.44262010       -2.56985169
 C           -0.24940641       -0.72547381       -3.04287961
 C            1.28858365        1.13754494       -2.93880316
 C            1.51766966        2.50347022       -2.73444654
 C           -0.01725269        0.64923115       -3.05744490
 C            0.45987709        3.39792935       -2.82775588
 C            1.36335886        4.62826183       -0.92120617
 C            1.05859826        4.60678132        0.50009988
 C            0.33743091        4.45154730       -1.83181284
 C           -0.40780108        3.91232429        2.24634464
 C           -0.24080478        4.35174956        0.93774957
 C           -1.29143511        2.28096729        3.66731915
 C           -1.62840155        3.22607259        2.61835964
 C           -1.43778980       -0.13626209        3.96172013
 C           -2.08174257        1.15829304        3.83096646
 C           -1.91066215       -2.30119270        2.90988103
 C           -2.38134197       -1.13737371        3.50820812
 C           -2.27742037       -3.94749908        1.11952493
 C           -2.79591314       -3.02834167        2.11734996
 C           -2.60094173       -3.99337595       -1.30673367
 C           -3.15205095       -3.89423283       -0.03853826
 C           -1.78607522       -2.57791988       -2.99049719
 C           -1.55828707       -1.20949060       -3.10050522
 C           -2.99608790       -3.05488575       -2.34551780
 C           -2.63236750       -0.32416369       -3.00012311
 C           -1.09601441        1.52943344       -3.16598242
 C           -0.87377288        2.90136268       -3.10218706
 C           -2.39740860        1.04965035       -3.01108557
 C           -1.02524543        4.41856540       -1.34342302
 C           -1.26357267        4.14684873        0.00342246
 C           -1.80186160        3.73443005       -2.35662599
 C           -2.52283851        2.85695551        1.62188920
 C           -2.43161412        3.46506608        0.37040989
 C           -3.22983274        0.97912525        2.96151968
 C           -3.50820042       -0.44086407        2.90228950
 C           -3.33751572        1.73299609        1.80014128
 C           -3.94335127       -2.34492158        1.54170377
 C           -4.19072003       -2.91121498        0.22717546
 C           -4.08832965       -0.97595967        1.75836402
 C           -4.02274808       -2.15517930       -2.10923687
 C           -3.88340568       -0.79451809       -2.59470104
 C           -4.63971457       -2.08483815       -0.79140412
 C           -4.07651864        1.22765521        0.73171649
 C           -4.41269327       -0.13246350        0.68889809
 C           -4.71173874        0.03952137       -1.74495227
 C           -4.88898330       -0.68404663       -0.50031516
 C           -3.39429309        1.91177966       -2.55202091
 C           -3.02326938        3.19837654       -2.00110082
 C           -3.39094088        3.17110005       -0.59456585
 C           -4.43906219        1.39209586       -1.69392881
 C           -4.25799815        2.02126466       -0.39701512




