%chk=000122.chk
%mem=8GB
%Nproc=16
#p B3LYP/6-31G* opt pop=NPA

Template file

0 1
 C            4.79419601        1.04555246        1.41389087
 C            3.96135962        2.20972822        1.66185290
 C            3.12441687        1.92693079        2.81752037
 C            4.40610770        0.01296082        2.36190991
 C            3.31948399        0.53490389        3.17211471
 C            4.37444076       -1.31526744        1.96542224
 C            4.69063194       -1.67188934        0.59131593
 C            5.10869127        0.70476823        0.10646611
 C            5.06676868       -0.68913484       -0.31127265
 C            4.56823791        1.50581231       -0.97721187
 C            3.41460813        2.92221802        0.59650296
 C            3.56753332        2.43910472       -0.70773143
 C            2.38179716        3.80819294        0.87981136
 C            1.84622354        2.47784101        2.86329463
 C            1.61949070        3.61719067        2.10436268
 C            0.76136322        1.67662816        3.24213268
 C            2.20394646       -0.24928246        3.42451956
 C            0.99824044        0.38235649        3.71734549
 C            3.27515264       -2.15884964        2.40056495
 C            2.21621569       -1.61527194        3.12152001
 C            3.74907358       -2.69364978        0.17077792
 C            2.97144117       -3.08669193        1.32900419
 C            3.10638948       -2.58608507       -1.05540746
 C            4.53527982       -0.72950645       -1.66246716
 C            4.45493941        0.63964778       -2.13695252
 C            3.51512928       -1.62296001       -1.98676124
 C            3.52866611        0.95035962       -3.11587927
 C            2.60023178        2.72027598       -1.68129331
 C            2.65429626        2.09201300       -2.91950848
 C            1.44400764        4.16192843       -0.16648568
 C            1.45219858        3.43232269       -1.34120338
 C            0.26476862        4.05298832        1.85494087
 C            0.17922025        4.47451291        0.46521114
 C           -0.55593627        2.11139584        3.01620508
 C           -0.79734296        3.34749050        2.40214629
 C           -1.62958348        1.25359112        3.28137875
 C           -0.05644578       -0.38709584        4.18308651
 C           -1.41392609        0.06718208        3.96561065
 C            1.02383560       -2.33555891        3.18677751
 C           -0.02056140       -1.81709630        3.94533825
 C            1.64916551       -3.47389483        1.15630200
 C            0.76865732       -3.31690424        2.22268665
 C            1.90682947       -3.26772960       -1.24111012
 C            1.13687649       -3.63949964       -0.13447322
 C            1.34984598       -3.29775734       -2.50710469
 C            2.74762555       -1.38853291       -3.13194114
 C            2.73048922       -0.11551277       -3.69761728
 C            1.71092359       -2.25814344       -3.44984397
 C            1.41299112        1.82333351       -3.61837142
 C            1.45764809        0.45689797       -4.10686986
 C            0.24744152        3.17242251       -2.00097708
 C            0.22468701        2.29589796       -3.08809630
 C           -1.00655328        4.24763255       -0.22114853
 C           -0.96143836        3.66394667       -1.49223067
 C           -2.06410598        3.62565934        1.89603859
 C           -2.16711277        4.14551834        0.54138696
 C           -2.83348380        1.42201940        2.60300379
 C           -3.13673227        2.67047836        2.08112646
 C           -3.58474665        0.30303781        2.23059673
 C           -2.22429075       -1.08780656        3.62358220
 C           -1.38177197       -2.26590567        3.71579548
 C           -3.14935400       -0.97018638        2.59046499
 C           -0.48724540       -3.90131141        2.13310666
 C           -1.60797454       -3.32444586        2.85563279
 C           -0.19334539       -4.04795025       -0.30127693
 C           -0.96621294       -4.31999354        0.82754724
 C           -0.06616737       -3.55794530       -2.65566989
 C           -0.81354671       -3.94532817       -1.55121388
 C            0.47740168       -1.71063412       -3.99499023
 C            0.31192025       -0.33367163       -4.04075504
 C           -0.61346228       -2.54676328       -3.54745014
 C           -0.94504041        1.61089121       -3.38285267
 C           -0.89200231        0.23418898       -3.60760972
 C           -2.15092945        3.32098956       -2.13667903
 C           -2.15139054        2.21382986       -3.07766985
 C           -3.38907887        3.63002309       -0.04791013
 C           -4.03191812        2.78078986        0.94265635
 C           -3.39148301        3.26057719       -1.38455210
 C           -4.59214080        0.42406572        1.28303771
 C           -4.74267432        1.66194329        0.53734510
 C           -4.81750930       -0.67361611        0.36674805
 C           -3.41332478       -2.06129177        1.75157746
 C           -2.73445051       -3.26416469        1.94302853
 C           -2.39887700       -4.08350846        0.79318797
 C           -4.17932128       -1.88862113        0.59293743
 C           -2.19477023       -3.78096022       -1.62550756
 C           -3.00345990       -3.80887365       -0.41984040
 C           -3.96011777       -2.71863433       -0.50509478
 C           -1.83831252       -1.97436592       -3.23372765
 C           -1.96258029       -0.58158503       -3.20554572
 C           -2.72775904       -2.74924014       -2.50192750
 C           -3.84084930       -2.11891231       -1.82506178
 C           -3.30293970        1.38161729       -2.79698703
 C           -4.11341630        2.07036315       -1.80695991
 C           -4.81848111        1.32289920       -0.87546180
 C           -4.80945655       -0.12442112       -0.98026193
 C           -3.14042444        0.00146240       -2.71825063
 C           -4.03683811       -0.75193048       -1.95359868




