%chk=000095.chk
%mem=8GB
%Nproc=16
#p B3LYP/6-31G* opt pop=NPA

Template file

0 1
 C            4.87376009       -1.30983657        1.02909119
 C            4.18013142       -2.49792324        0.56166770
 C            3.30752718       -2.94920156        1.63362733
 C            4.30921733       -0.95153605        2.32191573
 C            3.22400749       -1.87615376        2.60241676
 C            4.15872075        0.38257893        2.66567049
 C            4.57747607        1.42381934        1.73947777
 C            5.20390119       -0.31797902        0.11710077
 C            5.05673319        1.08320785        0.48288471
 C            4.77352193       -0.46201140       -1.26206824
 C            3.72641120       -2.57356479       -0.75468513
 C            3.86489574       -1.46606105       -1.59614010
 C            2.78624642       -3.55108226       -1.06335128
 C            2.15208543       -3.63970573        1.30090800
 C            2.06522753       -4.18896132        0.02458362
 C            0.97768461       -3.37662058        2.00729320
 C            1.97005027       -1.38806697        2.95830429
 C            0.83939548       -2.16775803        2.69894480
 C            2.91551074        0.81162180        3.28102781
 C            1.81886008       -0.04039724        3.29166131
 C            3.63983324        2.52666939        1.86473595
 C            2.71317771        2.20401924        2.93815807
 C            3.15156642        3.16592117        0.72645083
 C            4.54993070        1.79274911       -0.67847207
 C            4.60301995        0.87494875       -1.80305519
 C            3.46089694        2.65265414       -0.53698688
 C            3.73069177        1.06174060       -2.85909669
 C            2.94674687       -1.25283706       -2.63041309
 C            3.00347188       -0.08268458       -3.37525757
 C            1.83335937       -3.30853061       -2.13108364
 C            1.82458474       -2.06837250       -2.74620628
 C            0.77420454       -4.60525513       -0.49036772
 C            0.57265802       -3.92000190       -1.75557433
 C           -0.14905457       -4.13497338        1.71924032
 C           -0.29069594       -4.70206506        0.38726886
 C           -1.45704011       -3.66369072        2.13434288
 C           -0.43108903       -1.65901381        2.99351741
 C           -1.58066225       -2.41103993        2.72414148
 C            0.54288640        0.50255056        3.37707359
 C           -0.54532897       -0.35523841        3.47399596
 C            1.41935599        2.70589237        2.86773340
 C            0.33964478        1.87354875        3.17061271
 C            2.03610827        3.98277659        0.87495245
 C            1.20202179        3.80799513        2.05313991
 C            1.15224961        4.18849931       -0.25657742
 C            2.56253445        2.81137664       -1.59881083
 C            2.79797161        2.17185273       -2.80632538
 C            1.32380828        3.40784148       -1.38403567
 C            1.78875347        0.41840371       -3.98755699
 C            1.66844837        1.82782827       -3.64495222
 C            0.61896347       -1.53329666       -3.20875548
 C            0.63807729       -0.36242576       -3.97577154
 C           -0.61161487       -3.22310860       -1.97586842
 C           -0.59955444       -2.08231542       -2.77789908
 C           -1.61054511       -4.33738790       -0.08419788
 C           -2.39755631       -4.05087547        1.09797394
 C           -1.73787515       -3.51271211       -1.20228851
 C           -3.55743608       -3.31490117        0.94759318
 C           -2.83881851       -1.80285650        2.75469200
 C           -3.83760920       -2.24498050        1.88942854
 C           -1.79517686        0.17321801        3.75348563
 C           -2.97848243       -0.54691859        3.32973427
 C           -0.96300011        2.37262997        3.07072879
 C           -2.02077250        1.58859407        3.52440391
 C           -0.15319302        4.16588956        1.69123593
 C           -0.18185068        4.40835756        0.25683465
 C           -1.22023028        3.49098446        2.27020214
 C           -1.28196635        3.96824531       -0.46853707
 C            0.21101171        3.00943299       -2.13368635
 C            0.40518595        2.32633148       -3.34127138
 C           -1.08719497        3.20929153       -1.62913541
 C           -0.55664771        0.28153614       -4.26666242
 C           -0.67270929        1.69741082       -3.94765609
 C           -1.80470256       -1.44611317       -3.06953622
 C           -1.81104294       -0.34802209       -3.92017101
 C           -2.89528265       -2.74687574       -1.35125449
 C           -3.88884816       -2.81214675       -0.37222974
 C           -2.94232275       -1.73889949       -2.31565356
 C           -4.66356965       -1.26269612        1.20246401
 C           -4.78724626       -1.68824318       -0.18142758
 C           -3.88598025        0.41083214        2.71794374
 C           -3.33916795        1.73761042        2.93129035
 C           -4.50138230        0.08663263        1.50974615
 C           -2.45750620        3.62065816        1.64724809
 C           -2.48821034        3.86873784        0.21481952
 C           -3.54093169        2.71188719        1.97258225
 C           -4.64336567        1.05665084        0.50870462
 C           -3.57239626        3.09358505       -0.34755132
 C           -4.21602078        2.36375513        0.73529510
 C           -2.18793004        2.60726825       -2.25417030
 C           -2.01122802        1.92904961       -3.45282002
 C           -2.77124807        0.71753801       -3.70170238
 C           -3.39876890        2.46503699       -1.57075740
 C           -4.03354185       -0.86966840       -2.34887214
 C           -4.87613223       -0.73363390       -1.17504301
 C           -4.88814516        0.67115333       -0.80840536
 C           -3.87882877        0.45654429       -2.91764731
 C           -4.25262356        1.41128255       -1.88835792




