%chk=000192.chk
%mem=8GB
%Nproc=16
#p B3LYP/6-31G* opt pop=NPA

Template file

0 1
 C            0.12230404       -4.80359536        0.75621617
 C            1.36115060       -4.41908327        1.40955227
 C            1.00804560       -3.59702963        2.55795404
 C           -0.95547928       -4.51784280        1.68723327
 C           -0.43200357       -3.59200304        2.67652380
 C           -2.22872394       -4.30372798        1.18875789
 C           -2.40755536       -4.22805554       -0.24893202
 C           -0.04578540       -4.53599800       -0.59975295
 C           -1.28699616       -4.08978946       -1.06598530
 C            1.08564659       -4.34295184       -1.38536189
 C            2.46392186       -4.05788236        0.63997271
 C            2.38050727       -4.14489061       -0.74763845
 C            3.41865600       -3.22364025        1.21381333
 C            1.72143462       -2.43016674        2.78241018
 C            3.04375937       -2.42482546        2.37029455
 C            1.03583334       -1.21497237        2.90862746
 C           -1.09446457       -2.39299599        2.89486786
 C           -0.35931438       -1.20640498        3.02711883
 C           -3.04374765       -3.25531437        1.77784469
 C           -2.46844044       -2.34222485        2.65839827
 C           -3.59073256       -3.42207648       -0.49719421
 C           -3.94483558       -2.76259488        0.74836883
 C           -3.68865616       -2.71778866       -1.68166774
 C           -1.34396095       -3.25493382       -2.18691115
 C           -2.54875113       -2.69152677       -2.58234117
 C            1.00462910       -3.43844900       -2.51601779
 C           -0.16859594       -2.73391960       -2.71169754
 C            3.14761546       -3.23098729       -1.58129095
 C            2.27282815       -2.75523025       -2.64153813
 C            4.27819524       -2.40712291        0.37011240
 C            4.04575890       -2.34130244       -0.99922199
 C            3.76349819       -1.17770034        2.30557531
 C            4.59295078       -1.19474833        1.11053510
 C            1.73713901        0.00000000        2.85485567
 C            3.12439829        0.00000000        2.65535466
 C            1.03583334        1.21497237        2.90862746
 C           -1.02578641       -0.00000000        3.23855954
 C           -0.35931438        1.20640498        3.02711883
 C           -3.15398700       -1.16570194        2.91211972
 C           -2.41117381       -0.00000000        3.34399115
 C           -4.29435328       -1.41298807        0.75732513
 C           -4.15628647       -0.72276443        1.95442771
 C           -4.25204648       -1.38245273       -1.65796388
 C           -4.36723990       -0.70101099       -0.44541266
 C           -2.52262805       -1.38965917       -3.22482368
 C           -3.72863062       -0.68991092       -2.82022147
 C           -0.11999954       -1.39079521       -3.09288625
 C           -1.31299382       -0.69800895       -3.30726052
 C            2.29841546       -1.40883463       -2.97825187
 C            1.09561840       -0.70012307       -3.07729445
 C            4.36387891       -1.17433862       -1.68791504
 C            3.48131366       -0.72226070       -2.75253378
 C            4.81448795        0.00000000        0.43129497
 C            4.82142837        0.00000000       -0.95992528
 C            3.76349819        1.17770034        2.30557531
 C            4.59295078        1.19474833        1.11053510
 C            1.72143462        2.43016674        2.78241018
 C            3.04375937        2.42482546        2.37029455
 C            1.00804560        3.59702963        2.55795404
 C           -1.09446457        2.39299599        2.89486786
 C           -0.43200357        3.59200304        2.67652380
 C           -3.15398700        1.16570194        2.91211972
 C           -4.15628647        0.72276443        1.95442771
 C           -2.46844044        2.34222485        2.65839827
 C           -4.36723990        0.70101099       -0.44541266
 C           -4.29435328        1.41298807        0.75732513
 C           -3.72863062        0.68991092       -2.82022147
 C           -4.25204648        1.38245273       -1.65796388
 C           -1.31299382        0.69800895       -3.30726052
 C           -2.52262805        1.38965917       -3.22482368
 C            1.09561840        0.70012307       -3.07729445
 C           -0.11999954        1.39079521       -3.09288625
 C            3.48131366        0.72226070       -2.75253378
 C            4.36387891        1.17433862       -1.68791504
 C            2.29841546        1.40883463       -2.97825187
 C            4.27819524        2.40712291        0.37011240
 C            3.41865600        3.22364025        1.21381333
 C            4.04575890        2.34130244       -0.99922199
 C            1.36115060        4.41908327        1.40955227
 C            2.46392186        4.05788236        0.63997271
 C           -0.95547928        4.51784280        1.68723327
 C            0.12230404        4.80359536        0.75621617
 C           -3.04374765        3.25531437        1.77784469
 C           -3.94483558        2.76259488        0.74836883
 C           -2.22872394        4.30372798        1.18875789
 C           -3.68865616        2.71778866       -1.68166774
 C           -2.54875113        2.69152677       -2.58234117
 C           -3.59073256        3.42207648       -0.49719421
 C           -2.40755536        4.22805554       -0.24893202
 C           -0.16859594        2.73391960       -2.71169754
 C           -0.04578540        4.53599800       -0.59975295
 C           -1.34396095        3.25493382       -2.18691115
 C           -1.28699616        4.08978946       -1.06598530
 C            2.27282815        2.75523025       -2.64153813
 C            3.14761546        3.23098729       -1.58129095
 C            2.38050727        4.14489061       -0.74763845
 C            1.00462910        3.43844900       -2.51601779
 C            1.08564659        4.34295184       -1.38536189




