%chk=000230.chk
%mem=8GB
%Nproc=16
#p B3LYP/6-31G* opt pop=NPA

Template file

0 1
 C            1.24914314       -4.06653261        1.94263690
 C           -0.10036055       -4.43419672        1.54917277
 C           -0.12260785       -4.51624188        0.09485309
 C            2.09383022       -4.19541213        0.77066746
 C            1.21753570       -4.25290765       -0.38635839
 C            3.24392647       -3.43256404        0.69194802
 C            3.46993301       -2.40155476        1.69269088
 C            1.43270363       -2.99792377        2.81332040
 C            2.43901197       -2.06244656        2.56049733
 C            0.39798831       -2.67375092        3.67522679
 C           -1.18744046       -3.87303268        2.21802146
 C           -0.95914114       -3.08278082        3.34450602
 C           -2.39568203       -3.74173689        1.53771147
 C           -1.21120187       -3.99565605       -0.58970023
 C           -2.41534730       -3.90699920        0.09305136
 C           -1.00621373       -3.19334874       -1.71602599
 C            1.39975381       -3.34997401       -1.42653402
 C            0.29644772       -2.89845402       -2.14879318
 C            3.60726091       -2.86235533       -0.58925074
 C            2.63330566       -2.71510073       -1.57779550
 C            4.24814614       -1.35077618        1.06557690
 C            4.50370093       -1.76086217       -0.30576004
 C            3.94021731       -0.02172742        1.33090808
 C            2.28012259       -0.73080744        2.96413418
 C            3.01838953        0.28984148        2.33878305
 C            0.33751739       -1.34466638        4.24413792
 C            1.32653705       -0.41787898        3.93970881
 C           -1.83986425       -1.95656727        3.61952328
 C           -1.05094395       -0.91067620        4.22871165
 C           -3.28023513       -2.63334307        1.86254652
 C           -2.82163903       -1.62683423        2.69930949
 C           -3.47505000       -3.07336044       -0.43403049
 C           -4.01498428       -2.28758142        0.66505444
 C           -2.10738482       -2.61375465       -2.35653725
 C           -3.31738613       -2.46672911       -1.67253988
 C           -1.92693212       -1.95228488       -3.56588559
 C            0.50268790       -2.07089854       -3.25151354
 C           -0.57983448       -1.68712195       -4.03624322
 C            2.78759666       -1.72462705       -2.54904007
 C            1.72910247       -1.42206822       -3.40784931
 C            4.67443813       -0.78821306       -1.27272376
 C            3.89432597       -0.87513045       -2.49497565
 C            4.35807244        0.96365941        0.43175567
 C            4.69335307        0.60705160       -0.87205605
 C            4.01498428        2.28758142        0.66505444
 C            2.82163903        1.62683423        2.69930949
 C            3.28023513        2.63334307        1.86254652
 C            1.05094395        0.91067620        4.22871165
 C            1.83986425        1.95656727        3.61952328
 C           -1.32653705        0.41787898        3.93970881
 C           -0.33751739        1.34466638        4.24413792
 C           -3.01838953       -0.28984148        2.33878305
 C           -2.28012259        0.73080744        2.96413418
 C           -4.35807244       -0.96365941        0.43175567
 C           -3.94021731        0.02172742        1.33090808
 C           -4.14854555       -1.38982359       -1.97008794
 C           -4.69335307       -0.60705160       -0.87205605
 C           -2.72790254       -0.77471937       -3.85964931
 C           -3.79445066       -0.46914030       -3.03550835
 C           -0.58558714       -0.36596601       -4.64306045
 C           -1.80534366        0.28480143       -4.21253500
 C            1.80534366       -0.28480143       -4.21253500
 C            0.58558714        0.36596601       -4.64306045
 C            3.79445066        0.46914030       -3.03550835
 C            4.14854555        1.38982359       -1.97008794
 C            2.72790254        0.77471937       -3.85964931
 C            3.47505000        3.07336044       -0.43403049
 C            3.31738613        2.46672911       -1.67253988
 C            2.39568203        3.74173689        1.53771147
 C            2.41534730        3.90699920        0.09305136
 C            0.95914114        3.08278082        3.34450602
 C           -0.39798831        2.67375092        3.67522679
 C            1.18744046        3.87303268        2.21802146
 C           -2.43901197        2.06244656        2.56049733
 C           -1.43270363        2.99792377        2.81332040
 C           -4.24814614        1.35077618        1.06557690
 C           -3.46993301        2.40155476        1.69269088
 C           -4.67443813        0.78821306       -1.27272376
 C           -3.89432597        0.87513045       -2.49497565
 C           -4.50370093        1.76086217       -0.30576004
 C           -1.72910247        1.42206822       -3.40784931
 C           -2.78759666        1.72462705       -2.54904007
 C            0.57983448        1.68712195       -4.03624322
 C            1.92693212        1.95228488       -3.56588559
 C            2.10738482        2.61375465       -2.35653725
 C           -0.50268790        2.07089854       -3.25151354
 C            1.21120187        3.99565605       -0.58970023
 C            1.00621373        3.19334874       -1.71602599
 C           -0.29644772        2.89845402       -2.14879318
 C            0.10036055        4.43419672        1.54917277
 C           -1.24914314        4.06653261        1.94263690
 C            0.12260785        4.51624188        0.09485309
 C           -3.24392647        3.43256404        0.69194802
 C           -3.60726091        2.86235533       -0.58925074
 C           -2.63330566        2.71510073       -1.57779550
 C           -1.39975381        3.34997401       -1.42653402
 C           -2.09383022        4.19541213        0.77066746
 C           -1.21753570        4.25290765       -0.38635839




