%chk=000061.chk
%mem=8GB
%Nproc=16
#p B3LYP/6-31G* opt pop=NPA

Template file

0 1
 C            4.97170278        1.45662759        0.52580072
 C            5.04138448        0.63495004       -0.67217188
 C            4.71360846       -0.73143499       -0.30004244
 C            4.75062332        0.57215802        1.65777206
 C            4.54548231       -0.76948023        1.14145430
 C            3.99333608        1.00392415        2.73683526
 C            3.33313821        2.29936783        2.69029420
 C            4.34158911        2.69555896        0.48112995
 C            3.47253484        3.10756545        1.57251778
 C            3.74692890        3.16276478       -0.76125157
 C            4.57554288        1.13379037       -1.87959604
 C            3.88292458        2.41282437       -1.91952088
 C            3.89686335        0.23778569       -2.79768229
 C            3.85548386       -1.47940637       -1.10633107
 C            3.63753984       -1.07907283       -2.42804827
 C            3.02386091       -2.44077375       -0.51472229
 C            3.54306584       -1.56990245        1.67053694
 C            3.01488680       -2.58212258        0.87593973
 C            3.08884348        0.07140369        3.38552965
 C            2.87228107       -1.18835736        2.83800741
 C            2.02176071        2.15095387        3.29757472
 C            1.94424850        0.82030607        3.86609376
 C            0.89698410        2.67194674        2.66756950
 C            2.29229229        3.72587077        0.99544081
 C            2.45584013        3.74781558       -0.44552074
 C            1.03181413        3.44485434        1.51300136
 C            1.34886948        3.46976302       -1.24142034
 C            2.74249824        2.27396209       -2.80911407
 C            2.85191405        0.99090367       -3.47257628
 C            1.48877989        2.71166365       -2.40417385
 C            1.69562190        0.32078773       -3.85892997
 C            2.75103946       -1.79700856       -3.21775186
 C            1.76727100       -1.06298338       -4.00028525
 C            2.16806915       -3.21554328       -1.30671074
 C            2.09505470       -2.96721447       -2.67219617
 C            1.20589276       -4.03772842       -0.71291744
 C            2.18989572       -3.52342832        1.47056317
 C            1.23830655       -4.25230790        0.65778070
 C            1.73625086       -1.89545195        3.23213024
 C            1.54001554       -3.17438387        2.71944277
 C            0.71159564        0.18411328        3.90764211
 C            0.66892276       -1.20542286        3.81764765
 C           -0.35566187        2.14892476        2.98664930
 C           -0.44792532        0.92093313        3.65595599
 C           -1.48877989        2.71166365        2.40417385
 C           -0.07914341        3.62701051        0.69481406
 C            0.07914341        3.62701051       -0.69481406
 C           -1.34886948        3.46976302        1.24142034
 C           -1.03181413        3.44485434       -1.51300136
 C            0.35566187        2.14892476       -2.98664930
 C            0.44792532        0.92093313       -3.65595599
 C           -0.89698410        2.67194674       -2.66756950
 C           -0.71159564        0.18411328       -3.90764211
 C            0.54593617       -1.84707709       -4.02394053
 C            0.82135217       -3.10553757       -3.35507390
 C           -0.66892276       -1.20542286       -3.81764765
 C            0.01800557       -4.31146888       -1.38819259
 C           -0.21168560       -3.76242305       -2.71218951
 C           -1.23830655       -4.25230790       -0.65778070
 C           -0.01800557       -4.31146888        1.38819259
 C            0.21168560       -3.76242305        2.71218951
 C           -1.20589276       -4.03772842        0.71291744
 C           -0.54593617       -1.84707709        4.02394053
 C           -0.82135217       -3.10553757        3.35507390
 C           -1.69562190        0.32078773        3.85892997
 C           -1.76727100       -1.06298338        4.00028525
 C           -2.74249824        2.27396209        2.80911407
 C           -2.85191405        0.99090367        3.47257628
 C           -3.88292458        2.41282437        1.91952088
 C           -2.45584013        3.74781558        0.44552074
 C           -2.29229229        3.72587077       -0.99544081
 C           -3.74692890        3.16276478        0.76125157
 C           -3.47253484        3.10756545       -1.57251778
 C           -4.34158911        2.69555896       -0.48112995
 C           -2.02176071        2.15095387       -3.29757472
 C           -1.94424850        0.82030607       -3.86609376
 C           -3.33313821        2.29936783       -2.69029420
 C           -3.08884348        0.07140369       -3.38552965
 C           -3.99333608        1.00392415       -2.73683526
 C           -1.73625086       -1.89545195       -3.23213024
 C           -1.54001554       -3.17438387       -2.71944277
 C           -2.18989572       -3.52342832       -1.47056317
 C           -2.87228107       -1.18835736       -2.83800741
 C           -3.01488680       -2.58212258       -0.87593973
 C           -3.54306584       -1.56990245       -1.67053694
 C           -2.16806915       -3.21554328        1.30671074
 C           -2.09505470       -2.96721447        2.67219617
 C           -2.75103946       -1.79700856        3.21775186
 C           -3.02386091       -2.44077375        0.51472229
 C           -3.89686335        0.23778569        2.79768229
 C           -4.57554288        1.13379037        1.87959604
 C           -3.63753984       -1.07907283        2.42804827
 C           -3.85548386       -1.47940637        1.10633107
 C           -4.97170278        1.45662759       -0.52580072
 C           -4.75062332        0.57215802       -1.65777206
 C           -4.54548231       -0.76948023       -1.14145430
 C           -5.04138448        0.63495004        0.67217188
 C           -4.71360846       -0.73143499        0.30004244




