%chk=000004.chk
%mem=8GB
%Nproc=32
#p B3LYP/6-31G* opt pop=NPA

Template file

0 1
 C            3.85331707       -0.98813624        0.80885225
 C            4.20019609        0.29924958        0.23600362
 C            3.87317872        0.25687628       -1.18004294
 C            3.24004841       -1.79004227       -0.23723407
 C            3.19637917       -1.00171460       -1.44585455
 C            1.98464242       -2.28425952        0.28083912
 C            2.84342025       -0.76569748        1.83229421
 C            1.77799035       -1.71282984        1.60257477
 C            3.34721478        1.29965877        0.85423859
 C            2.49866237        0.63706227        1.83647345
 C            2.92542952        1.32441780       -1.44523391
 C            2.70996371        2.05705733       -0.20955163
 C            1.89316266       -0.70047830       -2.01693945
 C            1.76967570        0.74273422       -2.11036704
 C            0.87369431       -2.34676662       -0.55339662
 C            0.76989927       -1.42396448       -1.61396015
 C           -0.29822338       -2.73366684        0.08374139
 C            0.47308473       -1.35464335        1.93255484
 C           -0.52210827       -2.18124889        1.41079593
 C            1.15117944        0.98787658        1.88965242
 C            0.17928673        0.00411065        2.14977929
 C            1.43683542        2.55125308        0.02644212
 C            0.76864541        2.17079784        1.25825650
 C            0.51769494        1.30344289       -1.87695555
 C            0.43070290        2.39309533       -1.00750193
 C           -0.48721459       -0.88949700       -1.92840429
 C           -0.61582477        0.50576661       -2.05625386
 C           -1.54401752       -2.65058311       -0.64340133
 C           -1.61011580       -1.69082701       -1.71788111
 C           -1.91624318       -1.79404810        1.50341254
 C           -2.58164772       -2.29916922        0.30938448
 C           -1.15560690        0.40263686        2.28825232
 C           -2.23040157       -0.53782439        2.00545954
 C           -0.64168252        2.45539170        1.06744234
 C           -0.84105961        2.67919789       -0.36469746
 C           -1.56681005        1.70265010        1.77747490
 C           -1.86410076        1.11865825       -1.91961296
 C           -1.99825813        2.20936962       -0.96939999
 C           -2.93845107       -1.10776877       -1.67802759
 C           -3.53504855       -1.46179497       -0.39523667
 C           -3.07071821        0.31893177       -1.84953943
 C           -3.35517036        0.20994354        1.45978605
 C           -2.91827451        1.58066101        1.25685197
 C           -3.14960534        1.91941714       -0.13457667
 C           -3.99539367       -0.23934891        0.23349794
 C           -3.87832786        0.82405282       -0.74999138




