%chk=000097.chk
%mem=8GB
%Nproc=32
#p B3LYP/6-31G* opt pop=NPA

Template file

0 1
 C            3.35218981       -1.14616881        0.62352671
 C            3.49979478        0.23812383        1.03619014
 C            2.48196170        0.50622823        2.04448951
 C            2.41762752       -1.76858359        1.54417677
 C            1.69908284       -0.70132338        2.21722206
 C            1.65684587       -2.74245086        0.79244186
 C            2.89888753       -1.45495088       -0.72651987
 C            1.95575315       -2.55081753       -0.62171354
 C            2.64312041       -0.42925958       -1.63051335
 C            3.42298603        1.28416154        0.03377406
 C            3.05871448        0.93227075       -1.32715380
 C            1.79731583        1.72811321        1.67344080
 C            2.46938216        2.27396665        0.50301531
 C            0.40703346        1.77302632        1.71381675
 C            0.31175463       -0.62841125        2.09352851
 C           -0.31175463        0.62841125        2.09352851
 C            0.21407969       -2.73571187        0.92108092
 C           -0.40703346       -1.77302632        1.71381675
 C            0.68380701       -2.46989231       -1.32567632
 C           -0.31999620       -2.98165462       -0.40425570
 C            1.35588706       -0.36460092       -2.31134777
 C            0.38997848       -1.35164293       -2.10999887
 C            1.99506830        1.83002519       -1.74980148
 C            1.65876889        2.69311418       -0.63159912
 C            0.94315408        1.03106022       -2.35812358
 C           -0.21407969        2.73571187        0.92108092
 C            0.31999620        2.98165462       -0.40425570
 C           -1.65684587        2.74245086        0.79244186
 C           -1.69908284        0.70132338        2.21722206
 C           -2.41762752        1.76858359        1.54417677
 C           -1.79731583       -1.72811321        1.67344080
 C           -2.48196170       -0.50622823        2.04448951
 C           -1.65876889       -2.69311418       -0.63159912
 C           -2.46938216       -2.27396665        0.50301531
 C           -0.94315408       -1.03106022       -2.35812358
 C           -1.99506830       -1.83002519       -1.74980148
 C           -0.38997848        1.35164293       -2.10999887
 C           -0.68380701        2.46989231       -1.32567632
 C           -1.95575315        2.55081753       -0.62171354
 C           -1.35588706        0.36460092       -2.31134777
 C           -3.35218981        1.14616881        0.62352671
 C           -3.49979478       -0.23812383        1.03619014
 C           -3.42298603       -1.28416154        0.03377406
 C           -3.05871448       -0.93227075       -1.32715380
 C           -2.89888753        1.45495088       -0.72651987
 C           -2.64312041        0.42925958       -1.63051335




