%chk=000054.chk
%mem=8GB
%Nproc=32
#p B3LYP/6-31G* opt pop=NPA

Template file

0 1
 C            3.61768242       -1.25314405       -0.27979116
 C            3.55663193       -0.02524138       -1.05445971
 C            3.52947692        1.08298893       -0.11734630
 C            3.35556834       -0.90888557        1.10778361
 C            3.47304376        0.52789791        1.22864652
 C            2.11062106       -1.55141283        1.49886466
 C            2.54079174       -2.11581791       -0.73447484
 C            1.68488922       -2.40654813        0.40016023
 C            2.47774293       -0.16008045       -2.01869039
 C            1.94011732       -1.50949518       -1.90362943
 C            1.61205890        0.90921416       -2.23100689
 C            2.47739385        2.07987357       -0.22935302
 C            1.58975528        2.03388647       -1.29971662
 C            2.44676130        1.24212626        1.95926314
 C            1.95446124        2.30907439        1.10220673
 C            1.13988056       -0.85133696        2.22176492
 C            1.28592871        0.51821553        2.45752208
 C           -0.13958022       -1.39680045        2.28167778
 C            0.31904698       -2.57759054        0.19140570
 C           -0.51635980       -2.39009036        1.28821168
 C            0.58541502       -1.72599300       -2.12044209
 C           -0.19667935       -2.41689197       -1.10134742
 C            0.24193281        0.65186749       -2.64724921
 C           -0.24193281       -0.65186749       -2.64724921
 C            0.19667935        2.41689197       -1.10134742
 C           -0.58541502        1.72599300       -2.12044209
 C            0.51635980        2.39009036        1.28821168
 C            0.13958022        1.39680045        2.28167778
 C           -0.31904698        2.57759054        0.19140570
 C           -1.28592871       -0.51821553        2.45752208
 C           -1.13988056        0.85133696        2.22176492
 C           -1.95446124       -2.30907439        1.10220673
 C           -2.44676130       -1.24212626        1.95926314
 C           -1.58975528       -2.03388647       -1.29971662
 C           -1.61205890       -0.90921416       -2.23100689
 C           -2.47739385       -2.07987357       -0.22935302
 C           -1.94011732        1.50949518       -1.90362943
 C           -2.47774293        0.16008045       -2.01869039
 C           -1.68488922        2.40654813        0.40016023
 C           -2.11062106        1.55141283        1.49886466
 C           -2.54079174        2.11581791       -0.73447484
 C           -3.47304376       -0.52789791        1.22864652
 C           -3.52947692       -1.08298893       -0.11734630
 C           -3.55663193        0.02524138       -1.05445971
 C           -3.35556834        0.90888557        1.10778361
 C           -3.61768242        1.25314405       -0.27979116




