%chk=000030.chk
%mem=8GB
%Nproc=32
#p B3LYP/6-31G* opt pop=NPA

Template file

0 1
 C            3.78952919       -0.20651318       -0.77869701
 C            3.83941768        0.25750298        0.59680184
 C            3.11352178        1.51186278        0.66925735
 C            3.00415075        0.74621182       -1.54326997
 C            2.59129099        1.81826097       -0.65265619
 C            1.97949975        0.00782047       -2.25476680
 C            3.07490964       -1.47079075       -0.79431895
 C            1.96342329       -1.35034094       -1.72897018
 C            3.12271988       -0.70361497        1.41754275
 C            2.78677429       -1.84305282        0.58128208
 C            2.17035017        1.41271992        1.76759678
 C            2.04410264        0.00053861        2.09879895
 C            1.01882427        2.17313115        1.68974076
 C            1.29026618        2.31352005       -0.74624971
 C            0.69728142        2.80454111        0.41838911
 C            0.77384446        0.64148002       -2.49554222
 C            0.48247083        1.89593227       -1.81107297
 C           -0.44351846       -0.14495837       -2.48470270
 C            0.74680917       -1.95306775       -1.39865528
 C           -0.45252230       -1.40121932       -1.87814878
 C            1.59220105       -2.49878190        0.83257353
 C            0.72792329       -2.80407798       -0.29038425
 C            0.78041007       -0.59831556        2.14769891
 C            0.70233177       -1.95598154        1.84584768
 C           -0.22016206        1.59276930        2.15949740
 C           -0.37386876        0.20486941        2.10412801
 C           -0.72646469        3.09270950        0.44815359
 C           -1.26056256        2.46111087        1.64726570
 C           -0.96977009        2.01932210       -1.73852061
 C           -1.54313058        0.77809992       -2.25151019
 C           -1.55755252        2.67798032       -0.66387374
 C           -2.74563415        0.29127644       -1.74997007
 C           -1.67981705       -1.97208948       -1.53264945
 C           -2.86826857       -1.13177661       -1.47752514
 C           -0.53457608       -3.19769607        0.30059107
 C           -0.58891683       -2.56714727        1.61579001
 C           -1.75683492       -2.86413690       -0.39342703
 C           -1.63812101       -0.35721685        1.82793408
 C           -3.45103824       -1.28151719       -0.14922027
 C           -1.76892560       -1.73410863        1.64072626
 C           -2.62868447       -2.22815349        0.57669862
 C           -2.53774444        1.88420301        1.30734248
 C           -2.79605297        2.17562712       -0.09625408
 C           -3.41897930        0.99750390       -0.67371773
 C           -2.72235521        0.45955934        1.48261992
 C           -3.60855167        0.04600419        0.40782646




