%chk=000078.chk
%mem=8GB
%Nproc=32
#p B3LYP/6-31G* opt pop=NPA

Template file

0 1
 C            3.70681475       -0.86096667        0.34444220
 C            3.53553610       -0.07519091       -0.86467357
 C            3.43409182        1.30823830       -0.45173045
 C            3.22885189       -0.04957791        1.45192093
 C            3.16795244        1.31523033        0.98317073
 C            2.01476574       -0.66599576        1.95751293
 C            2.83221024       -2.01364732        0.24170008
 C            1.95804125       -2.00881350        1.40180355
 C            2.44128987       -0.66698423       -1.62250064
 C            2.22040841       -1.99600121       -1.07709214
 C            1.34323949        0.11595657       -1.99268376
 C            2.42892435        2.13880890       -1.08385812
 C            1.42202336        1.51075382       -1.92011338
 C            1.94481800        2.06213186        1.18867818
 C            1.71132838        2.82260690       -0.02425005
 C            0.83583088        0.07928516        2.05571560
 C            0.84671116        1.46725820        1.81144034
 C           -0.37974101       -0.60977669        2.18304483
 C            0.72028617       -2.62205430        1.27629135
 C           -0.45285565       -1.95390270        1.81494984
 C            0.96688918       -2.57394556       -1.21422724
 C            0.34513547       -3.14516050       -0.02916260
 C            0.10330523       -0.49220384       -2.21937426
 C           -0.07155130       -1.84700298       -1.92775663
 C           -1.01617265        0.30157384       -2.47099021
 C            0.20554214        2.28364790       -1.73483961
 C            0.33679489        2.99262669       -0.46683996
 C           -1.00731112        1.69670443       -2.06626254
 C           -0.36227645        2.15282477        1.71945124
 C           -0.66868972        2.86183022        0.48377260
 C           -1.56612033        0.08975708        2.38566499
 C           -1.57807557        1.51988410        2.18081083
 C           -2.80031960       -0.43801354        1.82466497
 C           -1.60504429       -2.42730416        1.05976479
 C           -1.09380376       -3.00692199       -0.16931953
 C           -1.35463859       -2.32215410       -1.42292065
 C           -2.73932262       -1.62775275        0.99318627
 C           -2.34382607       -0.22253646       -2.19258540
 C           -2.46838365       -1.49584085       -1.50685564
 C           -3.28103379       -1.28234561       -0.31535430
 C           -2.16655592        1.90431122       -1.21099709
 C           -1.99375804        2.44103641        0.06373082
 C           -2.62745510        1.82175006        1.21900142
 C           -3.42877864        0.62237842        1.05159708
 C           -3.06660968        0.77956660       -1.42307257
 C           -3.67846766        0.11593173       -0.28485521




