%chk=000065.chk
%mem=8GB
%Nproc=32
#p B3LYP/6-31G* opt pop=NPA

Template file

0 1
 C            3.26081120       -1.75380524       -0.39733535
 C            3.60568933       -0.40173933        0.00449748
 C            3.20023160       -0.23728736        1.38766316
 C            2.45670788       -2.33942603        0.66381883
 C            2.45943900       -1.42702756        1.78077762
 C            1.17817995       -2.71389958        0.09659161
 C            2.43004747       -1.66477087       -1.58629883
 C            1.18729904       -2.36100279       -1.31480467
 C            3.07333488        0.51342814       -0.99228522
 C            2.36698751       -0.27667279       -1.99328203
 C            2.54344824        1.73282344       -0.57810858
 C            2.40392780        0.92433683        1.74321603
 C            2.30414388        1.97558866        0.84156755
 C            1.18213883       -0.99797901        2.31404386
 C            1.20165074        0.45325623        2.41866845
 C            0.00000000       -2.50260398        0.81219987
 C            0.00000000       -1.62131366        1.91530073
 C           -1.17817995       -2.71389958        0.09659161
 C            0.00000000       -1.89443265       -1.87670250
 C           -1.18729904       -2.36100279       -1.31480467
 C            1.17617733        0.19640010       -2.53172818
 C            0.00000000       -0.66887644       -2.55942377
 C            1.43788712        2.32263241       -1.31484518
 C            0.72949887        1.54850662       -2.23005215
 C            1.16547674        2.86584608        0.94899879
 C            0.72558819        3.19477735       -0.39826855
 C           -0.00000000        1.15645221        2.28805656
 C           -0.00000000        2.42280394        1.69489989
 C           -1.18213883       -0.99797901        2.31404386
 C           -1.20165074        0.45325623        2.41866845
 C           -2.45670788       -2.33942603        0.66381883
 C           -2.45943900       -1.42702756        1.78077762
 C           -2.43004747       -1.66477087       -1.58629883
 C           -3.26081120       -1.75380524       -0.39733535
 C           -1.17617733        0.19640010       -2.53172818
 C           -0.72949887        1.54850662       -2.23005215
 C           -2.36698751       -0.27667279       -1.99328203
 C           -0.72558819        3.19477735       -0.39826855
 C           -1.16547674        2.86584608        0.94899879
 C           -1.43788712        2.32263241       -1.31484518
 C           -2.40392780        0.92433683        1.74321603
 C           -3.20023160       -0.23728736        1.38766316
 C           -3.60568933       -0.40173933        0.00449748
 C           -3.07333488        0.51342814       -0.99228522
 C           -2.30414388        1.97558866        0.84156755
 C           -2.54344824        1.73282344       -0.57810858




