%chk=000068.chk
%mem=8GB
%Nproc=32
#p B3LYP/6-31G* opt pop=NPA

Template file

0 1
 C            3.59491719       -0.61506763        0.76469498
 C            3.56470155        0.08703306       -0.50721571
 C            3.18503755        1.46029289       -0.23555017
 C            2.94622471        0.23411558        1.75015011
 C            2.80672917        1.54742193        1.17001849
 C            1.75064143       -0.44601026        2.20877621
 C            2.79518355       -1.81878589        0.62334648
 C            1.73328115       -1.77453856        1.61211926
 C            2.76353241       -0.69842044       -1.43109263
 C            2.42350567       -1.95196524       -0.77032326
 C            1.82128634       -0.06291332       -2.23698468
 C            2.11640967        2.06814486       -1.01223085
 C            1.51533386        1.35099582       -2.04296022
 C            1.50987135        2.19035020        1.22748421
 C            1.28054397        2.79545942       -0.07357026
 C            0.54476933        0.24759622        2.33288707
 C            0.43878957        1.57771653        1.88609203
 C           -0.60479647       -0.52059114        2.51175205
 C            0.50029167       -2.34321106        1.29891785
 C           -0.61435960       -1.88359472        2.00264907
 C            1.21396299       -2.57051167       -1.05663121
 C            0.34236208       -2.95250232        0.04612907
 C            0.58329745       -0.74732201       -2.57728845
 C            0.35838129       -2.03336676       -2.10377940
 C            0.09841730        1.54261366       -2.31439950
 C           -0.49646925        0.23154295       -2.54743821
 C           -0.02328258        3.11768354       -0.42424047
 C           -0.61500697        2.50509227       -1.60907069
 C           -0.81897118        2.16667767        1.73919456
 C           -1.02559458        3.08003162        0.62493892
 C           -1.92186308        0.05066387        2.29078205
 C           -2.02688681        1.37103593        1.88409188
 C           -1.96087692       -2.18349564        1.54576001
 C           -2.73977318       -0.95910933        1.62980977
 C           -0.97994838       -3.14635429       -0.52763030
 C           -1.00195482       -2.44257437       -1.80185893
 C           -2.14973885       -2.73913535        0.22331278
 C           -1.73184681       -0.09786579       -1.97911285
 C           -3.28540588       -0.68027599        0.30819612
 C           -2.04295831       -1.43275549       -1.72502793
 C           -2.86764020       -1.75573142       -0.57361812
 C           -2.01766746        2.26062902       -1.32853740
 C           -2.29813108        2.76334545        0.00557145
 C           -2.90104627        1.68381074        0.76513677
 C           -2.52240563        0.89961085       -1.40606099
 C           -3.24084694        0.62423460       -0.16718895




