%chk=000021.chk
%mem=8GB
%Nproc=32
#p B3LYP/6-31G* opt pop=NPA

Template file

0 1
 C            4.02803852       -0.75118282        0.16892431
 C            3.37759001       -1.87270253       -0.48193019
 C            2.65843886       -1.36234098       -1.63808293
 C            3.76867848        0.42915549       -0.63374818
 C            2.75881083        0.07893745       -1.62575247
 C            3.48540724        1.50022485        0.29847313
 C            3.36976449       -0.53852652        1.44884670
 C            3.12219607        0.87953608        1.56848221
 C            2.37958636       -2.39014978        0.43537821
 C            2.24157088       -1.44755757        1.52179678
 C            1.33639193       -1.94479693       -1.60776655
 C            1.19385303       -2.66120115       -0.34554802
 C            0.24761163       -1.18598933       -2.03425549
 C            1.58565904        0.83284811       -1.71229239
 C            0.37182883        0.21623220       -2.07214016
 C            2.42757421        2.42822266       -0.03931032
 C            1.56569526        2.11863919       -1.16549404
 C            1.78151044        1.32558296        1.89517752
 C            1.55415589        2.51938144        1.11760108
 C            0.95930421       -0.96442499        1.78458050
 C            0.73471581        0.40844875        1.99133979
 C           -0.04375678       -2.56477232        0.27856752
 C           -0.12839993       -1.77696950        1.44223714
 C           -1.00318508       -1.75155964       -1.78416941
 C           -1.12672289       -2.56883940       -0.59093137
 C           -2.20978771       -0.95600141       -1.89502533
 C           -0.77466853        1.01113168       -2.20645673
 C           -2.09883245        0.41146624       -2.10543373
 C            0.29227078        2.72417724       -0.84289502
 C            0.21453858        2.74013003        0.61336364
 C           -0.82836986        2.30764999       -1.54184505
 C           -0.57959145        0.89085299        1.93343700
 C           -0.85059517        2.07179175        1.21188974
 C           -1.38176714       -1.41186830        1.93515947
 C           -1.60615321       -0.00717409        2.22584794
 C           -2.46174908       -2.40889250       -0.06140309
 C           -3.17047485       -1.48321015       -0.93087426
 C           -2.58027543       -1.92526707        1.29343904
 C           -2.97759164        0.31239834        1.87398552
 C           -3.92199652       -0.57488647       -0.08231912
 C           -3.58467950       -0.87611378        1.30072146
 C           -2.95539372        1.33587988       -1.37599673
 C           -2.10302121        2.38203559       -0.85028084
 C           -2.08927150        2.24135430        0.59409754
 C           -3.76649094        0.85327733       -0.26993897
 C           -3.21241680        1.40507270        0.96054416




