%chk=000092.chk
%mem=8GB
%Nproc=32
#p B3LYP/6-31G* opt pop=NPA

Template file

0 1
 C            2.43675987       -2.64194848        0.00000000
 C            3.14192804       -1.37423015        0.00000000
 C            2.84302544       -0.69281519        1.24963863
 C            1.57665967       -2.66531946        1.16859986
 C            1.73330282       -1.39859420        1.86879351
 C            0.24732765       -3.05362063        0.72979972
 C            1.57665967       -2.66531946       -1.16859986
 C            0.24732765       -3.05362063       -0.72979972
 C            2.84302544       -0.69281519       -1.24963863
 C            1.73330282       -1.39859420       -1.86879351
 C            2.84302544        0.69281519       -1.24963863
 C            2.84302544        0.69281519        1.24963863
 C            3.14192804        1.37423015        0.00000000
 C            1.73330282        1.39859420        1.86879351
 C            0.58663244       -0.70275989        2.25499546
 C            0.58663244        0.70275989        2.25499546
 C           -0.84046139       -2.52302054        1.41185172
 C           -0.61399619       -1.41585568        2.32803641
 C           -2.07363357       -2.23830562        0.69520665
 C           -0.84046139       -2.52302054       -1.41185172
 C           -2.07363357       -2.23830562       -0.69520665
 C            0.58663244       -0.70275989       -2.25499546
 C           -0.61399619       -1.41585568       -2.32803641
 C            1.73330282        1.39859420       -1.86879351
 C            0.58663244        0.70275989       -2.25499546
 C            2.43675987        2.64194848        0.00000000
 C            1.57665967        2.66531946        1.16859986
 C            1.57665967        2.66531946       -1.16859986
 C            0.24732765        3.05362063        0.72979972
 C            0.24732765        3.05362063       -0.72979972
 C           -0.61399619        1.41585568        2.32803641
 C           -0.84046139        2.52302054        1.41185172
 C           -1.87651993       -0.72184135        2.48172216
 C           -2.75849627       -1.17414753        1.41537680
 C           -1.87651993        0.72184135        2.48172216
 C           -2.07363357        2.23830562        0.69520665
 C           -3.22636930        0.00000000        0.69538626
 C           -2.75849627        1.17414753        1.41537680
 C           -2.75849627       -1.17414753       -1.41537680
 C           -1.87651993       -0.72184135       -2.48172216
 C           -3.22636930        0.00000000       -0.69538626
 C           -0.61399619        1.41585568       -2.32803641
 C           -0.84046139        2.52302054       -1.41185172
 C           -2.07363357        2.23830562       -0.69520665
 C           -1.87651993        0.72184135       -2.48172216
 C           -2.75849627        1.17414753       -1.41537680




