%chk=000073.chk
%mem=8GB
%Nproc=32
#p B3LYP/6-31G* opt pop=NPA

Template file

0 1
 C            3.56844741       -0.93691325       -0.87572150
 C            3.61154478       -0.41732579        0.48029756
 C            3.53639219        1.02423015        0.38611632
 C            3.07273961        0.12862348       -1.73120853
 C            3.14060747        1.35723712       -0.97830392
 C            1.78789304       -0.28636602       -2.25582655
 C            2.59507459       -2.01539573       -0.90173395
 C            1.56615207       -1.67033399       -1.86194264
 C            2.60729139       -1.13038184        1.25562258
 C            2.18615516       -2.27812820        0.45971505
 C            1.66131799       -0.42829929        2.01539448
 C            2.64155808        1.72556858        1.28298322
 C            1.69262578        0.96587454        2.08080335
 C            1.95311091        2.18477254       -0.89610596
 C            1.86919576        2.64959450        0.47488842
 C            0.70054655        0.58948188       -2.24892617
 C            0.77007616        1.80498622       -1.54012921
 C           -0.54096202        0.03371721       -2.55720230
 C            0.25627156       -2.08175253       -1.62459284
 C           -0.75480165       -1.37744426       -2.27285115
 C            0.91668649       -2.79583840        0.66148520
 C           -0.03777066       -2.78358875       -0.44562062
 C            0.50359292       -1.08546438        2.42327300
 C            0.19898846       -2.38446974        1.85081052
 C           -0.74579577       -0.34167271        2.52803673
 C            0.43921035        1.70806936        2.07691120
 C            0.55278406        2.75950391        1.06939106
 C           -0.76952197        1.02058399        2.21927015
 C           -0.40639773        2.45549621       -1.15068496
 C           -0.51724539        2.96158457        0.21380570
 C           -1.76928096        0.74138030       -2.24839888
 C           -1.70482227        1.93030616       -1.53628210
 C           -2.13576739       -1.55095699       -1.86417981
 C           -2.78793960       -0.25300841       -1.93555865
 C           -1.37466664       -2.72558676        0.13929863
 C           -1.22077738       -2.42690315        1.55342480
 C           -1.82541551       -1.21953362        2.08727224
 C           -2.41288860       -2.12521292       -0.56257832
 C           -3.60465842       -0.10169584       -0.74445019
 C           -2.92662255       -0.68171810        1.43493025
 C           -3.31500520       -1.22041133        0.13840580
 C           -1.94097998        1.60014986        1.72661998
 C           -1.83700064        2.61962412        0.69900263
 C           -2.62657165        2.18029195       -0.43651161
 C           -3.07425776        0.75929581        1.37870637
 C           -3.49911302        1.11802954        0.03234464




