%chk=000067.chk
%mem=8GB
%Nproc=32
#p B3LYP/6-31G* opt pop=NPA

Template file

0 1
 C            3.59006724        0.10492805        0.99661219
 C            3.57103132        0.11785810       -0.45641261
 C            3.15639003       -1.19999669       -0.89902089
 C            2.93665417       -1.11726181        1.43475286
 C            2.77969074       -1.96828703        0.28108418
 C            1.74959191       -0.74817523        2.18045087
 C            2.78995646        1.22568081        1.45796091
 C            1.70468673        0.70522941        2.26956563
 C            2.80682756        1.27847089       -0.88201635
 C            2.45284485        2.04054721        0.30891255
 C            1.88621493        1.15158945       -1.91999164
 C            2.07316377       -1.31625003       -1.86250429
 C            1.51963187       -0.16868451       -2.42370773
 C            1.47429961       -2.54185738        0.02668360
 C            1.19647031       -2.37363555       -1.38980366
 C            0.55257992       -1.43901939        1.99140665
 C            0.43168094       -2.37412214        0.94163550
 C           -0.58501434       -0.85134313        2.54127091
 C            0.46316461        1.34065073        2.22156426
 C           -0.66569174        0.59992330        2.57934231
 C            1.25199509        2.73680787        0.34168073
 C            0.32372278        2.49092353        1.43804063
 C            0.69221981        1.98265536       -1.92883976
 C            0.45570683        2.85262547       -0.86820285
 C            0.10375172       -0.14410312       -2.76122604
 C           -0.39780173        1.19631341       -2.49664912
 C           -0.12722824       -2.41010305       -1.81071502
 C           -0.69531676       -1.25241983       -2.49027404
 C           -0.82665568       -2.83724154        0.54745369
 C           -1.12474349       -2.90032432       -0.87410660
 C           -1.90310112       -1.36770126        2.24008900
 C           -2.02770476       -2.37788455        1.21705198
 C           -1.99209964        0.98100336        2.10856703
 C           -2.74409393       -0.24158052        1.86596531
 C           -0.99173491        2.90620023        0.97998414
 C           -0.90850587        3.13595526       -0.45613289
 C           -2.13261673        2.04811970        1.23138577
 C           -1.70407410        1.37349800       -2.04819497
 C           -2.00201167        2.42135508       -1.08720869
 C           -2.81977437        1.84117946       -0.03435303
 C           -2.05413735       -1.06510999       -2.00070954
 C           -2.35638811       -2.16357486       -1.09991006
 C           -2.93912114       -1.87574958        0.19778287
 C           -3.26945350       -0.50251689        0.53562126
 C           -2.51657818        0.21553486       -1.70836267
 C           -3.17849585        0.48989283       -0.43652239




