%chk=000098.chk
%mem=8GB
%Nproc=32
#p B3LYP/6-31G* opt pop=NPA

Template file

0 1
 C            3.08040812       -1.67058478       -0.51371082
 C            3.53020779       -0.29814268       -0.66346096
 C            3.50647321        0.30600421        0.65876529
 C            2.74829130       -1.86567926        0.89022083
 C            2.68312872       -0.55130438        1.49546491
 C            1.57988843       -2.71251633        0.94930044
 C            1.94706422       -2.13848498       -1.29225192
 C            1.15011423       -2.97569305       -0.41786201
 C            1.30402988       -1.27392062       -2.17118400
 C            2.81015335        0.59409372       -1.55521283
 C            1.72682827        0.11892866       -2.28653204
 C            3.13070282        1.69553669        0.49616838
 C            2.69884555        1.87611778       -0.88419799
 C            2.09013816        2.22805075        1.35273054
 C            1.46397719       -0.07117902        1.98797784
 C            1.28142393        1.30712993        2.13305582
 C            0.41505573       -2.24302192        1.67231278
 C            0.37579197       -0.93988286        2.17469019
 C           -0.29926487       -2.85692376       -0.44238768
 C           -0.73215459       -2.75007934        0.94194563
 C           -0.14858789       -1.30920164       -2.29398976
 C           -0.92165281       -2.06624276       -1.40774571
 C            0.52783498        0.93621050       -2.41682553
 C           -0.58082285        0.02746076       -2.67903224
 C            1.41451098        2.55750376       -0.86045007
 C            1.17675541        2.97730721        0.50963096
 C            0.34361257        2.05572913       -1.59906448
 C           -0.06288157        1.85536487        2.15329875
 C           -0.15860820        2.81454002        1.05911757
 C           -0.86352650       -0.42028744        2.55410268
 C           -1.12499389        1.00232736        2.41280991
 C           -1.98450713       -2.21719979        1.21200945
 C           -2.07801119       -1.12766261        2.17012809
 C           -2.26663301       -1.74604256       -1.22948541
 C           -2.85470264       -1.89727076        0.09236767
 C           -1.87981202        0.43074306       -2.40538982
 C           -2.79723469       -0.52225118       -1.80686832
 C           -0.94730397        2.43084592       -1.22692494
 C           -1.22427720        2.72749737        0.17202427
 C           -2.09202131        1.71413322       -1.76318542
 C           -2.36840502        1.14962173        1.67070318
 C           -3.02334781       -0.15021753        1.65260050
 C           -3.56637148       -0.66990738        0.40966337
 C           -3.55630274        0.16829083       -0.77480212
 C           -2.40939258        1.97664160        0.54969641
 C           -3.04442081        1.52361754       -0.68022140




