%chk=000005.chk
%mem=8GB
%Nproc=32
#p B3LYP/6-31G* opt pop=NPA

Template file

0 1
 C            4.67933919       -0.61874468       -0.31657296
 C            4.25550724       -1.80630185        0.41061747
 C            3.51684833       -2.65462499       -0.50685090
 C            4.19785999       -0.73346069       -1.68456208
 C            3.43474150       -1.96403972       -1.78411499
 C            3.75098761        0.39277638       -2.36004914
 C            3.83009277        1.69906020       -1.72476420
 C            4.67933919        0.61874468        0.31657296
 C            4.25550724        1.80630185       -0.41061747
 C            4.19785999        0.73346069        1.68456208
 C            3.83009277       -1.69906020        1.72476420
 C            3.75098761       -0.39277638        2.36004914
 C            2.68546991       -2.47395245        2.16392799
 C            2.40922271       -3.37901542       -0.06742497
 C            2.01669669       -3.31745127        1.27770428
 C            1.51110923       -3.82366302       -1.03749132
 C            2.22826381       -1.98549858       -2.47816418
 C            1.40251666       -3.08251510       -2.28414093
 C            2.49493774        0.32495250       -3.08835378
 C            1.67704953       -0.78768767       -2.94194361
 C            2.68546991        2.47395245       -2.16392799
 C            1.90343422        1.64558774       -3.06985582
 C            2.01669669        3.31745127       -1.27770428
 C            3.51684833        2.65462499        0.50685090
 C            3.43474150        1.96403972        1.78411499
 C            2.40922271        3.37901542        0.06742497
 C            2.22826381        1.98549858        2.47816418
 C            2.49493774       -0.32495250        3.08835378
 C            1.90343422       -1.64558774        3.06985582
 C            1.67704953        0.78768767        2.94194361
 C            0.52158582       -1.78062494        3.06804572
 C            0.75374239       -3.76795236        1.65760709
 C            0.00008790       -2.99061167        2.62921839
 C            0.18129039       -4.26890932       -0.66537307
 C           -0.18129039       -4.26890932        0.66537307
 C           -0.00008790       -2.99061167       -2.62921839
 C           -0.75374239       -3.76795236       -1.65760709
 C            0.28845317       -0.64090787       -3.04015455
 C           -0.52158582       -1.78062494       -3.06804572
 C            0.52158582        1.78062494       -3.06804572
 C           -0.28845317        0.64090787       -3.04015455
 C            0.75374239        3.76795236       -1.65760709
 C            0.00008790        2.99061167       -2.62921839
 C           -0.18129039        4.26890932       -0.66537307
 C            1.51110923        3.82366302        1.03749132
 C            1.40251666        3.08251510        2.28414093
 C            0.18129039        4.26890932        0.66537307
 C           -0.00008790        2.99061167        2.62921839
 C           -0.75374239        3.76795236        1.65760709
 C            0.28845317        0.64090787        3.04015455
 C           -0.28845317       -0.64090787        3.04015455
 C           -0.52158582        1.78062494        3.06804572
 C           -1.67704953       -0.78768767        2.94194361
 C           -1.40251666       -3.08251510        2.28414093
 C           -1.51110923       -3.82366302        1.03749132
 C           -2.22826381       -1.98549858        2.47816418
 C           -2.01669669       -3.31745127       -1.27770428
 C           -2.40922271       -3.37901542        0.06742497
 C           -1.90343422       -1.64558774       -3.06985582
 C           -2.68546991       -2.47395245       -2.16392799
 C           -1.67704953        0.78768767       -2.94194361
 C           -2.49493774       -0.32495250       -3.08835378
 C           -1.40251666        3.08251510       -2.28414093
 C           -1.51110923        3.82366302       -1.03749132
 C           -2.22826381        1.98549858       -2.47816418
 C           -2.01669669        3.31745127        1.27770428
 C           -2.40922271        3.37901542       -0.06742497
 C           -1.90343422        1.64558774        3.06985582
 C           -2.49493774        0.32495250        3.08835378
 C           -2.68546991        2.47395245        2.16392799
 C           -3.75098761        0.39277638        2.36004914
 C           -3.83009277        1.69906020        1.72476420
 C           -3.43474150       -1.96403972        1.78411499
 C           -3.51684833       -2.65462499        0.50685090
 C           -4.19785999       -0.73346069        1.68456208
 C           -3.83009277       -1.69906020       -1.72476420
 C           -3.75098761       -0.39277638       -2.36004914
 C           -4.25550724       -1.80630185       -0.41061747
 C           -4.67933919       -0.61874468        0.31657296
 C           -3.43474150        1.96403972       -1.78411499
 C           -3.51684833        2.65462499       -0.50685090
 C           -4.25550724        1.80630185        0.41061747
 C           -4.19785999        0.73346069       -1.68456208
 C           -4.67933919        0.61874468       -0.31657296




