%chk=000012.chk
%mem=8GB
%Nproc=32
#p B3LYP/6-31G* opt pop=NPA

Template file

0 1
 C            3.77350939       -1.18122738        2.02826459
 C            2.69143150       -2.00527980        2.53672156
 C            1.89627365       -1.19111996        3.44256844
 C            3.58623459        0.16464099        2.54770547
 C            2.35373183        0.17792246        3.31572314
 C            3.89881286        1.26101898        1.75947656
 C            4.35401107        1.06641646        0.39024837
 C            4.21012994       -1.36770755        0.72556317
 C            4.49701631       -0.21531161       -0.11680982
 C            3.55341793       -2.36538702       -0.10073885
 C            2.04174574       -2.91008422        1.69925662
 C            2.36893551       -2.95738085        0.34037872
 C            0.82884856       -3.42932746        2.13164857
 C            0.53334811       -1.44588057        3.54462727
 C            0.07255507       -2.69543761        3.13389362
 C           -0.36287246       -0.37611547        3.63477609
 C            1.41475063        1.17926647        3.10397598
 C            0.08584547        0.93664855        3.44383754
 C            3.01121597        2.41082026        1.76707025
 C            1.75369521        2.31802870        2.36248899
 C            3.71530020        2.07904964       -0.43095736
 C            3.13500134        3.05440139        0.47291841
 C            3.01118355        1.70449050       -1.57535742
 C            3.98957566       -0.50557143       -1.44562656
 C            3.66551894       -1.91941748       -1.47763181
 C            3.14700961        0.40494021       -2.08417106
 C            2.73898442       -2.36808285       -2.39888174
 C            1.44434404       -3.43696028       -0.59797498
 C            1.70142967       -3.28293898       -1.95992458
 C           -0.11169340       -3.95859849        1.16530429
 C            0.19301960       -3.90635230       -0.18759941
 C           -1.34081137       -2.90262498        2.86834153
 C           -1.45454885       -3.60393875        1.60245046
 C           -1.73111587       -0.63846123        3.69010463
 C           -2.23754200       -1.89316059        3.16540857
 C           -2.68298381        0.39699355        3.32973093
 C           -0.82673589        1.98193208        3.37555916
 C           -2.23875840        1.69855601        3.19425181
 C            0.76818102        3.24711684        2.01533723
 C           -0.50151447        3.14149236        2.56922329
 C            2.08981485        3.83942882        0.02059504
 C            0.92743523        4.02645264        0.87246564
 C            2.04283595        2.57011854       -2.09199482
 C            1.60880983        3.65718737       -1.33764243
 C            1.27713034        2.17778905       -3.17953750
 C            2.31437129       -0.04390135       -3.11406512
 C            2.11981697       -1.41136166       -3.30095528
 C            1.39820954        0.82762146       -3.68839111
 C            0.59185279       -3.14307626       -2.88420819
 C            0.78240859       -1.89584560       -3.60554561
 C           -0.85859619       -3.97061074       -1.10052458
 C           -0.67773766       -3.48457147       -2.45794933
 C           -2.39153034       -3.19718761        0.65427777
 C           -2.19433589       -3.58626688       -0.66914663
 C           -3.29105768       -1.57938901        2.21643285
 C           -3.57498845       -0.15583501        2.32529945
 C           -3.30523657       -2.18002310        0.95893062
 C           -3.86489521        0.56842743        1.17065604
 C           -2.70633824        2.49245819        2.07301893
 C           -1.66351925        3.45389503        1.74856931
 C           -3.42595833        1.89203017        1.04376184
 C           -0.21937570        4.26511828        0.01051758
 C            0.20093845        4.02389556       -1.36249557
 C           -1.48295552        3.85602024        0.42655048
 C           -0.12739167        2.55536314       -3.23566590
 C           -0.66068308        3.37595111       -2.24297704
 C            0.06178392        0.34206653       -3.99883098
 C           -0.26046185       -0.97633779       -3.70495547
 C           -0.88130362        1.39683393       -3.69068223
 C           -1.77825550       -2.58445888       -2.74573329
 C           -2.80591721       -2.83522327       -1.75153000
 C           -1.50839278       -1.27718970       -3.15032935
 C           -4.01822859       -1.55220424       -0.06066070
 C           -4.30997947       -0.13032572        0.05014007
 C           -3.70293310       -1.82912473       -1.45108447
 C           -2.08164407        1.08334943       -3.07078701
 C           -2.41348802       -0.25397828       -2.83700561
 C           -4.17545080        0.45111434       -1.27416152
 C           -3.58000996       -0.55460629       -2.13394137
 C           -3.45930911        2.52479586       -0.19573710
 C           -2.42720885        3.49531505       -0.53077524
 C           -2.00322897        3.24053557       -1.90014066
 C           -3.75792590        1.76317280       -1.39489386
 C           -2.75355107        2.09520846       -2.39004936




