%chk=000004.chk
%mem=8GB
%Nproc=32
#p B3LYP/6-31G* opt pop=NPA

Template file

0 1
 C            4.70196158        0.69504202       -0.00314130
 C            4.24902470        1.41567371       -1.18307065
 C            3.44416516        2.54027398       -0.73839693
 C            4.24902470        1.42630964        1.17022606
 C            3.44416516        2.54684456        0.71540527
 C            3.86707688        0.73869033        2.31198003
 C            3.86707688       -0.71776220        2.31856259
 C            4.70196158       -0.69504202        0.00314130
 C            4.24902470       -1.41567371        1.18307065
 C            4.24902470       -1.42630964       -1.17022606
 C            3.86707688        0.71776220       -2.31856259
 C            3.86707688       -0.73869033       -2.31198003
 C            2.68923106        1.15283825       -3.04699009
 C            2.26893201        2.87588377       -1.40795255
 C            1.82026325        2.07730514       -2.46621652
 C            1.36925608        3.70184563       -0.74516218
 C            2.26893201        2.88849274        1.38189996
 C            1.36925608        3.70842991        0.71167081
 C            2.68923106        1.18033285        3.03644513
 C            1.82026325        2.09951237        2.44733904
 C            2.68923106       -1.15283825        3.04699009
 C            2.14874319        0.01679194        3.71537180
 C            1.82026325       -2.07730514        2.46621652
 C            3.44416516       -2.54027398        0.73839693
 C            3.44416516       -2.54684456       -0.71540527
 C            2.26893201       -2.87588377        1.40795255
 C            2.26893201       -2.88849274       -1.38189996
 C            2.68923106       -1.18033285       -3.03644513
 C            2.14874319       -0.01679194       -3.71537180
 C            1.82026325       -2.09951237       -2.44733904
 C            0.81448401       -0.01840559       -4.07240660
 C            0.46485441        2.06533234       -2.82258938
 C            0.01015007        1.14899561       -3.76285471
 C           -0.01015007        3.75231523       -1.18296105
 C           -0.46485441        2.80380556       -2.09076131
 C           -0.01015007        3.76285471        1.14899561
 C           -0.81448401        4.07240660       -0.01840559
 C            0.46485441        2.09076131        2.80380556
 C           -0.46485441        2.82258938        2.06533234
 C            0.81448401        0.01840559        4.07240660
 C            0.01015007        1.18296105        3.75231523
 C            0.46485441       -2.06533234        2.82258938
 C            0.01015007       -1.14899561        3.76285471
 C           -0.46485441       -2.80380556        2.09076131
 C            1.36925608       -3.70184563        0.74516218
 C            1.36925608       -3.70842991       -0.71167081
 C           -0.01015007       -3.75231523        1.18296105
 C           -0.01015007       -3.76285471       -1.14899561
 C           -0.81448401       -4.07240660        0.01840559
 C            0.46485441       -2.09076131       -2.80380556
 C            0.01015007       -1.18296105       -3.75231523
 C           -0.46485441       -2.82258938       -2.06533234
 C           -1.36925608        0.71167081       -3.70842991
 C           -1.36925608       -0.74516218       -3.70184563
 C           -1.82026325        2.44733904       -2.09951237
 C           -2.26893201        1.38189996       -2.88849274
 C           -2.14874319        3.71537180       -0.01679194
 C           -2.68923106        3.03644513       -1.18033285
 C           -1.82026325        2.46621652        2.07730514
 C           -2.68923106        3.04699009        1.15283825
 C           -1.36925608        0.74516218        3.70184563
 C           -1.36925608       -0.71167081        3.70842991
 C           -2.26893201        1.40795255        2.87588377
 C           -1.82026325       -2.44733904        2.09951237
 C           -2.26893201       -1.38189996        2.88849274
 C           -2.14874319       -3.71537180        0.01679194
 C           -2.68923106       -3.03644513        1.18033285
 C           -1.82026325       -2.46621652       -2.07730514
 C           -2.26893201       -1.40795255       -2.87588377
 C           -2.68923106       -3.04699009       -1.15283825
 C           -3.44416516        0.71540527       -2.54684456
 C           -3.44416516       -0.73839693       -2.54027398
 C           -3.86707688        2.31198003       -0.73869033
 C           -3.86707688        2.31856259        0.71776220
 C           -4.24902470        1.17022606       -1.42630964
 C           -3.44416516        0.73839693        2.54027398
 C           -3.44416516       -0.71540527        2.54684456
 C           -4.24902470        1.18307065        1.41567371
 C           -3.86707688       -2.31198003        0.73869033
 C           -3.86707688       -2.31856259       -0.71776220
 C           -4.24902470       -1.18307065       -1.41567371
 C           -4.70196158       -0.00314130       -0.69504202
 C           -4.24902470       -1.17022606        1.42630964
 C           -4.70196158        0.00314130        0.69504202




