%chk=000021.chk
%mem=8GB
%Nproc=32
#p B3LYP/6-31G* opt pop=NPA

Template file

0 1
 C            1.46475576       -3.29861091       -2.18528373
 C            0.67646191       -4.06073933       -1.23054894
 C            1.40306120       -4.07640021        0.03100220
 C            2.75296935       -3.01782861       -1.57458425
 C            2.66025346       -3.36935077       -0.16913236
 C            3.43440846       -1.87127172       -1.93964876
 C            2.81709580       -0.96433113       -2.88873898
 C            0.83625633       -2.33225720       -2.96638158
 C            1.46048745       -1.09946981       -3.17939548
 C           -0.52699816       -2.46142294       -3.19958090
 C           -0.70882607       -3.92437241       -1.22813915
 C           -1.32642540       -3.27918669       -2.29788899
 C           -1.40306120       -4.07640021       -0.03100220
 C            0.70882607       -3.92437241        1.22813915
 C           -0.67646191       -4.06073933        1.23054894
 C            1.32642540       -3.27918669        2.29788899
 C            3.10715533       -2.47991284        0.80415842
 C            2.59638571       -2.59948087        2.09342842
 C            4.06212042       -1.06230519       -0.90957910
 C            3.82871134       -1.33760497        0.43631322
 C            3.37868592        0.35353742       -2.65329486
 C            4.04704801        0.32083046       -1.36389091
 C            2.63939462        1.46809918       -3.00120835
 C            0.69552767        0.03708864       -3.46774228
 C            1.30301850        1.28472331       -3.53753850
 C           -1.30301850       -1.28472331       -3.53753850
 C           -0.69552767       -0.03708864       -3.46774228
 C           -2.59638571       -2.59948087       -2.09342842
 C           -2.63939462       -1.46809918       -3.00120835
 C           -2.66025346       -3.36935077        0.16913236
 C           -3.10715533       -2.47991284       -0.80415842
 C           -1.46475576       -3.29861091        2.18528373
 C           -2.75296935       -3.01782861        1.57458425
 C            0.52699816       -2.46142294        3.19958090
 C           -0.83625633       -2.33225720        2.96638158
 C            2.63939462       -1.46809918        3.00120835
 C            1.30301850       -1.28472331        3.53753850
 C            4.04704801       -0.32083046        1.36389091
 C            3.37868592       -0.35353742        2.65329486
 C            3.82871134        1.33760497       -0.43631322
 C            4.06212042        1.06230519        0.90957910
 C            2.59638571        2.59948087       -2.09342842
 C            3.10715533        2.47991284       -0.80415842
 C            0.52699816        2.46142294       -3.19958090
 C            1.32642540        3.27918669       -2.29788899
 C           -1.46048745        1.09946981       -3.17939548
 C           -0.83625633        2.33225720       -2.96638158
 C           -3.37868592       -0.35353742       -2.65329486
 C           -2.81709580        0.96433113       -2.88873898
 C           -3.82871134       -1.33760497       -0.43631322
 C           -4.04704801       -0.32083046       -1.36389091
 C           -3.43440846       -1.87127172        1.93964876
 C           -4.06212042       -1.06230519        0.90957910
 C           -1.46048745       -1.09946981        3.17939548
 C           -2.81709580       -0.96433113        2.88873898
 C            0.69552767       -0.03708864        3.46774228
 C           -0.69552767        0.03708864        3.46774228
 C            2.81709580        0.96433113        2.88873898
 C            3.43440846        1.87127172        1.93964876
 C            1.46048745        1.09946981        3.17939548
 C            2.66025346        3.36935077        0.16913236
 C            2.75296935        3.01782861        1.57458425
 C            0.70882607        3.92437241       -1.22813915
 C            1.40306120        4.07640021       -0.03100220
 C           -1.46475576        3.29861091       -2.18528373
 C           -0.67646191        4.06073933       -1.23054894
 C           -3.43440846        1.87127172       -1.93964876
 C           -4.06212042        1.06230519       -0.90957910
 C           -2.75296935        3.01782861       -1.57458425
 C           -4.04704801        0.32083046        1.36389091
 C           -3.37868592        0.35353742        2.65329486
 C           -3.82871134        1.33760497        0.43631322
 C           -1.30301850        1.28472331        3.53753850
 C           -2.63939462        1.46809918        3.00120835
 C            0.83625633        2.33225720        2.96638158
 C            1.46475576        3.29861091        2.18528373
 C            0.67646191        4.06073933        1.23054894
 C           -0.52699816        2.46142294        3.19958090
 C           -1.40306120        4.07640021        0.03100220
 C           -2.66025346        3.36935077       -0.16913236
 C           -3.10715533        2.47991284        0.80415842
 C           -2.59638571        2.59948087        2.09342842
 C           -0.70882607        3.92437241        1.22813915
 C           -1.32642540        3.27918669        2.29788899




