%chk=000124.chk
%mem=8GB
%Nproc=16
#p B3LYP/6-31G* opt pop=NPA

Template file

0 1
 C            3.59259114       -0.96918571        1.47075231
 C            3.94634899       -0.18940297        0.29620156
 C            3.60238295       -0.97616655       -0.87300920
 C            2.82103398       -2.11641667        1.02391787
 C            2.92163019       -2.17846558       -0.41530198
 C            1.49714929       -2.02830855        1.61577836
 C            2.72517297       -0.15186220        2.29866661
 C            1.46702882       -0.85853857        2.47318470
 C            3.36655436        1.13558917        0.44521231
 C            2.69126049        1.18431493        1.73519534
 C            2.78956075        1.75659813       -0.66014746
 C            2.78681164       -0.36811816       -1.91160280
 C            2.56779925        1.00252979       -1.89029261
 C            1.69610753       -2.30574144       -1.17327295
 C            1.67324202       -1.26649064       -2.18815634
 C            0.36864664       -2.29951335        0.84396994
 C            0.50432282       -2.60224731       -0.52377067
 C           -0.86935937       -1.86317717        1.32821409
 C            0.28827624       -0.12100210        2.53076937
 C           -0.91143367       -0.74192748        2.17489087
 C            1.51685263        1.91328393        1.86961020
 C            0.36187385        1.27337607        2.48092776
 C            1.65607051        2.64926483       -0.47643704
 C            1.02378607        2.71592171        0.75850352
 C            1.36838643        1.51989135       -2.51669740
 C            0.84834690        2.58877618       -1.67814911
 C            0.43168017       -0.76240841       -2.59388487
 C            0.27379844        0.60764187       -2.80710755
 C           -0.63023311       -2.57044064       -1.32360970
 C           -0.70377395       -1.53575871       -2.34659220
 C           -2.02400929       -2.33011476        0.70126281
 C           -1.93187468       -2.67144658       -0.69840050
 C           -3.28779515       -1.64228145        0.87897541
 C           -2.09202696       -0.01255134        2.33045559
 C           -3.33160786       -0.48908269        1.74762209
 C           -0.80405653        2.03155854        2.06391019
 C           -0.43490407        2.72276753        0.83227743
 C           -2.04796955        1.42817329        2.14629680
 C           -0.58533050        2.39798785       -1.55703332
 C           -0.95683588        1.26365010       -2.38844707
 C           -1.21053038        2.55614715       -0.32335681
 C           -1.99959079       -0.88742979       -2.20765563
 C           -2.82969696       -1.78193952       -1.41445859
 C           -3.74590633       -1.22533648       -0.44116416
 C           -2.05695182        0.49584342       -2.01836468
 C           -3.90923085        0.60831829        0.98858317
 C           -3.01528668        1.74561417        1.11898779
 C           -2.51618520        2.08612234       -0.19997297
 C           -3.92033561        0.20962767       -0.40781909
 C           -2.97178989        1.05235652       -1.11946140




