%chk=000136.chk
%mem=8GB
%Nproc=16
#p B3LYP/6-31G* opt pop=NPA

Template file

0 1
 C            3.86328026       -1.12624309       -0.47758359
 C            3.73357040        0.23374523       -0.95915722
 C            3.81725855        1.08950407        0.20563721
 C            3.52246976       -1.11471330        0.93763000
 C            3.50814802        0.26457993        1.36707655
 C            2.31533783       -1.90447036        1.09235016
 C            2.85856106       -1.92560677       -1.15049653
 C            2.16770646       -2.68048644       -0.12617227
 C            2.54153042        0.30175666       -1.79685439
 C            2.05463789       -1.05097480       -1.99142923
 C            1.62065476        1.32412360       -1.60158069
 C            2.94560998        2.24192298        0.25967705
 C            1.95093925        2.40804697       -0.78278414
 C            2.29486133        0.79637114        1.95733009
 C            2.20238655        2.16608526        1.50745825
 C            1.16970990       -1.34242738        1.66675923
 C            1.12903553        0.03032274        1.97062150
 C           -0.02983441       -2.05270665        1.55305316
 C            0.89860135       -3.12677565       -0.43721203
 C           -0.11328306       -3.07113378        0.59712059
 C            0.68090927       -1.29180087       -2.04036277
 C            0.25659301       -2.54781076       -1.60632805
 C            0.27981569        1.10730753       -1.92686769
 C           -0.21874835       -0.20954089       -2.00235906
 C           -0.59479064        2.19004457       -1.82419528
 C            0.87842341        3.14474149       -0.15079925
 C            0.88307458        2.70462855        1.23871767
 C           -0.34209867        3.19485374       -0.80078896
 C           -0.10648633        0.68070446        2.09530164
 C           -0.23810306        2.02619432        1.71420816
 C           -1.19260013       -1.50926165        2.10044542
 C           -1.24085934       -0.08133281        2.35835746
 C           -2.49947628       -1.91546199        1.60250984
 C           -1.35961464       -3.30744995       -0.10827150
 C           -1.15642710       -2.81488477       -1.46483697
 C           -2.57777450       -2.71571536        0.39911252
 C           -1.60894250       -0.45388909       -1.95905772
 C           -2.08540650       -1.73070598       -1.66808127
 C           -3.11709597       -1.87153611       -0.65496018
 C           -2.02226177        1.96191158       -1.86429449
 C           -2.50232932        0.60179356       -1.79203362
 C           -1.52637512        3.22905584        0.03254980
 C           -1.47882218        2.50275104        1.29050598
 C           -2.61651284        2.69659384       -0.75839216
 C           -2.55268586        0.40526814        1.95670827
 C           -3.28169662       -0.71338833        1.37586914
 C           -3.64061722       -0.66807709       -0.03683994
 C           -3.48680702        0.53290975       -0.71634814
 C           -2.65291666        1.64948958        1.35165149
 C           -3.33054916        1.74168730        0.06743595




