%chk=000036.chk
%mem=8GB
%Nproc=16
#p B3LYP/6-31G* opt pop=NPA

Template file

0 1
 C            4.01973920       -1.23794739        0.33764388
 C            4.07268023       -0.52550379       -0.92640063
 C            3.79676149        0.87190324       -0.65445406
 C            3.57828860       -0.30460649        1.36168324
 C            3.55359645        1.02077231        0.77454385
 C            2.35463307       -0.83034890        1.94822708
 C            2.99832295       -2.26016205        0.22229476
 C            2.14926572       -2.16164971        1.39534521
 C            2.99597110       -1.02359249       -1.76799874
 C            2.36585046       -2.13497189       -1.08179445
 C            2.76552597        1.30327225       -1.58556645
 C            2.16571124        0.10355447       -2.15088604
 C            1.93246362        2.34178632       -1.19918298
 C            2.55961374        1.90119671        1.17850247
 C            1.99758635        2.79392365        0.18194628
 C            1.25940344        0.02360803        2.11843713
 C            1.44285325        1.39600991        1.97320444
 C           -0.03695256       -0.50409309        2.11875903
 C            0.85023485       -2.62044024        1.27336944
 C           -0.20309485       -1.87522362        1.92617561
 C            0.98009633       -2.25510207       -1.13842657
 C            0.35166986       -2.88405156       -0.06548849
 C            0.78111660       -0.05122438       -2.11422443
 C            0.24743933       -1.32459312       -1.88595018
 C            0.52492104        2.28630866       -1.55909471
 C           -0.03595994        1.07866117       -1.98186836
 C            0.64968133        3.12072151        0.60077946
 C            0.29554436        2.24532335        1.70763477
 C           -0.19017631        3.08876756       -0.58148188
 C           -1.15386457        0.34158303        2.01839935
 C           -0.98560350        1.70218034        1.71325639
 C           -2.43344393       -0.22939747        1.96797814
 C           -1.43799181       -2.36287598        1.34544842
 C           -1.09762282       -2.86252862        0.01437862
 C           -2.58416834       -1.60327397        1.51436991
 C           -1.12715333       -1.50500186       -2.01298036
 C           -1.80506140       -2.40106898       -1.08761770
 C           -1.42569743        0.92589307       -1.93351574
 C           -1.97123480       -0.33572901       -2.17543607
 C           -1.53253187        2.82013270       -0.38890078
 C           -1.93728973        2.35267663        0.92426450
 C           -2.19039159        1.91987739       -1.31305519
 C           -3.54363300        0.52858339        1.41655501
 C           -3.25804765        1.78171240        0.76108040
 C           -3.45302037        1.58676249       -0.67117462
 C           -3.58518938       -1.61204471        0.46150555
 C           -3.15499657       -1.90426887       -0.89234199
 C           -3.29218251       -0.68482970       -1.67174881
 C           -4.23036469       -0.31279053        0.45005342
 C           -4.02329764        0.27210993       -0.86624711




