%chk=000221.chk
%mem=8GB
%Nproc=16
#p B3LYP/6-31G* opt pop=NPA

Template file

0 1
 C            3.71599302       -0.41110568        0.08866675
 C            3.52103768        0.79746601       -0.69265338
 C            3.04945745        1.83109727        0.21351917
 C            3.33274732       -0.11522113        1.46186600
 C            2.68814622        1.18085042        1.46081090
 C            2.60158187       -1.24973122        1.97212183
 C            3.02991644       -1.63021368       -0.30208888
 C            2.52149052       -2.24245767        0.90938594
 C            2.24428683       -1.64733800       -1.44952309
 C            2.61946246        0.77050654       -1.82973923
 C            2.06935754       -0.43801317       -2.24770656
 C            2.03280878        2.60694457       -0.47646784
 C            1.78393360        1.96052715       -1.75877547
 C            0.95840489        3.07831214        0.26809994
 C            1.38103793        1.32669789        1.93006276
 C            0.72138937        2.50305047        1.58388362
 C            1.25413053       -1.04486380        2.46654705
 C            0.63461627        0.19984627        2.32935748
 C            1.17040522       -2.77668677        0.92258538
 C            0.51519697       -2.23752311        2.10478405
 C            0.97989527       -2.37208633       -1.45391363
 C            0.44604928       -2.88115762       -0.26537922
 C            0.72837275       -0.46578157       -2.81102306
 C            0.11043790       -1.72599440       -2.42876130
 C            0.49352633        1.93130582       -2.28137781
 C           -0.03402841        0.69746743       -2.84639025
 C           -0.33894065        3.23602408       -0.36496137
 C           -0.59071447        2.60305840       -1.57913897
 C           -0.68540638        2.65112396        1.87990668
 C           -1.33275658        3.19515930        0.69363681
 C           -0.76602368        0.26261706        2.41794129
 C           -1.42788802        1.48171709        2.28944836
 C           -0.86841011       -2.19320737        2.13252742
 C           -1.52176851       -0.91245324        2.35167788
 C           -0.92317967       -3.12964813       -0.18133572
 C           -1.59796988       -2.88092686        1.08149332
 C           -1.26737153       -1.80147054       -2.27217008
 C           -1.80283044       -2.67410701       -1.24507734
 C           -1.45891229        0.64053244       -2.55510177
 C           -1.80391873        1.81445114       -1.76675785
 C           -2.06464308       -0.58284723       -2.28348587
 C           -2.56399680        2.45668146        0.48570811
 C           -2.69873840        1.51701957        1.58629664
 C           -2.74875274        1.71467579       -0.74842638
 C           -2.77342583       -0.91701197        1.60547872
 C           -2.80938366       -2.12707905        0.80519237
 C           -2.94242307       -2.00747002       -0.63409078
 C           -3.05464600       -0.68263401       -1.22091505
 C           -3.22665510        0.27480469        1.05316960
 C           -3.30089844        0.41509262       -0.39890718




