%chk=000271.chk
%mem=8GB
%Nproc=16
#p B3LYP/6-31G* opt pop=NPA

Template file

0 1
 C           -3.09617005        1.54838306        0.00000000
 C           -2.42197632        1.84118943        1.25529465
 C           -2.34469290        0.60448715        2.01956774
 C           -3.45886046        0.14157460        0.00000000
 C           -3.01027136       -0.44069731        1.25529465
 C           -3.01027136       -0.44069731       -1.25529465
 C           -2.42197632        1.84118943       -1.25529465
 C           -2.34469290        0.60448715       -2.01956774
 C           -1.34935306        2.72675524       -1.25529465
 C           -1.34935306        2.72675524        1.25529465
 C           -0.93420122        3.33332073       -0.00000000
 C           -0.14964851        2.41673227        2.01956774
 C           -1.19855795        0.30900118        2.75037506
 C           -0.07649719        1.23538297        2.75037506
 C           -0.66425237       -1.04440973        2.75037506
 C           -2.49950704       -1.73447754        1.25529465
 C           -1.29945140       -2.04313866        2.01956774
 C           -2.49950704       -1.73447754       -1.25529465
 C           -2.42936896       -2.46615602       -0.00000000
 C           -1.29945140       -2.04313866       -2.01956774
 C           -1.19855795        0.30900118       -2.75037506
 C           -0.66425237       -1.04440973       -2.75037506
 C           -0.14964851        2.41673227       -2.01956774
 C           -0.07649719        1.23538297       -2.75037506
 C            0.51583063        3.42310938       -0.00000000
 C            1.00264336        2.87239518        1.25529465
 C            1.00264336        2.87239518       -1.25529465
 C            2.17632531        2.12592473        1.25529465
 C            1.15128009        0.45450748        2.75037506
 C            0.78802741       -0.95448190        2.75037506
 C            2.25220504        0.88913553        2.01956774
 C            1.54158777       -1.86721629        2.01956774
 C           -0.51109696       -2.99912115        1.25529465
 C           -1.20349210       -3.24582282       -0.00000000
 C           -0.51109696       -2.99912115       -1.25529465
 C            0.87719601       -2.91315550        1.25529465
 C            0.87719601       -2.91315550       -1.25529465
 C            1.59473746       -3.07255130        0.00000000
 C            0.78802741       -0.95448190       -2.75037506
 C            1.15128009        0.45450748       -2.75037506
 C            1.54158777       -1.86721629       -2.01956774
 C            2.17632531        2.12592473       -1.25529465
 C            2.88149235        1.91853091        0.00000000
 C            2.25220504        0.88913553       -2.01956774
 C            3.04164399       -0.06595157        1.25529465
 C            2.69439607       -1.41286150        1.25529465
 C            2.71506143       -2.14760342       -0.00000000
 C            2.69439607       -1.41286150       -1.25529465
 C            3.41497091        0.56721489        0.00000000
 C            3.04164399       -0.06595157       -1.25529465




