%chk=000083.chk
%mem=8GB
%Nproc=16
#p B3LYP/6-31G* opt pop=NPA

Template file

0 1
 C            4.16161101       -0.42716314        0.25679678
 C            3.54403244        0.07622938        1.47313167
 C            3.18394793        1.45340094        1.24801335
 C            3.94107724        0.55771613       -0.78982122
 C            3.36843475        1.73323483       -0.17143044
 C            3.20787790       -0.08745856       -1.85877066
 C            3.46519698       -1.64431920       -0.12735682
 C            3.01586620       -1.48248211       -1.48704295
 C            2.49785413       -0.84571100        1.85507128
 C            2.46881110       -1.93035555        0.88553386
 C            1.27925330       -0.36956589        2.33548104
 C            1.83956630        1.88361140        1.59212924
 C            0.91035421        0.97430820        2.11281949
 C            2.10284722        2.25306687       -0.66256980
 C            1.41977568        2.75548482        0.51284906
 C            1.91021291        0.44068895       -2.26072180
 C            1.36016633        1.54664770       -1.61790573
 C            1.64109808       -1.81971474       -1.78678033
 C            1.06185735       -0.70218231       -2.51429990
 C            1.22160834       -2.44409644        0.52007629
 C            0.84724079       -2.46881335       -0.83797410
 C            0.28618812       -1.32967192        2.48404717
 C            0.23456812       -2.40599140        1.50646496
 C           -1.06648896       -0.91843916        2.77479601
 C           -0.44593541        1.34648250        2.09241187
 C           -1.43274492        0.45182818        2.50435085
 C            0.07509007        3.03988700        0.39950552
 C           -0.82277220        2.49994414        1.40163678
 C           -0.02664889        1.73184787       -1.65774689
 C           -0.56267140        2.75167742       -0.86685311
 C           -0.31667827       -0.55175513       -2.46046205
 C           -0.85842199        0.70326564       -2.14341136
 C           -0.49578621       -2.62250021       -1.18194010
 C           -1.04488722       -1.70110032       -2.16191968
 C           -1.15693917       -2.63895527        1.17172193
 C           -1.96616614       -1.78310493        2.02677970
 C           -1.50826166       -2.80607542       -0.15683670
 C           -2.72407835        0.43049210        1.82856227
 C           -2.99743736       -0.94719890        1.43449645
 C           -2.15650681        2.59075449        0.82563770
 C           -1.98612682        2.80706872       -0.60607556
 C           -3.08157695        1.48650487        0.99665260
 C           -2.25084289        0.85655264       -2.12396270
 C           -2.85271680        1.88701667       -1.30159264
 C           -3.67335180        1.21816575       -0.30348713
 C           -2.47294401       -1.61960479       -1.94621668
 C           -2.74967716       -2.22337528       -0.65162537
 C           -3.45305355       -1.23563501        0.15136928
 C           -3.09717173       -0.31504204       -1.97608150
 C           -3.84464984       -0.15556514       -0.73744994




