%chk=000018.chk
%mem=8GB
%Nproc=16
#p B3LYP/6-31G* opt pop=NPA

Template file

0 1
 C            4.28652644        0.83862087        0.01656249
 C            4.21720827       -0.43966172       -0.66451819
 C            3.67425088       -1.39798568        0.27620451
 C            3.68419204        0.67852122        1.33336765
 C            3.14485633       -0.66202895        1.41039774
 C            2.78723752        1.78963712        1.53113033
 C            3.44807519        1.76512852       -0.71738677
 C            2.72300470        2.52785811        0.27439182
 C            3.24953904       -0.32342794       -1.74499970
 C            2.67790044        1.00327671       -1.69206433
 C            2.74764654       -2.22367819       -0.46200546
 C            2.35498506       -1.45421861       -1.64118402
 C            1.73237680       -2.82015094        0.26318038
 C            1.80684438       -0.87513569        1.76435453
 C            1.27067229       -2.12517871        1.46445463
 C            1.41768019        1.52048567        1.93561518
 C            0.93535575        0.21133392        1.97867514
 C            1.32442966        2.78825355        0.02433182
 C            0.61769369        2.51786528        1.26056468
 C            1.28830659        1.14985171       -1.71366727
 C            0.74599170        2.30807860       -1.14645190
 C            0.99343632       -1.27293002       -1.89186128
 C            0.45781175        0.02677863       -1.91905104
 C            0.54660540       -3.19301627       -0.47191433
 C            0.15735272       -2.33827719       -1.57669472
 C           -0.15735272       -2.33827719        1.57669472
 C           -0.54660540       -3.19301627        0.47191433
 C           -0.45781175        0.02677863        1.91905104
 C           -0.99343632       -1.27293002        1.89186128
 C           -0.74599170        2.30807860        1.14645190
 C           -1.28830659        1.14985171        1.71366727
 C           -0.61769369        2.51786528       -1.26056468
 C           -1.32442966        2.78825355       -0.02433182
 C           -0.93535575        0.21133392       -1.97867514
 C           -1.41768019        1.52048567       -1.93561518
 C           -1.27067229       -2.12517871       -1.46445463
 C           -1.73237680       -2.82015094       -0.26318038
 C           -1.80684438       -0.87513569       -1.76435453
 C           -2.35498506       -1.45421861        1.64118402
 C           -2.74764654       -2.22367819        0.46200546
 C           -2.67790044        1.00327671        1.69206433
 C           -3.24953904       -0.32342794        1.74499970
 C           -2.72300470        2.52785811       -0.27439182
 C           -2.78723752        1.78963712       -1.53113033
 C           -3.44807519        1.76512852        0.71738677
 C           -3.14485633       -0.66202895       -1.41039774
 C           -3.67425088       -1.39798568       -0.27620451
 C           -4.21720827       -0.43966172        0.66451819
 C           -3.68419204        0.67852122       -1.33336765
 C           -4.28652644        0.83862087       -0.01656249




