%chk=000185.chk
%mem=8GB
%Nproc=16
#p B3LYP/6-31G* opt pop=NPA

Template file

0 1
 C            3.24507194       -1.57966160        1.15443302
 C            3.57197023       -0.57375686        0.16095239
 C            2.92141092       -0.93958547       -1.08436216
 C            2.42179498       -2.58612878        0.50871054
 C            2.34103943       -2.26659538       -0.90013632
 C            1.18676596       -2.69520861        1.25794842
 C            2.43722603       -0.93500382        2.17725156
 C            1.17373895       -1.62411112        2.24425854
 C            3.26509058        0.71684910        0.73595873
 C            2.42053484        0.48025538        1.90205609
 C            2.90316305        1.73770009       -0.12668604
 C            2.22264611        0.04009898       -1.79880341
 C            2.33179346        1.38254656       -1.42437569
 C            1.17732666       -0.33791980       -2.63921015
 C            1.17717726       -2.59615294       -1.57740339
 C            0.72647499       -1.71801475       -2.63841831
 C            0.00000000       -2.97502183        0.58325912
 C            0.00000000       -3.01876094       -0.82093842
 C           -1.18676596       -2.69520861        1.25794842
 C            0.00000000       -0.89537241        2.39949976
 C           -1.17373895       -1.62411112        2.24425854
 C            1.22541887        1.19124575        2.02120844
 C           -0.00000000        0.49721452        2.15212172
 C            2.09642317        2.81107480        0.41889422
 C            1.23977931        2.50193954        1.54879436
 C            1.21466732        2.28358635       -1.67762751
 C            1.24174363        3.30418773       -0.64302049
 C           -0.00000000        0.51237047       -2.74434359
 C           -0.00000000        1.75870711       -2.12704023
 C           -0.72647499       -1.71801475       -2.63841831
 C           -1.17717726       -2.59615294       -1.57740339
 C           -1.17732666       -0.33791980       -2.63921015
 C           -2.42179498       -2.58612878        0.50871054
 C           -2.34103943       -2.26659538       -0.90013632
 C           -2.43722603       -0.93500382        2.17725156
 C           -3.24507194       -1.57966160        1.15443302
 C           -1.22541887        1.19124575        2.02120844
 C           -2.42053484        0.48025538        1.90205609
 C           -0.00000000        3.20949141        1.34261209
 C           -0.00000000        3.71668138       -0.02601614
 C           -1.23977931        2.50193954        1.54879436
 C           -1.21466732        2.28358635       -1.67762751
 C           -1.24174363        3.30418773       -0.64302049
 C           -2.09642317        2.81107480        0.41889422
 C           -2.22264611        0.04009898       -1.79880341
 C           -2.92141092       -0.93958547       -1.08436216
 C           -3.57197023       -0.57375686        0.16095239
 C           -3.26509058        0.71684910        0.73595873
 C           -2.33179346        1.38254656       -1.42437569
 C           -2.90316305        1.73770009       -0.12668604




