%chk=000113.chk
%mem=8GB
%Nproc=16
#p B3LYP/6-31G* opt pop=NPA

Template file

0 1
 C           -3.59707975       -0.67571299       -1.46835192
 C           -3.77227595        0.52412238       -0.67105803
 C           -3.73060833        0.13612820        0.72583098
 C           -3.25550494       -1.76261589       -0.56436814
 C           -3.37182410       -1.27288882        0.78737827
 C           -1.97819083       -2.29926993       -0.98413951
 C           -2.46135362       -0.45928326       -2.34899337
 C           -1.53490235       -1.55117288       -2.15168427
 C           -2.82305274        1.51758502       -1.14355463
 C           -1.97066623        0.88583188       -2.14025176
 C           -2.23943268        2.37990751       -0.22464055
 C           -2.84609324        0.86415871        1.61935905
 C           -2.31933794        2.07938526        1.20352802
 C           -2.22244306       -1.40049052        1.66064676
 C           -1.97035985       -0.10288611        2.26936775
 C           -1.01770680       -2.65795280       -0.03710961
 C           -1.13052197       -2.18357930        1.28797157
 C            0.23866353       -2.97627401       -0.55318950
 C           -0.17219210       -1.30381655       -2.27774210
 C            0.68444201       -2.25816006       -1.73551200
 C           -0.59235013        1.08600554       -2.07947178
 C            0.27349203        0.02064567       -2.38552613
 C           -0.89919034        2.87060472       -0.48743216
 C           -0.10240444        2.22982205       -1.43456982
 C           -1.08846890        2.53691503        1.81724660
 C           -0.30952008        3.20776799        0.79283110
 C           -0.65603574        0.24302210        2.60306459
 C           -0.22406121        1.56282865        2.45960009
 C            0.00548982       -2.06260255        2.08758259
 C            0.29628659       -0.77086907        2.69039222
 C            1.37556792       -3.14275334        0.32788724
 C            1.26138447       -2.65847907        1.68061230
 C            2.09890759       -1.96605914       -1.58240758
 C            2.52001355       -2.49079649       -0.28959326
 C            1.64176300        0.26212617       -2.49255618
 C            2.58309380       -0.73414390       -2.00030078
 C            1.27091627        2.46180378       -1.39641441
 C            2.14968202        1.56797942       -2.12142745
 C            1.08648803        2.87855509        1.00443408
 C            1.14010505        1.83084448        2.02034120
 C            1.89896937        2.76346113       -0.11329113
 C            1.69470256       -0.46886352        2.42349457
 C            2.31215146       -1.67526006        1.89934468
 C            3.10839473       -1.58814900        0.68989841
 C            2.03664641        0.76858193        1.88438339
 C            3.54464824       -0.04916924       -1.15464999
 C            3.34614428        1.37816770       -1.31919106
 C            3.08407786        1.94054824       -0.00628424
 C            3.55124149       -0.34089444        0.26903365
 C            3.08230523        0.85534430        0.95948227




