%chk=000068.chk
%mem=8GB
%Nproc=16
#p B3LYP/6-31G* opt pop=NPA

Template file

0 1
 C            4.19452107        0.02377194        0.23708761
 C            3.94603271        0.92241945       -0.87650238
 C            3.19090243        0.19038722       -1.87820716
 C            3.60829030       -1.26424271       -0.09241151
 C            3.06827017       -1.18730298       -1.43546420
 C            2.71620497       -1.63822337        0.99013764
 C            3.48806555        0.54467297        1.39576412
 C            2.61993427       -0.50441668        1.90021431
 C            3.10029593        2.00038205       -0.39586360
 C            2.89568351        1.81585259        1.03036944
 C            1.97708222        0.94017917       -2.16337306
 C            1.93199165        2.07438121       -1.25983775
 C            0.79688304        0.24441568       -2.40291385
 C            1.88175983       -1.85393488       -1.70107696
 C            0.82835523       -1.15272705       -2.41639165
 C            1.55684504       -2.35307124        0.70169574
 C            1.22700858       -2.60406618       -0.63629696
 C            0.55292737       -2.34950416        1.66533597
 C            1.36906270       -0.16852997        2.41780602
 C            0.41534328       -1.17815423        2.51711552
 C            1.65103294        2.13338094        1.55228752
 C            0.95229145        1.16485412        2.39098658
 C            0.70637370        2.41608508       -0.69947473
 C            0.65064342        2.70020419        0.66577384
 C           -0.42302373        0.89216166       -2.19249056
 C           -0.46445207        2.01374582       -1.34540469
 C           -1.59103942        0.19652621       -2.50866269
 C           -0.39836445       -1.90044550       -2.18934726
 C           -0.16825553       -2.76526607       -1.03791598
 C           -1.61202792       -1.24187062       -2.32718758
 C           -0.77843078       -2.81663300        1.32700148
 C           -1.15456824       -2.90754938       -0.06883041
 C           -0.99954066       -0.84574718        2.58737058
 C           -1.73480590       -1.95022183        1.99536446
 C           -0.47023806        1.48410911        2.31080219
 C           -0.61827094        2.58128605        1.35850154
 C           -1.41814605        0.45952348        2.34197467
 C           -1.67909710        2.46400373       -0.82296657
 C           -1.78214740        2.66655080        0.61263946
 C           -2.88522430        0.70190655       -2.09714070
 C           -2.93098091        1.89048022       -1.27839712
 C           -2.70000306       -1.53774034       -1.40964732
 C           -2.43288761       -2.22968095       -0.23013486
 C           -2.80128524       -1.65226596        1.06026415
 C           -3.56424292       -0.36811238       -1.37787652
 C           -2.68972099        0.68422816        1.80518613
 C           -2.92980172        1.90962571        1.06469296
 C           -3.73206386        1.58936459       -0.10283674
 C           -3.38644714       -0.39339541        1.11128757
 C           -3.98073535        0.15860335       -0.09300665




