%chk=000224.chk
%mem=8GB
%Nproc=16
#p B3LYP/6-31G* opt pop=NPA

Template file

0 1
 C            3.82021730       -0.30888986       -0.00196635
 C            3.33535863       -1.25561121        0.98568499
 C            2.75043197       -0.49758164        2.08156206
 C            3.61995996        1.02943740        0.53134697
 C            2.83051554        0.91052569        1.74621976
 C            3.13740458        1.86948256       -0.54864842
 C            3.26679109       -0.34112323       -1.34683392
 C            2.91251657        1.02015146       -1.70977868
 C            2.41286408       -1.37585001       -1.71645032
 C            2.37447627       -2.26632780        0.57957519
 C            2.09646866       -2.43829239       -0.76940094
 C            1.45413326       -1.07784178        2.38398250
 C            1.27934434       -2.24952582        1.53961531
 C            0.35759260       -0.25205743        2.62121768
 C            1.70475822        1.70848453        1.92096193
 C            0.48301946        1.13063467        2.46738514
 C            1.93568425        2.66072969       -0.34805402
 C            1.32195517        2.67788686        0.90125774
 C            1.57084874        1.29438155       -2.20119645
 C            1.11799364        2.50482701       -1.54048384
 C            1.18514469       -1.06034859       -2.43064287
 C            0.67896321        0.23632675       -2.38476239
 C            0.80700850       -2.98218865       -1.14773813
 C            0.29138085       -2.17993263       -2.24932047
 C           -0.01239979       -2.60570907        1.14952786
 C           -0.24455588       -3.07178012       -0.14806428
 C           -0.90993806       -0.82513690        2.57674706
 C           -1.07742430       -2.09861170        1.89122373
 C           -2.06311147       -0.00040888        2.25331937
 C           -0.63865128        1.90618702        1.95523706
 C           -0.11907877        2.85800718        0.98046213
 C           -1.86386704        1.27913496        1.73432372
 C           -0.24506744        2.74253984       -1.46620541
 C           -0.83653961        3.09862673       -0.18435823
 C           -0.70017174        0.46219432       -2.24219095
 C           -1.14006448        1.77885339       -2.07623041
 C           -1.10370258       -1.91439230       -1.97905651
 C           -1.48166301       -2.72449730       -0.83164082
 C           -1.59406400       -0.61486253       -2.07631552
 C           -2.42208617       -2.13255854        1.33982495
 C           -3.07392321       -0.87941925        1.68659689
 C           -2.58951729       -2.34615668       -0.08575606
 C           -2.89614754       -0.39525937       -1.62094343
 C           -3.82567357       -0.43941369        0.53110922
 C           -3.43116873       -1.27436287       -0.59378860
 C           -2.74488437        1.80596633        0.78483996
 C           -2.23203594        2.70128703       -0.23656261
 C           -2.44875585        2.04853841       -1.51977529
 C           -3.70176060        0.94235524        0.11267677
 C           -3.34857884        0.94158162       -1.29853305




