%chk=000149.chk
%mem=8GB
%Nproc=16
#p B3LYP/6-31G* opt pop=NPA

Template file

0 1
 C            3.89860860       -0.30425672       -0.50448988
 C            3.46618257        1.06163781       -0.74134718
 C            3.21700948        1.65998838        0.54950877
 C            3.57226932       -0.63182110        0.87435018
 C            3.21641154        0.59496101        1.54562996
 C            2.60398106       -1.70636008        0.85458046
 C            3.11029488       -1.17002523       -1.36394275
 C            2.42866832       -2.13522416       -0.52356656
 C            2.38191247        1.02628271       -1.70818572
 C            2.30671649       -0.33215755       -2.22675261
 C            1.19865631        1.72808082       -1.45411169
 C            1.99050464        2.40482859        0.73063516
 C            1.11781461        2.58680864       -0.34149559
 C            1.94546825        0.66253509        2.24880263
 C            1.43406232        1.99704357        2.00778783
 C            1.47588255       -1.65400774        1.67043218
 C            1.05861675       -0.41828708        2.20890368
 C            0.53899263       -2.65851252        1.45842445
 C            1.16931686       -2.59739008       -0.90198948
 C            0.37766623       -3.15724371        0.09976288
 C            1.07571806       -0.81885851       -2.63345326
 C            0.55522008       -2.04631833       -2.03649146
 C            0.03955607        1.36157926       -2.15255255
 C           -0.03579691        0.10497090       -2.75223292
 C           -1.13153024        2.09698385       -2.00283965
 C           -0.08401678        3.22789787       -0.05297511
 C           -1.20527028        3.09443570       -0.95917001
 C            0.09086118        2.24636987        2.23447839
 C           -0.60137256        3.12263116        1.30197308
 C           -0.29679626       -0.18329888        2.50602692
 C           -0.79131681        1.12174312        2.50721937
 C           -0.77289103       -2.53579059        2.04555092
 C           -1.22593551       -1.21518381        2.41122388
 C           -1.03856542       -3.36687210       -0.13280447
 C           -1.73367969       -3.10573713        1.11562117
 C           -0.90132870       -1.99078418       -2.14293603
 C           -1.26134329       -0.67068974       -2.63981266
 C           -1.69111267       -2.60662575       -1.17939700
 C           -2.40706915        1.39939974       -2.02362124
 C           -2.41249311       -0.04741393       -2.17447146
 C           -2.39542554        2.82072284       -0.16386975
 C           -1.98202432        2.68378415        1.21566152
 C           -2.06701809        1.38226380        1.85634267
 C           -3.09780648        1.71757439       -0.78441414
 C           -2.48226939       -0.96234580        1.71688719
 C           -2.74618760       -2.09983112        0.85406216
 C           -2.80232594       -1.87928052       -0.57735467
 C           -3.11315885       -0.60211587       -1.02556209
 C           -2.73224171        0.32206032        1.23783733
 C           -3.26141495        0.47184867       -0.05186289




