%chk=000167.chk
%mem=8GB
%Nproc=16
#p B3LYP/6-31G* opt pop=NPA

Template file

0 1
 C            3.23755408       -1.53572310        1.32519561
 C            3.66416210       -0.59772013        0.30425345
 C            3.35647646        0.73763569        0.78117512
 C            2.39997648       -0.81135616        2.26720880
 C            2.43979330        0.59103152        1.90748937
 C            1.11083875       -1.47373440        2.31517592
 C            2.40259157       -2.53255552        0.68453121
 C            1.19824866       -2.66405428        1.48065458
 C            3.10962714       -1.02710638       -0.96991925
 C            2.25571131       -2.17594240       -0.71836995
 C            2.69422125       -0.06022657       -1.87140630
 C            3.11435169        1.73235500       -0.15875606
 C            2.89982410        1.34551236       -1.54635128
 C            2.15002828        2.76966055        0.15914185
 C            1.25662277        1.32470761        1.92354197
 C            1.22380835        2.54624195        1.25510713
 C           -0.04975887       -0.70118283        2.26935030
 C            0.04975887        0.70118283        2.26935030
 C           -1.25662277       -1.32470761        1.92354197
 C            0.05204238       -3.08571561        0.82936515
 C           -1.22380835       -2.54624195        1.25510713
 C            0.98131754       -2.24990774       -1.28555680
 C            0.03763599       -3.04341179       -0.62454454
 C            1.38656933       -0.18342340       -2.49091583
 C            0.56580040       -1.27512814       -2.21201767
 C            1.76016246        2.09409965       -2.05193034
 C            1.35360926        3.02945576       -1.03238281
 C            0.78490045        1.14133260       -2.54003962
 C           -0.05204238        3.08571561        0.82936515
 C           -0.03763599        3.04341179       -0.62454454
 C           -1.11083875        1.47373440        2.31517592
 C           -1.19824866        2.66405428        1.48065458
 C           -2.43979330       -0.59103152        1.90748937
 C           -2.39997648        0.81135616        2.26720880
 C           -3.35647646       -0.73763569        0.78117512
 C           -2.15002828       -2.76966055        0.15914185
 C           -1.35360926       -3.02945576       -1.03238281
 C           -3.11435169       -1.73235500       -0.15875606
 C           -0.78490045       -1.14133260       -2.54003962
 C           -1.76016246       -2.09409965       -2.05193034
 C           -2.89982410       -1.34551236       -1.54635128
 C           -0.56580040        1.27512814       -2.21201767
 C           -0.98131754        2.24990774       -1.28555680
 C           -1.38656933        0.18342340       -2.49091583
 C           -2.69422125        0.06022657       -1.87140630
 C           -2.40259157        2.53255552        0.68453121
 C           -3.23755408        1.53572310        1.32519561
 C           -3.66416210        0.59772013        0.30425345
 C           -2.25571131        2.17594240       -0.71836995
 C           -3.10962714        1.02710638       -0.96991925




