%chk=000060.chk
%mem=8GB
%Nproc=16
#p B3LYP/6-31G* opt pop=NPA

Template file

0 1
 C           -3.46760895        2.08898806       -0.07642183
 C           -4.00516441        0.78505515       -0.40647616
 C           -3.73605556       -0.08990607        0.71824740
 C           -2.78916482        1.97763114        1.20573947
 C           -2.81358727        0.59140905        1.60957355
 C           -1.50462260        2.60906015        1.05970789
 C           -2.45154661        2.40245109       -1.06373819
 C           -1.33337883        2.96265659       -0.34221042
 C           -3.24679006        0.26466004       -1.53271840
 C           -2.19821318        1.21058614       -1.84285615
 C           -3.31158951       -1.35422392        0.16698724
 C           -2.86183256       -1.08549262       -1.19732118
 C           -2.48727492       -2.13742568        0.95596013
 C           -1.61648000       -0.05159755        1.94580982
 C           -1.59836691       -1.44885733        1.89279371
 C           -0.40253636        2.05573932        1.70004131
 C           -0.39974521        0.66486117        1.94992932
 C            0.79946978        2.68382449        1.39749998
 C           -0.05735638        2.78280834       -0.85751316
 C            0.96413931        3.12086028        0.02175744
 C           -0.88101788        0.76456574       -1.92304132
 C            0.14758062        1.69383575       -1.72548473
 C           -1.60191016       -1.54682618       -1.57399241
 C           -0.59134118       -0.61382511       -1.89248964
 C           -1.68409693       -3.12477498        0.26849893
 C           -1.24562283       -2.79531082       -1.07367258
 C           -0.33045623       -2.15427220        1.89536512
 C           -0.49228672       -3.33445906        1.05921306
 C            0.82338761       -0.04027736        2.01581068
 C            0.85114109       -1.42535641        1.82639656
 C            2.03615936        2.07596762        1.81383696
 C            2.03861064        0.64961204        2.02994416
 C            2.33647118        2.89448312       -0.36523179
 C            3.03602934        2.38607061        0.80339242
 C            1.44209349        1.32399110       -2.07917060
 C            2.58091772        1.99341822       -1.46895391
 C            0.74154643       -1.03909205       -2.05393958
 C            1.76039374       -0.08885302       -2.17733080
 C            0.11536457       -3.25724694       -1.19994632
 C            0.56021348       -3.67875472        0.12525756
 C            1.10681794       -2.34608039       -1.72369692
 C            2.00035634       -2.02716366        1.30355025
 C            1.86859279       -3.10201597        0.33945606
 C            2.30436920       -2.55598655       -0.93209293
 C            3.17608876        0.10134247        1.30335522
 C            3.67789788        1.14312920        0.42398468
 C            3.50623105        0.97358527       -1.00691003
 C            3.02702231       -0.30849190       -1.48402515
 C            3.07307796       -1.18941306        0.80664294
 C            3.13407346       -1.40488859       -0.63951770




