%chk=000061.chk
%mem=8GB
%Nproc=16
#p B3LYP/6-31G* opt pop=NPA

Template file

0 1
 C           -3.27569503       -2.33779836       -0.32973426
 C           -3.94981852       -1.05594112       -0.34939336
 C           -3.66530784       -0.39584168        0.91141077
 C           -2.54124633       -2.43099600        0.92162637
 C           -2.63677820       -1.15809323        1.59776729
 C           -1.22617679       -2.91483725        0.59884463
 C           -2.29017338       -2.33145932       -1.39678437
 C           -1.08242587       -2.89267382       -0.84852698
 C           -3.33587688       -0.25177766       -1.39186674
 C           -2.21080391       -0.99161721       -1.92820528
 C           -3.38031145        0.98646533        0.60632911
 C           -3.07650088        1.05305470       -0.82245483
 C           -2.53378101        1.66376927        1.46997522
 C           -1.46463806       -0.50118536        1.99202936
 C           -1.52056137        0.88473101        2.18197888
 C           -0.14198723       -2.44451123        1.32491646
 C           -0.21236481       -1.13567300        1.84907221
 C            1.08242587       -2.89267382        0.84852698
 C            0.14198723       -2.44451123       -1.32491646
 C            1.22617679       -2.91483725       -0.59884463
 C           -0.96501104       -0.36816428       -1.96440442
 C            0.21236481       -1.13567300       -1.84907221
 C           -1.92953199        1.73847869       -1.21440749
 C           -0.90248745        1.02569964       -1.86231243
 C           -1.87425640        2.84288992        0.94902723
 C           -1.61269054        2.87690501       -0.47537890
 C           -0.29087248        1.66010588        2.18765617
 C           -0.59277485        2.95845064        1.61403206
 C            0.96501104       -0.36816428        1.96440442
 C            0.90248745        1.02569964        1.86231243
 C            2.29017338       -2.33145932        1.39678437
 C            2.21080391       -0.99161721        1.92820528
 C            2.54124633       -2.43099600       -0.92162637
 C            3.27569503       -2.33779836        0.32973426
 C            1.46463806       -0.50118536       -1.99202936
 C            2.63677820       -1.15809323       -1.59776729
 C            0.29087248        1.66010588       -2.18765617
 C            1.52056137        0.88473101       -2.18197888
 C           -0.32969414        3.52001941       -0.65088009
 C            0.32969414        3.52001941        0.65088009
 C            0.59277485        2.95845064       -1.61403206
 C            1.92953199        1.73847869        1.21440749
 C            2.53378101        1.66376927       -1.46997522
 C            1.61269054        2.87690501        0.47537890
 C            1.87425640        2.84288992       -0.94902723
 C            3.33587688       -0.25177766        1.39186674
 C            3.94981852       -1.05594112        0.34939336
 C            3.66530784       -0.39584168       -0.91141077
 C            3.07650088        1.05305470        0.82245483
 C            3.38031145        0.98646533       -0.60632911




