%chk=000187.chk
%mem=8GB
%Nproc=16
#p B3LYP/6-31G* opt pop=NPA

Template file

0 1
 C            3.41566867       -1.69481669       -0.39604682
 C            3.50552666       -0.29899736       -0.78376663
 C            3.24600695        0.51366147        0.39232146
 C            2.95375061       -1.74171488        0.97971145
 C            2.99686291       -0.39304892        1.50946826
 C            1.68692141       -2.45409112        1.00421824
 C            2.39414251       -2.31433844       -1.21933173
 C            1.45636404       -2.97909346       -0.33380738
 C            2.67051812       -0.10359337       -1.95471996
 C            1.87502986       -1.30917768       -2.13285736
 C            2.05868581        1.12608949       -2.11869501
 C            2.47735561        1.67137100        0.24873409
 C            2.13678281        2.09855614       -1.03677949
 C            1.78718290        2.17729732        1.35236122
 C            2.05759336       -0.03836872        2.46494271
 C            1.63778447        1.34676310        2.53407266
 C            0.62003148       -1.91108446        1.72535380
 C            0.86784234       -0.86707381        2.62399111
 C           -0.69482634       -2.21173998        1.34761834
 C            0.14946334       -3.10860381       -0.76986063
 C           -0.91803948       -2.97545613        0.19905839
 C            0.48989321       -1.22182704       -2.29863949
 C           -0.26841960       -2.32986256       -1.92665696
 C            0.69391191        1.16113949       -2.60312986
 C           -0.11887605        0.03881443       -2.42233786
 C            1.03008474        3.02244081       -1.22312512
 C            0.19136830        2.48411402       -2.28471105
 C            0.53276209        2.89490871        1.16875641
 C            0.17342190        3.33917395       -0.09540113
 C            0.23843604        1.37236009        2.92741442
 C           -0.21859734        0.00045905        3.05207337
 C           -0.46578444        2.26426453        2.02199128
 C           -1.75938250       -1.55002946        1.96533597
 C           -1.51267396       -0.30248841        2.66235708
 C           -3.02929062       -1.39297339        1.27199235
 C           -2.12584886       -2.77951112       -0.58517809
 C           -1.70902054       -2.22310724       -1.86480159
 C           -3.18177817       -1.94032865       -0.05978102
 C           -1.50372264        0.19719470       -2.21457791
 C           -2.31072861       -0.91555017       -1.98863377
 C           -3.35757371       -0.82782978       -0.98021787
 C           -1.18514616        2.62199802       -1.87424621
 C           -1.20239396        3.18611184       -0.53128881
 C           -2.02291436        1.44156767       -1.85346892
 C           -1.68992183        1.86028335        1.48807730
 C           -2.31198090        0.72026072        1.99993405
 C           -3.31584509        0.03204472        1.20319824
 C           -3.47436220        0.39122093       -0.19533605
 C           -2.11761293        2.38442521        0.26776495
 C           -2.84865176        1.53818591       -0.66335043




