%chk=000154.chk
%mem=8GB
%Nproc=16
#p B3LYP/6-31G* opt pop=NPA

Template file

0 1
 C            3.95606664       -0.32289010        0.05871079
 C            3.49794387        0.56846287        1.11035292
 C            3.15498212        1.82193442        0.48087080
 C            3.50833952        0.23562170       -1.20611485
 C            3.12452705        1.60414591       -0.96204895
 C            2.52160376       -0.66577893       -1.76215437
 C            3.28058310       -1.59410155        0.24433318
 C            2.50371641       -1.87372586       -0.94941451
 C            2.47145111       -0.13052692        1.86403698
 C            2.57638602       -1.53735972        1.50790837
 C            1.20515248        0.44947381        2.01464665
 C            1.89568763        2.44414004        0.83045428
 C            1.02189502        1.80842434        1.71632782
 C            1.82650854        2.05829450       -1.42954878
 C            1.35503980        2.97023545       -0.40864737
 C            1.31220987       -0.17657838       -2.25254526
 C            0.91740013        1.15076815       -1.98194660
 C            0.35293685       -1.13163788       -2.56532794
 C            1.29907833       -2.56313305       -0.80916248
 C            0.31058342       -2.35308949       -1.77477371
 C            1.45154030       -2.32915300        1.64156345
 C            0.94265178       -3.02134963        0.46357738
 C            0.09874566       -0.38139356        2.25148349
 C            0.29118358       -1.76474265        2.29653450
 C           -1.20008541        0.14704485        2.25488549
 C           -0.24098462        2.37364672        1.86189172
 C           -1.37725236        1.52307077        2.16539642
 C            0.02166822        3.33423620       -0.41815033
 C           -0.66942731        3.33597691        0.85750599
 C           -0.43875522        1.51895352       -2.02548582
 C           -0.86394945        2.67544594       -1.36564550
 C           -1.00460234       -0.72179586       -2.83854126
 C           -1.40417914        0.61482735       -2.46515641
 C           -1.08784326       -2.65287616       -1.49484113
 C           -1.90080584       -1.66069196       -2.18085735
 C           -0.43982540       -3.36277212        0.75626581
 C           -0.80508505       -2.65872365        1.97843016
 C           -1.46434204       -3.09167284       -0.23265083
 C           -2.29319486       -0.66850384        1.94597205
 C           -2.12210653       -2.09797273        1.79199297
 C           -2.57337212       -2.44532634        0.45226741
 C           -2.66988174        0.51275840       -1.75047334
 C           -2.88043201       -0.89034633       -1.43106007
 C           -3.22455890       -0.24258565        0.91488287
 C           -3.18893156       -1.25793926       -0.12606216
 C           -2.52315311        2.02577772        1.41996608
 C           -2.07919046        3.12807420        0.59100444
 C           -2.20145868        2.70541476       -0.79328115
 C           -3.24992327        1.10126733        0.56818795
 C           -2.99454053        1.48867159       -0.81555980




