%chk=000244.chk
%mem=8GB
%Nproc=16
#p B3LYP/6-31G* opt pop=NPA

Template file

0 1
 C            3.69100160       -0.81461817        0.25097999
 C            3.41685934       -0.43070438       -1.11638635
 C            3.24394010        1.01202676       -1.14531029
 C            3.44325724        0.34432642        1.09468612
 C            3.23446931        1.49244545        0.22983376
 C            2.39814407       -0.01370448        2.03917108
 C            2.95725524       -1.92861335        0.81329246
 C            2.27565895       -1.45323069        2.00998375
 C            1.96150783       -2.61273151        0.00250808
 C            2.28431893       -1.02673174       -1.80554261
 C            1.61585072       -2.12646822       -1.26489619
 C            2.11038457        1.31109286       -2.01062144
 C            1.50129745        0.04881921       -2.39620011
 C            1.29473871        2.38789094       -1.69899357
 C            2.27954752        2.43152082        0.59841945
 C            1.52095464        3.09289868       -0.44803927
 C            1.24945247        0.77138977        2.09613231
 C            1.33604543        2.09251362        1.65555581
 C           -0.00968880        0.17551158        2.26987277
 C            0.95079648       -2.03442937        2.01103204
 C            0.91128298       -3.00512449        0.92833575
 C           -0.15838843       -1.22068293        2.22433615
 C           -0.32307233       -3.38955745        0.42473481
 C            0.35874833       -2.43257727       -1.78086273
 C           -0.55178335       -3.25553120       -1.00223883
 C            0.11361726       -0.08077734       -2.44757008
 C           -0.41998172       -1.36957490       -2.40088642
 C           -0.14208714        2.26472353       -1.87854094
 C           -0.70713194        1.02834974       -2.19911936
 C            0.22679333        3.45169686        0.10390688
 C            0.12821041        2.86847523        1.43238017
 C           -0.78385023        3.11497690       -0.88283160
 C           -1.14485929        0.98668985        2.34395579
 C           -1.09189764        2.35031178        1.84017045
 C           -2.44791289        0.43968380        1.99985302
 C           -1.41610556       -1.77562891        1.99175652
 C           -1.51992777       -2.92484274        1.10713295
 C           -2.55166532       -0.91531495        1.71869434
 C           -1.89948540       -2.74777082       -1.20126664
 C           -1.81745956       -1.57579945       -2.05817189
 C           -2.52435882       -2.62033054        0.10117603
 C           -3.13815697       -1.35312602        0.45582879
 C           -2.07965223        0.85443098       -2.02242777
 C           -2.61506030       -0.47299753       -1.78569698
 C           -3.38534779       -0.42065866       -0.54751021
 C           -2.05682902        2.78578301       -0.43612809
 C           -2.25473320        2.55120680        0.98778939
 C           -3.12333332        1.39766439        1.13960537
 C           -2.80290837        1.77051893       -1.15688662
 C           -3.53845552        0.97657920       -0.18499604




