%chk=000261.chk
%mem=8GB
%Nproc=16
#p B3LYP/6-31G* opt pop=NPA

Template file

0 1
 C            3.54979815        0.01176473        0.79892362
 C            3.56366345        0.50979604       -0.56282559
 C            3.00721933        1.85209207       -0.55496707
 C            2.90286594        1.01221402        1.63454891
 C            2.60485632        2.16806024        0.80832645
 C            1.81633921        0.36087830        2.34568870
 C            2.91791583       -1.26901043        1.07035297
 C            1.97940399       -1.07072713        2.16452851
 C            2.57047148       -2.10212100        0.00944281
 C            2.87937990       -0.25250583       -1.59124183
 C            2.57967341       -1.58942889       -1.35812780
 C            2.02218988        1.93823226       -1.62421445
 C            1.86233248        0.60712537       -2.18523439
 C            0.90064671        2.73244586       -1.43792038
 C            1.40538068        2.83891899        1.00951280
 C            0.71066004        3.37513303       -0.14785927
 C            0.53978617        0.92187442        2.30243228
 C            0.39624132        2.24432486        1.87767119
 C           -0.58497331        0.09853752        2.43443104
 C            0.86387157       -1.88744344        2.27006229
 C           -0.42111224       -1.28080194        2.57007323
 C            1.43201499       -2.99788921        0.14472097
 C            0.63578512       -2.93480615        1.28385354
 C            1.44725852       -2.16922081       -2.05432682
 C            0.80278649       -3.11744290       -1.16082394
 C            0.58497331        0.09853752       -2.43443104
 C            0.42111224       -1.28080194       -2.57007323
 C           -0.39624132        2.24432486       -1.87767119
 C           -0.53978617        0.92187442       -2.30243228
 C           -0.71066004        3.37513303        0.14785927
 C           -0.90064671        2.73244586        1.43792038
 C           -1.40538068        2.83891899       -1.00951280
 C           -1.86233248        0.60712537        2.18523439
 C           -2.02218988        1.93823226        1.62421445
 C           -2.87937990       -0.25250583        1.59124183
 C           -1.44725852       -2.16922081        2.05432682
 C           -0.80278649       -3.11744290        1.16082394
 C           -2.57967341       -1.58942889        1.35812780
 C           -0.63578512       -2.93480615       -1.28385354
 C           -0.86387157       -1.88744344       -2.27006229
 C           -1.43201499       -2.99788921       -0.14472097
 C           -2.57047148       -2.10212100       -0.00944281
 C           -1.81633921        0.36087830       -2.34568870
 C           -1.97940399       -1.07072713       -2.16452851
 C           -2.91791583       -1.26901043       -1.07035297
 C           -2.60485632        2.16806024       -0.80832645
 C           -3.00721933        1.85209207        0.55496707
 C           -3.56366345        0.50979604        0.56282559
 C           -2.90286594        1.01221402       -1.63454891
 C           -3.54979815        0.01176473       -0.79892362




