%chk=000109.chk
%mem=8GB
%Nproc=16
#p B3LYP/6-31G* opt pop=NPA

Template file

0 1
 C            3.59985622       -1.45796797        0.93742896
 C            3.92458814       -0.17262810        0.34647189
 C            3.66111113       -0.25892925       -1.07734481
 C            2.96914343       -2.26995799       -0.09006615
 C            3.03059531       -1.54585890       -1.33760065
 C            1.66766812       -2.66227028        0.40196579
 C            2.61817632       -1.23051658        1.98670545
 C            1.48111927       -2.07804256        1.72064414
 C            3.24662618        0.85378163        1.11558420
 C            2.38618909        0.19002687        2.08982595
 C            2.76394842        1.97791340        0.45637067
 C            2.84257163        0.76873290       -1.70032157
 C            2.51621091        1.91786171       -0.98224343
 C            1.79099163       -1.29553750       -2.05223109
 C            1.81574263        0.09284158       -2.47769119
 C            0.57055113       -2.66736352       -0.45414489
 C            0.58657938       -1.84563588       -1.59904332
 C           -0.64705467       -2.92197951        0.16354181
 C            0.20427874       -1.62478685        2.04172944
 C           -0.84978903       -2.34733128        1.48399135
 C            1.08072816        0.64743754        2.26804518
 C            0.01275385       -0.26557995        2.35076603
 C            1.65919400        2.69711432        1.06049982
 C            0.81867694        1.99222468        2.01099716
 C            1.25673113        2.59757709       -1.24851483
 C            0.79709979        3.18192684       -0.00489943
 C            0.60930124        0.73139570       -2.72466488
 C            0.32662573        2.01993247       -2.10420219
 C           -0.61339459       -1.31616807       -2.10047334
 C           -0.61591404       -0.04770016       -2.68256575
 C           -1.86848537       -2.75590096       -0.58837158
 C           -1.83107117       -1.88966956       -1.74278134
 C           -2.20520675       -1.83668576        1.54658636
 C           -2.88044953       -2.24364896        0.32074247
 C           -1.28832010        0.22438178        2.51297815
 C           -2.42696961       -0.57746967        2.08826971
 C           -0.54155433        2.42491420        1.76719007
 C           -0.57699583        2.96295498        0.41363792
 C           -1.58146372        1.61267134        2.18464263
 C           -1.09231338        2.04612512       -1.76177533
 C           -1.69725902        0.87653879       -2.38337198
 C           -1.51044215        2.45901989       -0.49212980
 C           -3.02494348       -1.05682382       -1.69711955
 C           -3.68059599       -1.28380506       -0.41763646
 C           -2.89283501        0.37781631       -1.88694862
 C           -3.40836146        0.31493954        1.48796882
 C           -2.80892805        1.63361653        1.41034591
 C           -2.73090030        2.00696965        0.00780605
 C           -3.95863115        0.00808916        0.17864270
 C           -3.50517980        1.03545414       -0.74723644




