%chk=000215.chk
%mem=8GB
%Nproc=16
#p B3LYP/6-31G* opt pop=NPA

Template file

0 1
 C           -3.69015627       -0.96886797        0.24364454
 C           -3.03556288       -2.05312828       -0.46503877
 C           -2.20299910       -2.75149882        0.49799620
 C           -3.15312188       -0.94240215        1.59820000
 C           -2.04773594       -1.87762458        1.64310888
 C           -2.90742283        0.43455216        1.95172983
 C           -3.60146909        0.37834313       -0.28842250
 C           -3.32964954        1.26411956        0.83254941
 C           -2.96653722        0.59940098       -1.50791955
 C           -2.20439774       -1.74970489       -1.61745791
 C           -2.18903502       -0.46265177       -2.13927920
 C           -1.00014763       -3.17865130       -0.18227563
 C           -0.94709311       -2.46258094       -1.45199941
 C            0.16480807       -3.23633604        0.56553510
 C           -0.75929345       -1.44391206        1.97349875
 C            0.29794418       -2.30627758        1.68599434
 C           -1.55680556        0.83219427        2.29118109
 C           -0.49968889       -0.07589721        2.16123535
 C           -2.34752838        2.32869072        0.68773971
 C           -1.39448219        2.17971888        1.77919634
 C           -2.25555660        1.84843272       -1.72346947
 C           -1.88896390        2.67088907       -0.58093115
 C           -0.92197131        0.10784465       -2.56356038
 C           -1.04007619        1.54655171       -2.46420193
 C            0.25708837       -1.86282928       -1.83334853
 C            0.26826962       -0.50178190       -2.17359164
 C            1.41535428       -3.20322652       -0.16239401
 C            1.43583206       -2.48059730       -1.42029780
 C            1.65880242       -1.80200347        1.68316561
 C            2.39664760       -2.58028051        0.69923887
 C            0.80629762        0.42782868        2.04743431
 C            1.88418992       -0.43072234        1.77870940
 C           -0.10703593        2.66860487        1.63460982
 C            0.99169744        1.81453617        2.04406892
 C           -0.50128762        3.06531079       -0.75376016
 C            0.04593461        2.28386160       -1.85645197
 C            0.28891561        3.27611366        0.37080975
 C            1.40762023        0.28646871       -1.93432409
 C            1.28318790        1.66683835       -1.69323637
 C            2.68516337       -1.74865520       -1.46954573
 C            3.33303245       -1.89808634       -0.16977925
 C            2.64691829       -0.33341878       -1.77387354
 C            3.10646193        0.08167452        1.32304715
 C            3.79119904       -0.58617738        0.23093201
 C            3.64486445        0.28345099       -0.92260155
 C            2.17409948        2.38429218        1.43721597
 C            1.72449635        3.08382991        0.24454695
 C            2.21502987        2.31853239       -0.88483631
 C            3.23926047        1.49451167        1.03647488
 C            3.38490264        1.61072028       -0.40926629




