%chk=000057.chk
%mem=8GB
%Nproc=16
#p B3LYP/6-31G* opt pop=NPA

Template file

0 1
 C            3.72145172       -1.35458960       -0.72964259
 C            4.03457135        0.06022864       -0.66217815
 C            3.69189563        0.52237693        0.66960734
 C            3.13831032       -1.74378534        0.54396431
 C            3.02791708       -0.56407223        1.37098429
 C            1.92975816       -2.48026569        0.25830360
 C            2.69578567       -1.53253415       -1.74211569
 C            1.67039338       -2.38129948       -1.17296349
 C            3.16023753        0.75509525       -1.59170105
 C            2.29390927       -0.22543904       -2.21671378
 C            2.97238231        1.77104733        0.52014439
 C            2.54071098        1.85300384       -0.87371533
 C            2.05825312        2.10383674        1.50878877
 C            1.81458422       -0.29910084        2.00494842
 C            1.51540293        1.02846225        2.33012305
 C            0.84156279       -2.35638279        1.11472383
 C            0.79037076       -1.26153422        2.00154908
 C           -0.34572662       -2.91019200        0.64388899
 C            0.34947272       -2.19203003       -1.57207147
 C           -0.62417455       -2.78945866       -0.77593330
 C            0.93282596        0.04712380       -2.28933229
 C            0.02348758       -1.01902540       -2.26556452
 C            1.20966447        2.16631520       -1.15069123
 C            0.48193540        1.34531869       -2.02105181
 C            0.94917533        2.96255178        1.14363609
 C            0.52073918        2.96693572       -0.24164545
 C            0.16209157        1.40157792        2.71150301
 C           -0.19550461        2.58827354        1.95699489
 C           -0.39102819       -0.97630650        2.69462618
 C           -0.78876635        0.40778909        2.87451180
 C           -1.58147545       -2.71421133        1.36840828
 C           -1.60461265       -1.72653599        2.42015861
 C           -2.02054459       -2.42012742       -0.92894517
 C           -2.61400405       -2.37381820        0.40196010
 C           -1.30719456       -0.76723094       -2.59118209
 C           -2.36493351       -1.44877601       -1.85855507
 C           -0.84428767        1.66462532       -2.30366070
 C           -1.72056315        0.61131171       -2.78434141
 C           -0.93101187        2.96426812       -0.24051090
 C           -1.35999647        2.54301566        1.08840074
 C           -1.59669375        2.46550995       -1.34843961
 C           -2.09508651        0.56214493        2.24745931
 C           -2.65892005       -0.76921230        2.11331694
 C           -3.26710029       -1.15371875        0.85283281
 C           -2.26930046        1.49216892        1.22021141
 C           -3.35793437       -0.45548215       -1.48814851
 C           -3.01803162        0.78735007       -2.15554331
 C           -2.87274797        1.81055848       -1.13640885
 C           -3.56762116       -0.16802818       -0.07876868
 C           -3.12962893        1.20226734        0.15877819




