%chk=000266.chk
%mem=8GB
%Nproc=16
#p B3LYP/6-31G* opt pop=NPA

Template file

0 1
 C            3.41655240        0.72518965       -0.82861817
 C            3.41655240       -0.72518965       -0.82861817
 C            3.25064883       -1.17318264        0.54616256
 C            3.25064883        1.17318264        0.54616256
 C            3.10893546        0.00000000        1.38981368
 C            2.20646876        2.18453787        0.56245429
 C            2.44783141        1.43491695       -1.64668521
 C            1.86130222        2.47804440       -0.82166022
 C            1.64523581        0.72943575       -2.53874424
 C            2.44783141       -1.43491695       -1.64668521
 C            1.64523581       -0.72943575       -2.53874424
 C            2.20646876       -2.18453787        0.56245429
 C            1.86130222       -2.47804440       -0.82166022
 C            1.20140411       -2.12119212        1.52841644
 C            2.13394238        0.00000000        2.37785484
 C            1.28555370       -1.17092090        2.54660226
 C            1.20140411        2.12119212        1.52841644
 C            1.28555370        1.17092090        2.54660226
 C           -0.00259479        2.79093121        1.30559587
 C            0.59141765        2.95839007       -1.11612151
 C           -0.28064874        3.32668600       -0.01603772
 C            0.28506650        1.17783011       -2.79591890
 C           -0.21997450        2.28611503       -2.12224172
 C            0.28506650       -1.17783011       -2.79591890
 C           -0.54826082       -0.00000000       -2.98605113
 C            0.59141765       -2.95839007       -1.11612151
 C           -0.21997450       -2.28611503       -2.12224172
 C           -0.00259479       -2.79093121        1.30559587
 C           -0.28064874       -3.32668600       -0.01603772
 C           -1.24894911       -2.25134524        1.83380842
 C            0.07335631       -0.72759566        3.21500949
 C            0.07335631        0.72759566        3.21500949
 C           -1.21193424       -1.17773780        2.71457496
 C           -1.24894911        2.25134524        1.83380842
 C           -1.21193424        1.17773780        2.71457496
 C           -2.02719466        0.00000000        2.45509500
 C           -1.64087145        2.95988602       -0.37348183
 C           -1.60160809        2.29062491       -1.66422810
 C           -2.23776611        2.28107572        0.76663572
 C           -1.86495254       -0.00000000       -2.53751508
 C           -2.40903038        1.17817583       -1.87792219
 C           -1.60160809       -2.29062491       -1.66422810
 C           -1.64087145       -2.95988602       -0.37348183
 C           -2.23776611       -2.28107572        0.76663572
 C           -2.40903038       -1.17817583       -1.87792219
 C           -2.92865418        0.00000000        1.39499452
 C           -3.05642949        1.17796172        0.54896145
 C           -3.29193861        0.72664445       -0.81365756
 C           -3.05642949       -1.17796172        0.54896145
 C           -3.29193861       -0.72664445       -0.81365756




