%chk=000251.chk
%mem=8GB
%Nproc=16
#p B3LYP/6-31G* opt pop=NPA

Template file

0 1
 C            3.55443483        0.89247644        0.64303233
 C            2.93001052        2.05302473        0.04484255
 C            2.03670379        2.61700354        1.03845573
 C            2.84829038        0.60371038        1.88595499
 C            1.80730831        1.59444817        2.04281983
 C            2.47767658       -0.79347349        1.87039621
 C            3.60943180       -0.33195191       -0.12669430
 C            3.14802224       -1.40597901        0.73460436
 C            2.85861807       -0.42535765       -1.36752344
 C            2.16410806        1.89520311       -1.18041831
 C            2.10054819        0.65942176       -1.82481695
 C            0.88407268        3.15513112        0.34225672
 C            0.94960568        2.68687070       -1.03975955
 C           -0.33671564        3.11343575        0.99648029
 C            0.49738282        1.18622295        2.28234449
 C           -0.52584115        2.10628950        2.03337755
 C            1.16333916       -1.16384225        2.14113665
 C            0.19156613       -0.17911478        2.40440700
 C            0.77190128       -2.43815547        1.72916035
 C            2.39947578       -2.34437981       -0.08740167
 C            2.30550639       -1.77235893       -1.42450873
 C            1.28589492       -2.95790651        0.47343063
 C            1.17855532       -2.01029157       -2.20230160
 C            1.05918264        0.43353789       -2.71949093
 C            0.66200136       -0.93054337       -3.02289113
 C           -0.21815190        2.27647650       -1.69002494
 C           -0.14954300        1.24040661       -2.62574437
 C           -1.53906155        3.13917294        0.19104474
 C           -1.45894267        2.66297378       -1.17790219
 C           -1.91179160        1.66959958        1.98569543
 C           -2.55422943        2.35788512        0.87745937
 C           -1.13471001       -0.55292011        2.63989655
 C           -2.20718150        0.33503926        2.22958385
 C           -0.61107178       -2.84928338        1.83061643
 C           -1.57632862       -1.90072940        2.33623098
 C            0.13454928       -3.26819025       -0.35980949
 C            0.03963184       -2.71722307       -1.63182841
 C           -1.03810466       -3.25792539        0.49971443
 C           -0.78902840       -0.99284235       -2.98734504
 C           -1.29263270        0.35598692       -2.82683222
 C           -1.16970438       -1.99939437       -2.01322637
 C           -2.62069324        1.82144844       -1.40675309
 C           -3.25816653        1.57763486       -0.12223370
 C           -2.43624402        0.54559256       -2.06782031
 C           -3.05489632       -0.40648390        1.29990563
 C           -2.64267775       -1.79535891        1.35336259
 C           -2.17494831       -2.43107003        0.13394984
 C           -2.13326355       -1.69396333       -1.04958830
 C           -3.36261483        0.14221191        0.06105622
 C           -2.86127452       -0.50246526       -1.14630072




