%chk=000048.chk
%mem=8GB
%Nproc=16
#p B3LYP/6-31G* opt pop=NPA

Template file

0 1
 C            3.89897741       -1.36139820        0.51168369
 C            4.22458730        0.02549837        0.24222969
 C            3.52803455        0.83615040        1.22400945
 C            2.95836924       -1.38894696        1.62058648
 C            2.64605055       -0.02858565        1.99033960
 C            1.86555430       -2.24074156        1.23422571
 C            3.20954296       -1.89085665       -0.65297768
 C            2.01396946       -2.56000162       -0.17843605
 C            3.67848860        0.36813697       -1.06063823
 C            3.06260913       -0.82141747       -1.61944129
 C            2.92846581        1.94476435        0.51479142
 C            2.86906320        1.56397372       -0.89455091
 C            1.80144638        2.51804885        1.07669154
 C            1.30778811        0.35026822        2.13489899
 C            1.00194418        1.70155427        1.98696588
 C            0.58857101       -1.93894135        1.67633606
 C            0.28001682       -0.60526303        2.01725794
 C           -0.40377669       -2.71501239        1.10465598
 C            0.86069982       -2.55183959       -0.96481428
 C           -0.32529507       -2.92225712       -0.33219133
 C            1.84906273       -0.69406908       -2.28007525
 C            0.79387915       -1.67829095       -2.05495882
 C            1.65534890        1.67408268       -1.58053243
 C            1.21471195        0.61528718       -2.37611279
 C            0.87463334        3.17220244        0.18059708
 C            0.73957171        2.63727244       -1.16153143
 C           -0.37992381        2.11637778        1.85112357
 C           -0.42868212        3.12450945        0.80608780
 C           -1.06900592       -0.18896180        2.04192788
 C           -1.39625897        1.16902265        1.88589179
 C           -1.77656855       -2.44934851        1.44586736
 C           -2.08255655       -1.15468699        2.00403401
 C           -1.60485541       -2.50536473       -0.88055574
 C           -2.55073687       -2.58123587        0.22377820
 C           -0.46777824       -1.03249928       -2.39448376
 C           -0.21083970        0.39125149       -2.56553100
 C           -1.64720565       -1.43548937       -1.77692836
 C           -0.68517097        2.45552306       -1.41616700
 C           -1.40775437        2.95638508       -0.24716418
 C           -1.13713326        1.30963934       -2.07958163
 C           -2.61599799        1.53456990        1.30564357
 C           -2.60211321        2.34887183        0.09824022
 C           -3.40008564       -0.81395640        1.49675161
 C           -3.62712335       -1.61893939        0.30156522
 C           -3.67730097        0.56119450        1.15597406
 C           -2.72036963       -0.54158082       -1.76197798
 C           -2.45285859        0.88474657       -1.89317811
 C           -3.27564077        1.57471189       -0.91806067
 C           -3.80549487       -0.70757799       -0.80622894
 C           -4.10085945        0.59321934       -0.23603693




