%chk=000116.chk
%mem=8GB
%Nproc=16
#p B3LYP/6-31G* opt pop=NPA

Template file

0 1
 C            3.22494868       -2.21747936       -0.57433524
 C            3.73761244       -0.86327523       -0.50195586
 C            3.65184014       -0.43366854        0.88107207
 C            2.63897075       -2.53635395        0.71806056
 C            2.86075538       -1.41578815        1.60394063
 C            1.27447903       -2.94948385        0.48243557
 C            2.15313405       -2.23136116       -1.55668255
 C            1.01828790       -2.88376106       -0.94700357
 C            3.05312839       -0.07346597       -1.51317140
 C            1.96394014       -0.88268415       -2.04022484
 C            2.81069557        1.26766096       -1.25700927
 C            3.08737214        0.87361973        1.14957817
 C            2.99611800        1.77862709        0.09979255
 C            1.70342815       -0.73450549        2.16294307
 C            1.92463006        0.69270084        2.01409912
 C            0.26211833       -2.49450264        1.32237515
 C            0.42287122       -1.24388263        1.95019106
 C           -1.01828790       -2.88376106        0.94700357
 C           -0.26211833       -2.49450264       -1.32237515
 C           -1.27447903       -2.94948385       -0.48243557
 C            0.66648906       -0.36769942       -2.05829549
 C           -0.42287122       -1.24388263       -1.95019106
 C            1.57599252        1.84723387       -1.74915619
 C            0.46968396        1.01762871       -1.95322125
 C            2.08757344        2.89591155        0.25540997
 C            1.41455604        3.08529184       -1.01883133
 C            0.82942847        1.54432258        1.86376425
 C            1.04313208        2.78579563        1.25412134
 C           -0.66648906       -0.36769942        2.05829549
 C           -0.46968396        1.01762871        1.95322125
 C           -2.15313405       -2.23136116        1.55668255
 C           -1.96394014       -0.88268415        2.04022484
 C           -2.63897075       -2.53635395       -0.71806056
 C           -3.22494868       -2.21747936        0.57433524
 C           -1.70342815       -0.73450549       -2.16294307
 C           -2.86075538       -1.41578815       -1.60394063
 C           -0.82942847        1.54432258       -1.86376425
 C           -1.92463006        0.69270084       -2.01409912
 C            0.07474146        3.53911879       -0.72492397
 C           -0.07474146        3.53911879        0.72492397
 C           -1.04313208        2.78579563       -1.25412134
 C           -1.57599252        1.84723387        1.74915619
 C           -1.41455604        3.08529184        1.01883133
 C           -2.08757344        2.89591155       -0.25540997
 C           -3.05312839       -0.07346597        1.51317140
 C           -3.73761244       -0.86327523        0.50195586
 C           -3.65184014       -0.43366854       -0.88107207
 C           -3.08737214        0.87361973       -1.14957817
 C           -2.81069557        1.26766096        1.25700927
 C           -2.99611800        1.77862709       -0.09979255




