%chk=000171.chk
%mem=8GB
%Nproc=16
#p B3LYP/6-31G* opt pop=NPA

Template file

0 1
 C            3.19181850       -0.82432587        1.86794882
 C            3.39926883        0.48829099        1.28676868
 C            3.50033296        0.33202149       -0.15573493
 C            3.01870124       -1.76910146        0.77774863
 C            3.25443668       -1.06961483       -0.47007428
 C            1.74584511       -2.44053487        0.96815139
 C            1.94808149       -0.78182218        2.61793191
 C            1.10713800       -1.85753869        2.14163204
 C            2.38661128        1.38023548        1.82779353
 C            1.42329056        0.56575923        2.55416548
 C            1.92159804        2.41695105        1.03091484
 C            2.97624068        1.32883849       -0.97254924
 C            2.36398990        2.49493700       -0.35386124
 C            2.17121220        0.97020652       -2.13149805
 C            2.47671884       -1.40543887       -1.57112868
 C            2.01473629       -0.36499306       -2.47830156
 C            0.95544206       -2.74346832       -0.14262245
 C            1.39568105       -2.37271814       -1.41851095
 C           -0.40032507       -3.00716449        0.07454443
 C           -0.26778314       -1.66790938        2.10507055
 C           -0.98881522       -2.56567242        1.32612002
 C            0.06260353        0.73654185        2.30924510
 C           -0.78719231       -0.38169809        2.32651250
 C            0.50714528        2.74884613        1.05659427
 C           -0.38375767        1.95209323        1.77692491
 C            1.22458656        2.88659720       -1.16650708
 C            1.01932532        1.86350329       -2.17475114
 C            0.12926642        3.20366070       -0.27481924
 C           -0.26451563        1.34693411       -2.37174578
 C            0.74601984       -0.79644258       -3.03433709
 C            0.42519388       -2.09395755       -2.46284345
 C           -0.41820798        0.05896730       -2.88015961
 C           -1.38199011       -2.75419768       -0.97424533
 C           -0.98348093       -2.09840350       -2.12655101
 C           -1.51677248       -0.77024684       -2.40677155
 C           -2.40387660       -2.35766762        1.10476921
 C           -2.61626898       -2.33658673       -0.33448923
 C           -2.16841850       -0.18715275        2.30656363
 C           -3.01883241       -1.16981545        1.65858339
 C           -1.74618206        2.15801476        1.57595066
 C           -2.68600476        1.11566095        1.93912436
 C           -1.16216588        2.94891524       -0.70946109
 C           -1.36324413        1.97164545       -1.77639543
 C           -2.17527443        2.70241129        0.29985864
 C           -2.48138563       -0.21322920       -1.56604620
 C           -3.17034317       -1.03701438       -0.66931981
 C           -3.70210073       -0.49202542        0.56989458
 C           -3.59849838        0.92988222        0.81686230
 C           -2.53532932        1.17617252       -1.43512229
 C           -3.14451899        1.78165385       -0.26182716




