%chk=000090.chk
%mem=8GB
%Nproc=16
#p B3LYP/6-31G* opt pop=NPA

Template file

0 1
 C            3.84667316       -1.15961809        0.95356240
 C            3.03228868       -2.18208145        0.31842017
 C            2.98314115       -1.88918650       -1.09359810
 C            4.10426918       -0.12234302       -0.03288827
 C            3.54691592       -0.56259959       -1.29470456
 C            3.65128368        1.13524851        0.52283881
 C            3.05997629       -0.56635759        2.02151599
 C            3.06802769        0.86392087        1.83110676
 C            1.77473191       -2.26880893        1.03795056
 C            1.77998678       -1.24328463        2.06255741
 C            0.58491387       -2.46432724        0.33632872
 C            1.68775413       -1.91430814       -1.73913234
 C            0.59089430       -2.44538536       -1.07144613
 C            2.53281615        0.24944590       -1.95130200
 C            1.50528221       -0.65540204       -2.44087057
 C            2.68788087        1.93854864       -0.21457474
 C            2.15271493        1.48396792       -1.42682895
 C            1.80375984        1.57417266        1.89181393
 C            1.80024291        2.50958882        0.78606738
 C            0.60808396       -0.51396718        2.24324823
 C            0.62256144        0.89137140        2.18382360
 C           -0.60801097       -2.17632779        1.00969145
 C           -0.59274665       -1.17450080        1.99498508
 C           -1.80532542       -2.57560557        0.41832887
 C           -0.62361392       -2.31634719       -1.73342654
 C           -1.84477621       -2.63516895       -1.02323831
 C            0.20373134       -0.18447202       -2.62705698
 C           -0.85210219       -1.08957495       -2.48706216
 C            0.96211439        2.04388123       -1.88106676
 C           -0.04662736        1.18179618       -2.48760412
 C            0.58563518        3.03561579        0.37701830
 C            0.27447396        3.00752889       -1.03979035
 C           -0.58554299        1.57002938        1.98811989
 C           -0.62345878        2.64496973        1.08972301
 C           -1.76455374       -0.52561221        2.36682230
 C           -1.77580272        0.92279082        2.31389979
 C           -3.06629296       -2.00499871        0.85209251
 C           -3.04827195       -1.00884977        1.89792695
 C           -2.86401798       -1.69878357       -1.46231391
 C           -2.17901628       -0.60607999       -2.13510465
 C           -3.70386289       -1.41276197       -0.31802954
 C           -1.35679565        1.64065722       -2.04060912
 C           -1.15459449        2.79171984       -1.18012117
 C           -1.73166012        2.76584485        0.14881967
 C           -2.33164782        0.70902231       -1.69524392
 C           -2.99223686        1.31994873        1.62854305
 C           -3.80799973        0.13535427        1.42556108
 C           -3.99333034       -0.02973885       -0.00634271
 C           -2.86161859        1.99031284        0.35242008
 C           -3.23624734        1.02075529       -0.67083007




