%chk=000037.chk
%mem=8GB
%Nproc=16
#p B3LYP/6-31G* opt pop=NPA

Template file

0 1
 C           -3.64397456        1.40030814        1.11116978
 C           -3.90689884        1.30109957       -0.31418456
 C           -3.85223738       -0.10222514       -0.67772906
 C           -3.36769322        0.06431564        1.61076563
 C           -3.59807541       -0.87518029        0.53008025
 C           -2.06188537        0.08492808        2.25179413
 C           -2.43559729        2.18446064        1.28389495
 C           -1.52765916        1.42979552        2.12991938
 C           -2.82652726        1.97412328       -1.01557293
 C           -1.95665446        2.58305138       -0.02664948
 C           -2.93766056       -0.23438464       -1.80230212
 C           -2.23817652        1.03380829       -1.95487305
 C           -2.22228491       -1.41567786       -1.93446616
 C           -2.77423887       -1.98839619        0.43944580
 C           -2.31899553       -2.40784237       -0.87590883
 C           -1.19537890       -0.99023680        2.06653121
 C           -1.63427488       -2.10519827        1.34109444
 C            0.17693036       -0.79161776        2.25680649
 C           -0.16487289        1.56672755        1.90102126
 C            0.67645389        0.52136768        2.27644757
 C           -0.58619005        2.53273823       -0.24431167
 C            0.24497417        2.40898355        0.86582551
 C           -0.85235177        1.03996037       -2.11038853
 C           -0.12021458        2.04404337       -1.46437979
 C           -0.83231891       -1.35894219       -2.35536684
 C           -0.20330288       -0.12968132       -2.52789099
 C           -1.01481652       -3.02702889       -0.71711590
 C           -0.66298422       -2.97267973        0.68833802
 C           -0.10802136       -2.42542244       -1.67851304
 C            1.03379549       -1.86984233        2.03191077
 C            0.67496445       -2.83516504        1.01562524
 C            2.46159682       -1.65786727        1.89889739
 C            2.05003317        0.76511011        2.27955814
 C            2.98512892       -0.32623743        2.09233725
 C            1.60578279        2.62929224        0.68336876
 C            2.54708288        1.89134853        1.50832144
 C            1.23563538        2.18370845       -1.74469078
 C            2.11706883        2.63349727       -0.67714660
 C            1.18369935       -0.13522239       -2.63134428
 C            1.90686422        1.10589923       -2.44115551
 C            1.21735890       -2.20531784       -1.30603576
 C            1.64625382       -2.66250072       -0.05609860
 C            2.83610405       -2.09756005        0.56006626
 C            1.92551697       -1.19526225       -1.96166932
 C            3.80601811       -0.00421486        0.93642315
 C            3.61763853        1.40714682        0.64924974
 C            3.32135844        1.81959353       -0.70981017
 C            3.14148524        0.80612411       -1.73321861
 C            3.52053563       -0.99764165       -0.08951056
 C            3.11100588       -0.60008586       -1.35855941




