%chk=000056.chk
%mem=8GB
%Nproc=16
#p B3LYP/6-31G* opt pop=NPA

Template file

0 1
 C            3.19514835       -2.47243977        0.20679366
 C            3.82750720       -1.42265190       -0.56719700
 C            3.86308672       -0.23797012        0.26520960
 C            2.71025127       -1.88501820        1.44750773
 C            3.02816489       -0.47758270        1.43030360
 C            1.32734799       -2.26449444        1.59176539
 C            2.03008981       -2.91278920       -0.53438181
 C            0.95627832       -3.05181558        0.42310455
 C            2.96272168       -1.11568119       -1.69636420
 C            1.81217833       -1.98823457       -1.62570351
 C            3.50478756        0.87632802       -0.58300310
 C            2.73926737        0.31335394       -1.69356143
 C            2.97781961        1.98939568        0.04595056
 C            2.03763107        0.46225564        1.72313861
 C            2.30000345        1.77235258        1.32153208
 C            0.40374788       -1.32865485        2.05604805
 C            0.70112649        0.04503373        1.93263040
 C           -0.92595355       -1.74430801        2.01582862
 C           -0.34481367       -2.89072971       -0.02809645
 C           -1.27972129       -2.69820821        0.97801339
 C            0.53598947       -1.44966811       -1.74647005
 C           -0.52864726       -2.19392075       -1.23505413
 C            1.45573807        0.80624865       -1.94397746
 C            0.35810213       -0.07066168       -1.95806149
 C            2.09641805        2.82348010       -0.73726503
 C            1.23722905        2.15965347       -1.70353502
 C            1.27165202        2.77680759        1.44693186
 C            1.25732218        3.53392676        0.20439446
 C           -0.35004793        0.99082400        1.92454986
 C           -0.08373689        2.34537060        1.70707711
 C           -1.99078384       -0.76807072        2.06509524
 C           -1.68198017        0.56747073        1.84095853
 C           -2.66096785       -2.48584273        0.61436092
 C           -3.14689264       -1.37408713        1.41324537
 C           -1.81269484       -1.82384713       -1.62096529
 C           -2.93639305       -2.18368650       -0.77149879
 C           -0.94816050        0.44347377       -2.00382337
 C           -2.01721090       -0.45809525       -2.07567588
 C           -0.11306506        2.64629771       -1.49386593
 C           -0.09535955        3.48708483       -0.30528568
 C           -0.94325091        3.09195611        0.79952716
 C           -1.19043000        1.78018662       -1.64393469
 C           -2.62981458        1.41461913        1.25804466
 C           -2.16016605        2.52978637        0.46797837
 C           -2.33442247        2.09476107       -0.90711545
 C           -3.98858583       -0.56313008        0.55624788
 C           -3.89117991       -1.09285940       -0.79674769
 C           -3.34163708       -0.04548879       -1.64009556
 C           -3.72807249        0.85689937        0.48494614
 C           -3.46562065        1.19237027       -0.90950481




