%chk=000267.chk
%mem=8GB
%Nproc=16
#p B3LYP/6-31G* opt pop=NPA

Template file

0 1
 C            3.17833728        1.63117399       -0.12691536
 C            2.71022398        1.96250138        1.20546042
 C            2.70424874        0.74064904        1.99543384
 C            3.49160250        0.21044713       -0.15171888
 C            3.19317122       -0.34199189        1.15802218
 C            2.85285679       -0.36868590       -1.32274489
 C            2.32762767        1.91992110       -1.26917277
 C            2.28314501        0.72557365       -2.09726609
 C            1.17692149        2.68449189       -1.09868484
 C            1.41252548        2.59607844        1.36214109
 C            0.72719125        3.05269443        0.23953403
 C            1.39277307        0.61598470        2.61405527
 C            0.69298617        1.86929959        2.39705429
 C            0.70253574       -0.59189132        2.50732435
 C            2.56029244       -1.57496582        1.23207081
 C            1.41816937       -1.72659515        2.11751151
 C            2.15477650       -1.57056478       -1.19821880
 C            2.22149902       -2.27680668        0.00293613
 C            1.17384342       -1.89458546       -2.13638669
 C            1.17888394        0.48565058       -2.90575734
 C            0.72735980       -0.88238234       -3.07898844
 C            0.00000000        2.40971226       -1.90895294
 C            0.00000000        1.33350537       -2.79227696
 C           -0.72719125        3.05269443        0.23953403
 C           -1.17692149        2.68449189       -1.09868484
 C           -0.69298617        1.86929959        2.39705429
 C           -1.41252548        2.59607844        1.36214109
 C           -0.70253574       -0.59189132        2.50732435
 C           -1.39277307        0.61598470        2.61405527
 C           -1.41816937       -1.72659515        2.11751151
 C            0.72169773       -2.92315877        1.68934422
 C            1.17211784       -3.22722779        0.33818810
 C           -0.72169773       -2.92315877        1.68934422
 C           -0.00000000       -2.65542038       -1.73190226
 C           -0.00000000       -3.31901728       -0.51331211
 C           -1.17211784       -3.22722779        0.33818810
 C           -0.72735980       -0.88238234       -3.07898844
 C           -1.17888394        0.48565058       -2.90575734
 C           -1.17384342       -1.89458546       -2.13638669
 C           -2.32762767        1.91992110       -1.26917277
 C           -2.28314501        0.72557365       -2.09726609
 C           -2.71022398        1.96250138        1.20546042
 C           -2.70424874        0.74064904        1.99543384
 C           -3.17833728        1.63117399       -0.12691536
 C           -2.56029244       -1.57496582        1.23207081
 C           -2.22149902       -2.27680668        0.00293613
 C           -2.15477650       -1.57056478       -1.19821880
 C           -2.85285679       -0.36868590       -1.32274489
 C           -3.19317122       -0.34199189        1.15802218
 C           -3.49160250        0.21044713       -0.15171888




