%chk=000105.chk
%mem=8GB
%Nproc=16
#p B3LYP/6-31G* opt pop=NPA

Template file

0 1
 C            3.91460473       -0.98513291        0.43597606
 C            3.90896148        0.23220203       -0.35549641
 C            3.54609613        1.32216947        0.53010423
 C            3.25773641       -0.68960458        1.69964964
 C            3.08886463        0.74073291        1.78657069
 C            2.07923824       -1.52514568        1.79038909
 C            3.10725121       -1.97181035       -0.26113224
 C            2.08147741       -2.43246458        0.65407265
 C            3.10505426       -0.00903495       -1.54240907
 C            2.68819972       -1.40500914       -1.52544382
 C            2.22022910        0.97260390       -1.98126029
 C            2.53220385        2.26995168        0.10108291
 C            1.99595120        2.17149545       -1.18061195
 C            1.76225843        1.26865685        2.04830363
 C            1.63542527        2.45897124        1.22944440
 C            0.85856852       -0.98489464        2.19713325
 C            0.66376388        0.40678394        2.16389920
 C           -0.24270555       -1.82388091        2.08498344
 C            0.84730296       -2.82949200        0.14763212
 C           -0.21411760       -2.84555427        1.04777252
 C            1.43439570       -1.75561495       -2.00957630
 C            0.57756564       -2.62811350       -1.21286104
 C            0.94985165        0.58924630       -2.57812814
 C            0.58230958       -0.74598153       -2.62212169
 C            0.62643518        2.60473198       -1.40650982
 C           -0.03944644        1.58793555       -2.21256937
 C            0.36353040        2.95712750        1.00502782
 C           -0.07210733        3.20093598       -0.36375593
 C           -0.62400966        0.94316405        1.99154574
 C           -0.74451769        2.29834794        1.66637203
 C           -1.57866387       -1.26842037        2.11232822
 C           -1.74810973        0.10305293        1.94820291
 C           -1.56825761       -3.02254078        0.55993621
 C           -2.43274945       -2.19496594        1.38270297
 C           -0.78902432       -2.39195196       -1.66234293
 C           -0.79806289       -1.11196901       -2.35777933
 C           -1.85106457       -2.71428711       -0.82809947
 C           -1.34820155        1.20934499       -1.90122623
 C           -1.73318506       -0.14007390       -1.99744893
 C           -1.52209369        3.10916111       -0.36414959
 C           -1.93053337        2.77855928        0.99251268
 C           -2.15488315        2.13321267       -1.23168970
 C           -2.98306898        0.58362878        1.49320738
 C           -3.07097960        1.89889332        0.89505743
 C           -3.33643168        1.69004128       -0.52176999
 C           -3.46772665       -1.66414868        0.52099757
 C           -3.03877754       -1.87645889       -0.85524759
 C           -2.96132020       -0.57018162       -1.48915878
 C           -3.81180571       -0.26342898        0.65349531
 C           -3.76543169        0.31921013       -0.67761151




