%chk=000059.chk
%mem=8GB
%Nproc=16
#p B3LYP/6-31G* opt pop=NPA

Template file

0 1
 C            3.44972980       -2.10028367        0.05200982
 C            3.97133623       -0.88215384       -0.53569915
 C            3.79877994        0.17762757        0.43846416
 C            2.86148514       -1.76015054        1.33868280
 C            2.97176479       -0.33097004        1.51956747
 C            1.54376991       -2.34800113        1.37749943
 C            2.36962248       -2.56449018       -0.79751080
 C            1.28508895       -2.95199801        0.07643037
 C            3.13667206       -0.54486188       -1.67808610
 C            2.08838466       -1.53562654       -1.77551134
 C            3.31637925        1.33484372       -0.28200616
 C            2.75146873        0.84063804       -1.53580030
 C            2.56920050        2.25686961        0.43272630
 C            1.84034386        0.40111695        1.88362720
 C            1.83336419        1.77158771        1.59651602
 C            0.49992126       -1.64722821        1.97886201
 C            0.63040040       -0.25860626        2.17297782
 C           -0.77171325       -2.19572714        1.79799720
 C           -0.01352129       -2.84950215       -0.40242465
 C           -0.99995480       -2.93538729        0.57045662
 C            0.76665088       -1.11829542       -1.89666413
 C           -0.23896959       -2.00381766       -1.50192460
 C            1.45589133        1.22757426       -1.87783783
 C            0.45859761        0.24506774       -2.05286032
 C            1.65545645        3.08885701       -0.32140696
 C            1.09009702        2.52656264       -1.53264261
 C            0.59995755        2.53624686        1.69226098
 C            0.55069879        3.43544799        0.55212873
 C           -0.49723959        0.50142612        2.49733007
 C           -0.55859425        1.90182590        2.11751841
 C           -1.96248669       -1.40703866        2.05505097
 C           -1.82838902       -0.05235580        2.31705452
 C           -2.38470293       -2.77469311        0.18945043
 C           -3.00256477       -1.87160450        1.14878954
 C           -1.54213529       -1.72755606       -1.90180928
 C           -2.65504232       -2.26915629       -1.13679770
 C           -0.88620591        0.62272560       -2.21912947
 C           -1.87469720       -0.36263764       -2.27224867
 C           -0.29853653        2.91903523       -1.57455680
 C           -0.64367338        3.47138939       -0.26912304
 C           -1.28915494        1.91993782       -1.89931974
 C           -1.81932884        2.11975438        1.41383134
 C           -2.62841364        0.92388474        1.58228141
 C           -1.83553512        2.78167937        0.18929662
 C           -2.39263687        2.11008386       -0.97150023
 C           -3.77819187       -0.89967045        0.40128396
 C           -3.66603239       -1.23643765       -1.00966648
 C           -3.18002747       -0.05935885       -1.70341905
 C           -3.46510344        0.51098721        0.54648805
 C           -3.28221041        1.06243926       -0.79063688




