%chk=000001.chk
%mem=8GB
%Nproc=16
#p B3LYP/6-31G* opt pop=NPA

Template file

0 1
 C            2.02925414       -1.60819986       -0.57340655
 C            2.63522043       -0.28936227       -0.66677423
 C            2.63522043        0.28936227        0.66677423
 C            1.54708332       -1.78374827        0.78803436
 C            1.77945469       -0.53885816        1.50175518
 C            0.19282368       -2.30184198        0.70322084
 C            0.86271912       -1.62823764       -1.43890357
 C           -0.19282368       -2.30184198       -0.70322084
 C            1.77945469        0.53885816       -1.50175518
 C            0.64365370       -0.27174970       -1.92416838
 C            2.02925414        1.60819986        0.57340655
 C            1.54708332        1.78374827       -0.78803436
 C            0.64365370        0.27174970        1.92416838
 C            0.86271912        1.62823764        1.43890357
 C           -0.86271912       -1.62823764        1.43890357
 C           -0.64365370       -0.27174970        1.92416838
 C           -1.54708332       -1.78374827       -0.78803436
 C           -2.02925414       -1.60819986        0.57340655
 C           -0.64365370        0.27174970       -1.92416838
 C           -1.77945469       -0.53885816       -1.50175518
 C            0.19282368        2.30184198       -0.70322084
 C           -0.19282368        2.30184198        0.70322084
 C           -0.86271912        1.62823764       -1.43890357
 C           -1.77945469        0.53885816        1.50175518
 C           -2.63522043       -0.28936227        0.66677423
 C           -2.63522043        0.28936227       -0.66677423
 C           -1.54708332        1.78374827        0.78803436
 C           -2.02925414        1.60819986       -0.57340655

