%chk=000007.chk
%mem=8GB
%Nproc=32
#p B3LYP/6-31G* opt pop=NPA

Template file

0 1
 C            3.71230567       -0.21394939       -0.63764326
 C            3.16488763       -1.54511654       -0.82318462
 C            2.59259714       -1.96455503        0.44251526
 C            3.45413547        0.18395941        0.73653862
 C            2.57375048       -0.81334766        1.32675198
 C            3.02157120        1.56304874        0.69599026
 C            2.95762365        0.69393319       -1.48354843
 C            2.68461427        1.87189011       -0.69097819
 C            2.06295901       -1.44564368       -1.76425179
 C            1.83260817       -0.04204253       -2.03608704
 C            1.32978353       -2.60273883        0.14477655
 C            0.96392190       -2.21520614       -1.21638267
 C            0.33963302       -2.53801859        1.11345327
 C            1.35662406       -0.43380907        1.90994547
 C            0.32541136       -1.37320608        1.99685677
 C            1.89004326        1.95047867        1.51410951
 C            1.05623734        0.91741007        2.10735068
 C            1.33766533        2.40350788       -0.69462147
 C            1.02455352        2.75417074        0.67447748
 C            0.53747370        0.45266243       -1.87610552
 C            0.33995942        1.77550931       -1.43996287
 C           -0.33995942       -1.77550931       -1.43996287
 C           -0.53747370       -0.45266243       -1.87610552
 C           -1.02455352       -2.75417074        0.67447748
 C           -1.33766533       -2.40350788       -0.69462147
 C           -1.05623734       -0.91741007        2.10735068
 C           -1.89004326       -1.95047867        1.51410951
 C           -0.32541136        1.37320608        1.99685677
 C           -0.33963302        2.53801859        1.11345327
 C           -1.35662406        0.43380907        1.90994547
 C           -0.96392190        2.21520614       -1.21638267
 C           -1.32978353        2.60273883        0.14477655
 C           -1.83260817        0.04204253       -2.03608704
 C           -2.06295901        1.44564368       -1.76425179
 C           -2.68461427       -1.87189011       -0.69097819
 C           -3.02157120       -1.56304874        0.69599026
 C           -2.95762365       -0.69393319       -1.48354843
 C           -2.57375048        0.81334766        1.32675198
 C           -2.59259714        1.96455503        0.44251526
 C           -3.16488763        1.54511654       -0.82318462
 C           -3.45413547       -0.18395941        0.73653862
 C           -3.71230567        0.21394939       -0.63764326




