%chk=000040.chk
%mem=8GB
%Nproc=32
#p B3LYP/6-31G* opt pop=NPA

Template file

0 1
 C           -2.04965334        2.27619391        1.27729981
 C           -1.25020885        2.87630389        0.22389590
 C            0.13724245        2.85839955        0.65380763
 C           -1.13789543        1.66754679        2.23052039
 C            0.21978740        1.99225308        1.82435020
 C           -1.50632364        0.27109786        2.37722846
 C           -2.83954176        1.21262335        0.68432497
 C           -2.58005746       -0.00856816        1.43178660
 C           -1.60209118        2.23779683       -1.03417446
 C           -2.60822777        1.22265231       -0.75267203
 C           -0.59461459        1.97847220       -1.95806934
 C            1.13176747        2.78387187       -0.31352836
 C            0.76047911        2.43819258       -1.67904726
 C            2.35910053        2.07390002        0.00085973
 C            1.20313658        1.00389606        1.88428021
 C            2.37134635        1.16551927        1.13469627
 C           -0.49381625       -0.66050764        2.56760632
 C            0.89539083       -0.23271137        2.46385823
 C           -0.59461459       -1.97847220        1.95806934
 C           -2.60822777       -1.22265231        0.75267203
 C           -1.60209118       -2.23779683        1.03417446
 C           -2.58005746        0.00856816       -1.43178660
 C           -2.83954176       -1.21262335       -0.68432497
 C           -0.49381625        0.66050764       -2.56760632
 C           -1.50632364       -0.27109786       -2.37722846
 C            1.68121588        1.41360580       -2.14452971
 C            2.75159461        1.31005635       -1.17540719
 C            0.89539083        0.23271137       -2.46385823
 C            3.15136906        0.00857018        0.72662649
 C            3.15136906       -0.00857018       -0.72662649
 C            1.68121588       -1.41360580        2.14452971
 C            0.76047911       -2.43819258        1.67904726
 C            2.75159461       -1.31005635        1.17540719
 C            1.20313658       -1.00389606       -1.88428021
 C            2.37134635       -1.16551927       -1.13469627
 C            1.13176747       -2.78387187        0.31352836
 C            2.35910053       -2.07390002       -0.00085973
 C           -1.25020885       -2.87630389       -0.22389590
 C           -2.04965334       -2.27619391       -1.27729981
 C           -1.13789543       -1.66754679       -2.23052039
 C            0.13724245       -2.85839955       -0.65380763
 C            0.21978740       -1.99225308       -1.82435020




