%chk=000022.chk
%mem=8GB
%Nproc=32
#p B3LYP/6-31G* opt pop=NPA

Template file

0 1
 C            3.78762256        0.00000000        0.00186066
 C            3.26825144       -1.17532065       -0.67862574
 C            2.52543788       -0.72824138       -1.83837619
 C            3.26825144        1.17532065       -0.67862574
 C            2.52543788        0.72824138       -1.83837619
 C            2.58802930        1.99123895        0.30505696
 C            3.25785723        0.00000000        1.35677238
 C            2.54565169        1.24378668        1.55600951
 C            2.58802930       -1.99123895        0.30505696
 C            2.54565169       -1.24378668        1.55600951
 C            1.23164684       -2.44746450        0.04006917
 C            1.14884711       -1.16652088       -2.01403632
 C            0.58033465       -2.10678849       -1.15334283
 C            1.14884711        1.16652088       -2.01403632
 C            0.36791736       -0.00000000       -2.39088325
 C            1.23164684        2.44746450        0.04006917
 C            0.58033465        2.10678849       -1.15334283
 C            1.15484025        1.21327157        1.98771844
 C            0.51344542        2.31424684        1.29884083
 C            1.15484025       -1.21327157        1.98771844
 C            0.51344542       -2.31424684        1.29884083
 C            0.46776812        0.00000000        2.09934841
 C           -0.86848815       -2.35646310        1.26919946
 C           -0.80247298       -2.27042175       -1.20770654
 C           -1.48832112       -2.68592103        0.00279375
 C           -1.00139205       -0.00000000       -2.14407042
 C           -1.60872330       -1.21476076       -1.80893173
 C           -0.80247298        2.27042175       -1.20770654
 C           -1.60872330        1.21476076       -1.80893173
 C           -0.86848815        2.35646310        1.26919946
 C           -1.48832112        2.68592103        0.00279375
 C           -0.92918317        0.00000000        1.98358899
 C           -1.60065580       -1.21516590        1.79448295
 C           -1.60065580        1.21516590        1.79448295
 C           -2.81693443       -2.10062040       -0.00213078
 C           -2.91660785       -1.24269536       -1.16942351
 C           -2.91449055       -1.24239685        1.16612571
 C           -2.91660785        1.24269536       -1.16942351
 C           -2.81693443        2.10062040       -0.00213078
 C           -2.91449055        1.24239685        1.16612571
 C           -3.51562456       -0.00000000       -0.73103864
 C           -3.51454631        0.00000000        0.72897560




