%chk=000002.chk
%mem=8GB
%Nproc=32
#p B3LYP/6-31G* opt pop=NPA

Template file

0 1
 C            3.62841422       -0.98394807       -0.21874092
 C            3.76015287        0.39813921       -0.63713870
 C            3.48382156        1.22640665        0.52219310
 C            3.06145281       -0.99536980        1.12240925
 C            2.93413705        0.37313578        1.56558173
 C            1.86716896       -1.81343153        1.07598876
 C            2.65634621       -1.61166097       -1.09367775
 C            1.78976550       -2.40841079       -0.25285138
 C            2.72759707        0.66283118       -1.63029998
 C            2.03219947       -0.57682784       -1.90073655
 C            2.43897712        2.15679438        0.14787352
 C            1.95135806        1.79536849       -1.17529897
 C            1.60957803        0.87896061        1.89426939
 C            1.47245676        2.16724369        1.22929868
 C            0.68401234       -1.36490899        1.67074599
 C            0.50771678        0.01200375        1.92271895
 C           -0.43460275       -2.17494898        1.48392950
 C            0.52425097       -2.69028359       -0.74038830
 C           -0.51945976       -2.91723936        0.23885431
 C            0.64043546       -0.56725243       -1.98145657
 C           -0.03271619       -1.76624963       -1.72271042
 C            0.57092674        1.79385364       -1.36065079
 C           -0.05726740        0.64890264       -1.89117203
 C            0.19424364        2.58811031        0.90892317
 C           -0.15228447        2.61943331       -0.50071519
 C           -0.77858961        0.57792779        1.90118529
 C           -0.92368694        1.91903547        1.53733185
 C           -1.75704964       -1.65833205        1.77006397
 C           -1.90728860       -0.23807909        1.98603105
 C           -1.78177818       -2.57602789       -0.38516623
 C           -1.47762020       -1.76953359       -1.56118264
 C           -2.62718856       -2.02796410        0.65945516
 C           -1.45017052        0.63606422       -2.03595920
 C           -2.18599270       -0.59741878       -1.79663738
 C           -1.59802638        2.64133809       -0.57403604
 C           -2.08377717        2.33559440        0.76525047
 C           -2.24046678        1.72649451       -1.48731773
 C           -3.14296327        0.15371563        1.32078440
 C           -3.45634618       -0.88053858        0.34857723
 C           -3.34239697       -0.28018376       -0.96886669
 C           -3.20385784        1.42826597        0.63193461
 C           -3.38148153        1.15899007       -0.78839693




