%chk=000434.chk
%mem=8GB
%Nproc=32
#p B3LYP/6-31G* opt pop=NPA

Template file

0 1
c -3.096 1.137 -1.619
c -3.592 -0.186 -1.601
c -3.847 -0.817 -0.462
c -3.033 -1.980 -0.397
c -2.508 -2.093 0.856
c -1.151 -2.443 1.053
c -0.565 -1.914 2.218
c 0.808 -1.774 2.368
c 1.000 -0.570 3.087
c 1.956 0.336 2.779
c 1.266 1.556 2.456
c 1.649 2.286 1.305
c 0.582 2.724 0.492
c 0.656 2.616 -0.911
c -0.648 2.525 -1.395
c -0.910 1.744 -2.500
c -2.119 1.122 -2.602
c -1.892 -0.198 -2.997
c -2.733 -0.994 -2.337
c -2.258 -2.048 -1.529
c -2.809 1.809 -0.382
c -1.569 2.523 -0.314
c -0.788 2.592 0.858
c -1.157 1.886 2.020
c -0.089 1.369 2.786
c -0.181 0.047 3.241
c -1.177 -0.782 2.877
c -2.325 -0.250 2.409
c -3.061 -0.989 1.570
c -3.732 -0.172 0.710
c -3.190 1.129 0.809
c -2.342 1.110 1.934
c -0.858 -2.291 -1.425
c -0.285 -2.618 -0.107
c 1.150 -2.514 0.078
c 1.717 -2.112 1.374
c 2.956 -1.375 1.404
c 3.012 -0.080 2.063
c 3.591 0.807 1.181
c 2.841 1.887 0.662
c 2.900 1.744 -0.764
c 1.746 1.949 -1.535
c 1.388 0.921 -2.509
c 0.082 0.833 -2.918
c -0.563 -0.431 -3.033
c -0.023 -1.576 -2.372
c 1.312 -1.513 -2.147
c 1.926 -2.147 -1.057
c 3.169 -1.558 -0.930
c 3.702 -1.223 0.268
c 4.101 0.104 0.173
c 3.710 0.627 -1.011
c 3.217 -0.417 -1.751
c 2.062 -0.318 -2.423




