%chk=000497.chk
%mem=8GB
%Nproc=32
#p B3LYP/6-31G* opt pop=NPA

Template file

0 1
c 2.334 1.202 -2.785
c 3.089 2.145 -2.134
c 3.753 1.552 -1.133
c 3.362 2.092 0.060
c 2.979 1.042 0.907
c 1.889 1.151 1.795
c 1.229 -0.028 2.214
c -0.116 0.028 2.746
c -0.730 -1.153 3.128
c -2.105 -1.350 2.897
c -2.297 -2.656 2.523
c -2.916 -2.700 1.325
c -2.058 -3.408 0.422
c -1.903 -2.897 -0.841
c -0.609 -2.619 -1.390
c -0.728 -1.528 -2.280
c 0.299 -0.650 -2.572
c -0.034 0.761 -2.789
c 1.031 1.664 -2.883
c 1.003 2.915 -2.171
c 2.284 3.107 -1.636
c 2.477 3.138 -0.216
c 2.601 -0.054 -2.207
c 1.583 -0.974 -2.025
c 1.589 -1.790 -0.829
c 0.559 -2.730 -0.591
c 0.343 -3.184 0.726
c -0.898 -3.681 1.151
c -1.104 -3.260 2.435
c -0.133 -2.379 2.779
c 0.847 -2.395 1.813
c 1.605 -1.283 1.569
c 2.260 -1.210 0.331
c 3.115 -0.159 0.134
c 3.473 0.226 -1.138
c 1.362 3.246 0.576
c 1.088 2.311 1.626
c -0.313 2.200 1.768
c -0.958 1.075 2.248
c -2.254 0.714 1.665
c -2.792 -0.529 2.017
c -3.349 -1.402 1.018
c -3.321 -0.985 -0.288
c -2.681 -1.814 -1.216
c -2.004 -1.041 -2.096
c -2.235 0.287 -1.866
c -1.287 1.231 -2.230
c -1.235 2.381 -1.429
c -0.090 3.185 -1.389
c 0.136 3.455 -0.034
c -0.848 2.880 0.694
c -1.792 2.309 -0.114
c -2.546 1.241 0.346
c -2.956 0.322 -0.631




