%chk=000224.chk
%mem=8GB
%Nproc=32
#p B3LYP/6-31G* opt pop=NPA

Template file

0 1
c -0.254 -0.865 3.198
c -1.250 -1.369 2.402
c -0.924 -2.177 1.282
c -1.768 -2.085 0.104
c -1.203 -2.429 -1.172
c -1.434 -1.514 -2.263
c -0.368 -1.114 -3.099
c -0.330 0.297 -3.045
c 0.877 0.980 -2.644
c 0.743 2.032 -1.674
c 1.655 2.050 -0.544
c 1.231 2.697 0.646
c 1.626 2.216 1.867
c 0.582 2.308 2.777
c 0.574 1.165 3.509
c -0.564 0.430 3.588
c 1.090 -0.943 2.857
c 1.585 0.344 3.036
c 2.274 0.997 2.019
c 2.693 0.301 0.914
c 2.587 0.955 -0.390
c 2.864 0.163 -1.486
c 2.019 0.179 -2.638
c 1.984 -1.148 -3.109
c 0.762 -1.840 -3.183
c 0.884 -2.952 -2.330
c 0.023 -3.093 -1.225
c 0.867 -3.112 -0.072
c 0.472 -2.512 1.107
c 1.481 -1.686 1.772
c 2.561 -1.145 0.967
c 2.941 -1.850 -0.129
c 3.267 -1.163 -1.314
c 2.824 -1.899 -2.361
c 2.164 -2.981 -1.893
c 2.173 -2.956 -0.540
c -0.093 3.164 0.831
c -0.539 2.777 2.138
c -1.801 2.094 2.304
c -1.732 0.820 2.983
c -2.244 -0.363 2.354
c -3.034 -0.266 1.258
c -2.801 -1.099 0.131
c -3.063 -0.304 -1.007
c -2.255 -0.434 -2.112
c -1.552 0.717 -2.609
c -1.703 1.926 -1.970
c -0.559 2.576 -1.457
c -0.951 3.148 -0.216
c -2.265 2.779 0.027
c -2.672 2.159 1.225
c -3.350 1.001 0.795
c -3.384 0.963 -0.566
c -2.713 2.063 -1.041




