%chk=000158.chk
%mem=8GB
%Nproc=32
#p B3LYP/6-31G* opt pop=NPA

Template file

0 1
c -1.129 -0.250 3.235
c -0.430 0.942 3.136
c -0.779 1.877 2.151
c 0.338 2.534 1.519
c 0.247 3.029 0.230
c 1.451 2.728 -0.473
c 1.407 2.316 -1.850
c 2.172 1.161 -2.162
c 1.580 0.034 -2.826
c 1.961 -1.132 -2.137
c 1.016 -2.128 -1.770
c 1.216 -2.707 -0.461
c 0.138 -3.103 0.337
c 0.440 -2.834 1.688
c -0.568 -2.315 2.537
c -0.231 -1.303 3.394
c -2.112 -0.610 2.373
c -1.807 -1.969 1.989
c -2.137 -2.383 0.732
c -1.149 -2.934 -0.136
c -1.381 -2.436 -1.430
c -0.330 -1.985 -2.269
c -0.642 -0.842 -3.084
c 0.334 0.144 -3.356
c -0.286 1.382 -3.311
c 0.181 2.434 -2.504
c -0.952 2.861 -1.794
c -0.955 3.020 -0.426
c -2.060 2.294 0.101
c -1.972 1.630 1.351
c -2.635 0.328 1.451
c -3.190 -0.233 0.270
c -2.919 -1.575 -0.027
c -2.561 -1.687 -1.338
c -2.774 -0.512 -1.970
c -1.886 -0.140 -2.956
c -1.622 1.199 -3.099
c -2.034 2.112 -2.153
c -2.726 1.728 -1.018
c -3.185 0.432 -0.951
c 3.026 0.636 -1.230
c 2.933 -0.736 -1.235
c 3.055 -1.206 0.042
c 2.229 -2.249 0.431
c 1.743 -2.298 1.740
c 2.036 -1.234 2.631
c 1.021 -0.787 3.450
c 0.919 0.585 3.345
c 1.942 1.050 2.578
c 1.673 2.081 1.694
c 2.320 2.140 0.455
c 3.135 1.071 0.069
c 3.243 -0.078 0.885
c 2.696 -0.084 2.150




