%chk=000432.chk
%mem=8GB
%Nproc=32
#p B3LYP/6-31G* opt pop=NPA

Template file

0 1
c 0.031 -3.221 0.734
c 1.372 -3.402 0.419
c 2.363 -2.865 1.161
c 3.147 -2.056 0.328
c 3.367 -0.840 0.957
c 3.199 0.376 0.244
c 2.658 1.463 0.957
c 1.884 2.460 0.331
c 0.934 2.872 1.272
c -0.359 3.146 0.972
c -1.178 2.325 1.824
c -2.365 1.758 1.323
c -2.529 0.359 1.588
c -3.042 -0.507 0.595
c -2.301 -1.701 0.640
c -1.833 -2.321 -0.565
c -0.634 -2.999 -0.488
c 0.372 -2.796 -1.492
c 1.573 -3.039 -0.894
c 2.646 -2.142 -0.958
c -0.331 -2.461 1.897
c -1.496 -1.683 1.789
c -1.591 -0.376 2.343
c -0.470 0.233 2.941
c -0.296 1.606 2.655
c 0.992 2.058 2.348
c 2.077 1.251 2.257
c 1.995 -0.005 2.777
c 2.752 -0.980 2.225
c 2.064 -2.164 2.272
c 0.741 -1.908 2.658
c 0.699 -0.560 3.070
c 2.461 -0.981 -1.688
c 2.777 0.276 -1.122
c 1.925 1.230 -1.716
c 1.490 2.378 -1.024
c 0.210 2.886 -1.362
c -0.696 3.331 -0.334
c -1.953 3.023 -0.724
c -2.823 2.233 0.066
c -3.418 1.364 -0.836
c -3.483 0.001 -0.615
c -2.996 -0.603 -1.780
c -2.102 -1.633 -1.760
c -1.031 -1.263 -2.642
c 0.239 -1.760 -2.432
c 1.318 -0.817 -2.489
c 1.055 0.556 -2.617
c -0.222 1.045 -2.937
c -0.587 2.301 -2.368
c -1.920 2.531 -2.003
c -2.866 1.577 -2.107
c -2.553 0.378 -2.640
c -1.264 0.065 -3.052




