%chk=000302.chk
%mem=8GB
%Nproc=32
#p B3LYP/6-31G* opt pop=NPA

Template file

0 1
c -2.350 -0.544 -2.480
c -1.088 -0.272 -3.049
c -0.063 -1.185 -2.926
c 1.158 -0.491 -2.746
c 2.247 -1.045 -2.032
c 3.079 -0.148 -1.372
c 3.683 -0.523 -0.164
c 3.722 0.555 0.631
c 3.194 0.287 1.845
c 2.270 1.281 2.136
c 1.101 0.965 2.813
c 0.016 1.797 2.582
c -1.272 1.317 2.715
c -2.103 1.959 1.879
c -3.031 1.063 1.362
c -3.461 1.264 0.083
c -3.575 0.167 -0.742
c -3.079 0.493 -1.993
c -2.467 -1.602 -1.539
c -3.126 -1.104 -0.391
c -2.612 -1.360 0.922
c -2.629 -0.237 1.807
c -1.574 -0.037 2.719
c -0.528 -0.916 2.826
c 0.801 -0.442 2.972
c 1.658 -1.428 2.463
c 2.870 -1.064 1.879
c 3.224 -1.597 0.596
c 2.395 -2.497 -0.011
c 1.998 -2.288 -1.363
c 0.756 -2.873 -1.489
c -0.279 -2.359 -2.204
c -1.448 -2.492 -1.406
c -1.046 -2.928 -0.128
c -1.526 -2.303 1.053
c -0.514 -2.076 2.057
c 0.853 -2.417 1.873
c 1.261 -2.998 0.681
c 0.298 -3.256 -0.248
c 2.696 1.239 -1.216
c 3.096 1.605 0.059
c 2.220 2.151 0.974
c 1.033 2.725 0.540
c -0.021 2.713 1.479
c -1.352 2.842 1.085
c -1.680 2.939 -0.243
c -2.811 2.263 -0.689
c -2.567 1.768 -1.929
c -1.254 2.035 -2.283
c -0.525 1.029 -2.905
c 0.831 0.889 -2.647
c 1.502 1.739 -1.726
c 0.691 2.616 -0.880
c -0.670 2.780 -1.231




