%chk=000127.chk
%mem=8GB
%Nproc=32
#p B3LYP/6-31G* opt pop=NPA

Template file

0 1
c -0.650 -2.834 1.268
c -1.778 -2.312 0.682
c -1.813 -2.097 -0.692
c -2.692 -1.011 -0.930
c -2.490 -0.144 -2.034
c -2.577 1.257 -1.751
c -1.498 2.136 -2.103
c -1.119 2.843 -0.944
c 0.241 2.833 -0.463
c 0.436 2.620 0.990
c 1.605 1.930 1.462
c 1.496 1.058 2.614
c 2.188 -0.195 2.686
c 1.333 -1.111 3.255
c 1.043 -2.300 2.619
c -0.316 -2.406 2.536
c 0.550 -2.979 0.520
c 1.609 -2.629 1.403
c 2.646 -1.851 0.938
c 2.941 -0.605 1.618
c 3.212 0.301 0.652
c 2.550 1.535 0.502
c 2.358 1.710 -0.878
c 1.227 2.369 -1.404
c 0.796 1.900 -2.694
c -0.583 1.736 -2.986
c -0.745 0.469 -3.564
c -1.530 -0.521 -2.956
c -0.641 -1.635 -2.715
c -0.674 -2.349 -1.516
c 0.596 -2.686 -0.865
c 1.831 -2.092 -1.373
c 2.783 -1.632 -0.421
c 3.271 -0.319 -0.548
c 2.894 0.531 -1.522
c 2.309 0.012 -2.619
c 1.419 0.789 -3.292
c 0.461 -0.028 -3.786
c 0.582 -1.278 -3.262
c 1.756 -1.338 -2.552
c 0.258 0.847 3.252
c 0.160 -0.500 3.569
c -0.920 -1.296 3.142
c -2.026 -0.693 2.551
c -2.520 -1.293 1.334
c -3.132 -0.532 0.331
c -3.310 0.831 0.515
c -3.012 1.677 -0.540
c -2.158 2.682 -0.080
c -1.985 2.513 1.231
c -0.746 2.467 1.802
c -0.843 1.478 2.801
c -2.053 0.727 2.581
c -2.741 1.415 1.640




