%chk=000115.chk
%mem=8GB
%Nproc=32
#p B3LYP/6-31G* opt pop=NPA

Template file

0 1
c 1.302 -1.345 2.929
c -0.054 -1.625 2.789
c -0.471 -2.349 1.664
c -1.718 -1.930 1.111
c -1.972 -2.038 -0.267
c -2.701 -0.930 -0.692
c -2.360 -0.249 -1.921
c -2.570 1.139 -1.903
c -1.513 1.966 -2.305
c -1.332 2.968 -1.384
c 0.010 2.966 -0.972
c 0.340 2.979 0.409
c 1.508 2.244 0.829
c 1.510 1.790 2.175
c 2.205 0.649 2.533
c 1.429 -0.085 3.383
c 2.188 -1.522 1.902
c 2.742 -0.200 1.619
c 2.944 0.206 0.318
c 2.258 1.432 -0.142
c 1.847 1.453 -1.536
c 0.677 2.121 -1.856
c -0.321 1.480 -2.690
c -0.188 0.171 -3.092
c -1.248 -0.768 -2.664
c -0.804 -2.081 -2.368
c -1.070 -2.633 -1.089
c 0.124 -3.187 -0.571
c 0.533 -2.868 0.752
c 1.927 -2.396 0.888
c 2.681 -2.188 -0.272
c 3.149 -0.840 -0.573
c 2.949 -0.667 -1.917
c 2.144 0.356 -2.367
c 1.122 -0.282 -3.181
c 1.399 -1.632 -3.181
c 0.453 -2.504 -2.703
c 1.016 -3.189 -1.617
c 2.304 -2.746 -1.466
c 2.528 -1.835 -2.456
c 0.299 1.740 2.948
c 0.252 0.490 3.556
c -0.750 -0.447 3.240
c -1.905 0.010 2.620
c -2.426 -0.802 1.575
c -3.105 -0.234 0.465
c -3.342 1.125 0.408
c -3.111 1.779 -0.790
c -2.355 2.926 -0.516
c -2.101 2.970 0.800
c -0.807 3.028 1.305
c -0.831 2.245 2.453
c -2.012 1.419 2.415
c -2.773 1.919 1.406




