%chk=000385.chk
%mem=8GB
%Nproc=32
#p B3LYP/6-31G* opt pop=NPA

Template file

0 1
c 0.291 2.251 -2.085
c 0.516 2.324 -0.746
c 1.711 1.784 -0.253
c 1.990 1.916 1.095
c 2.949 1.146 1.785
c 2.550 1.085 3.123
c 2.523 -0.111 3.834
c 1.226 -0.257 4.281
c 0.698 -1.425 3.811
c -0.480 -1.125 3.124
c -0.821 -1.765 1.937
c -1.819 -1.191 1.145
c -2.104 -1.788 -0.051
c -2.959 -1.253 -0.939
c -2.583 -1.584 -2.223
c -2.975 -0.612 -3.055
c -2.105 -0.094 -3.954
c -2.239 1.274 -3.873
c -1.046 1.815 -3.801
c -0.924 2.528 -2.641
c 0.832 1.136 -2.811
c -0.075 0.835 -3.797
c -0.705 -0.411 -3.825
c -0.249 -1.391 -2.876
c -1.269 -2.053 -2.139
c -1.051 -2.378 -0.794
c 0.166 -2.492 -0.197
c 0.231 -2.507 1.235
c 1.488 -2.567 1.858
c 1.698 -2.096 3.152
c 2.844 -1.271 3.166
c 3.296 -1.221 1.871
c 3.375 -0.029 1.144
c 2.883 -0.300 -0.154
c 2.222 0.620 -0.945
c 1.517 0.186 -2.093
c 0.961 -1.160 -2.112
c 1.261 -1.924 -0.944
c 2.377 -1.614 -0.171
c 2.557 -2.096 1.103
c 0.902 2.142 1.967
c 1.274 1.656 3.192
c 0.452 0.783 3.857
c -0.659 0.292 3.175
c -1.210 0.953 2.056
c -2.057 0.253 1.192
c -2.626 0.889 0.040
c -3.325 0.085 -0.908
c -3.471 0.454 -2.237
c -2.949 1.603 -2.714
c -2.095 2.357 -1.879
c -1.922 2.040 -0.496
c -0.658 2.314 0.118
c -0.412 1.997 1.454




