%chk=000513.chk
%mem=8GB
%Nproc=32
#p B3LYP/6-31G* opt pop=NPA

Template file

0 1
c -3.016 0.789 -1.027
c -3.448 0.147 0.068
c -3.164 0.546 1.294
c -2.772 -0.562 2.026
c -1.890 -0.189 2.940
c -0.847 -1.047 3.213
c 0.304 -0.507 3.668
c 1.367 -1.144 3.100
c 2.338 -0.210 2.799
c 3.026 -0.360 1.650
c 3.241 0.772 0.864
c 3.291 0.421 -0.416
c 2.631 1.354 -1.206
c 2.053 0.955 -2.386
c 0.867 1.630 -2.749
c -0.056 0.993 -3.553
c -1.305 1.225 -3.065
c -2.006 0.009 -3.038
c -2.769 -0.229 -1.974
c -2.628 -1.465 -1.244
c -3.133 -1.224 -0.034
c -2.573 -1.643 1.141
c -2.115 1.918 -0.881
c -1.241 2.083 -1.959
c 0.124 2.378 -1.765
c 0.636 2.653 -0.490
c 1.989 2.247 -0.288
c 2.470 1.941 0.988
c 1.676 2.060 2.089
c 1.752 1.055 3.064
c 0.531 0.866 3.591
c -0.381 1.708 2.961
c -1.625 1.224 2.709
c -2.309 1.600 1.556
c -1.659 2.270 0.454
c -0.269 2.660 0.652
c 0.314 2.416 1.946
c -1.330 -2.337 1.129
c -0.506 -2.074 2.250
c 0.896 -2.090 2.165
c 1.548 -2.255 0.934
c 2.716 -1.417 0.745
c 3.050 -0.950 -0.525
c 2.408 -1.379 -1.619
c 2.095 -0.472 -2.662
c 1.083 -1.056 -3.361
c 0.046 -0.351 -3.845
c -1.116 -0.967 -3.436
c -0.791 -2.070 -2.596
c -1.470 -2.275 -1.387
c -0.711 -2.608 -0.158
c 0.759 -2.602 -0.228
c 1.339 -2.307 -1.494
c 0.579 -2.128 -2.612




