%chk=000025.chk
%mem=8GB
%Nproc=32
#p B3LYP/6-31G* opt pop=NPA

Template file

0 1
c 1.345 0.309 2.755
c 0.201 1.104 2.940
c -1.077 0.629 2.456
c -1.782 1.530 1.557
c -2.474 0.942 0.439
c -2.364 1.658 -0.815
c -2.191 0.959 -2.022
c -1.105 1.519 -2.673
c 0.028 0.769 -2.996
c 1.115 1.464 -2.406
c 2.087 0.758 -1.641
c 2.557 1.368 -0.415
c 2.727 0.491 0.742
c 2.290 1.029 2.003
c 1.226 -0.973 2.610
c 2.027 -1.658 1.680
c 2.618 -0.927 0.605
c 2.361 -1.494 -0.673
c 2.016 -0.657 -1.735
c 1.014 -1.340 -2.491
c -0.073 -0.608 -3.027
c -1.369 -1.150 -2.773
c -2.341 -0.352 -2.086
c -2.787 -1.059 -0.971
c -2.671 -0.488 0.357
c -2.120 -1.371 1.373
c -1.220 -0.785 2.339
c -0.039 -1.567 2.652
c 0.156 -2.810 2.157
c 1.406 -2.854 1.496
c 1.241 -3.465 0.285
c 1.684 -2.743 -0.839
c 0.837 -2.631 -1.959
c -0.459 -3.209 -1.917
c -1.512 -2.396 -2.284
c -2.448 -2.357 -1.231
c -2.056 -3.197 -0.294
c -1.899 -2.774 1.014
c -0.737 -3.428 1.414
c -0.068 -3.967 0.298
c -0.876 -3.835 -0.748
c -1.606 2.829 -0.945
c -0.763 2.638 -2.062
c 0.630 2.714 -1.977
c 1.150 3.355 -0.914
c 2.184 2.743 -0.157
c 1.973 3.194 1.149
c 1.939 2.317 2.160
c 0.634 2.364 2.749
c -0.090 3.271 2.087
c -1.242 2.875 1.406
c -1.093 3.453 0.117
c 0.240 3.934 0.013
c 0.777 3.880 1.197




