%chk=000516.chk
%mem=8GB
%Nproc=32
#p B3LYP/6-31G* opt pop=NPA

Template file

0 1
c 2.193 3.044 -0.923
c 2.068 2.229 -1.981
c 0.866 1.761 -2.406
c 1.067 0.410 -2.735
c 0.017 -0.421 -2.815
c 0.084 -1.707 -2.284
c -1.223 -2.167 -2.156
c -1.555 -3.066 -1.166
c -2.833 -3.010 -0.591
c -2.665 -3.087 0.758
c -3.242 -2.014 1.385
c -2.241 -1.369 2.133
c -2.069 0.048 2.093
c -0.799 0.587 2.377
c -0.421 1.885 1.849
c 0.858 2.372 2.122
c 1.542 3.141 1.185
c 2.893 2.751 1.155
c 3.252 2.599 -0.148
c 3.669 1.335 -0.658
c 2.954 1.158 -1.820
c 2.283 -0.001 -2.166
c 1.076 3.299 -0.111
c -0.195 2.786 -0.467
c -1.032 2.294 0.602
c -2.211 1.669 0.270
c -2.838 0.718 1.096
c -3.728 0.002 0.298
c -3.934 -1.331 0.427
c -3.663 -1.930 -0.824
c -3.286 -0.928 -1.706
c -2.101 -1.061 -2.424
c -1.282 0.045 -2.663
c -1.476 1.318 -2.009
c -0.349 2.134 -1.768
c -2.501 1.304 -1.070
c -3.427 0.281 -1.017
c 2.290 -1.149 -1.327
c 1.132 -2.005 -1.352
c 0.672 -2.633 -0.143
c -0.605 -3.221 -0.111
c -1.359 -3.150 1.060
c -1.075 -2.183 2.014
c 0.170 -1.648 2.082
c 0.295 -0.340 2.621
c 1.568 0.164 2.746
c 1.819 1.513 2.655
c 3.039 1.726 2.023
c 3.479 0.494 1.570
c 3.712 0.243 0.216
c 2.982 -0.958 -0.104
c 2.359 -1.404 1.083
c 1.154 -2.076 1.084
c 2.615 -0.450 2.041




