%chk=000379.chk
%mem=8GB
%Nproc=32
#p B3LYP/6-31G* opt pop=NPA

Template file

0 1
c -1.079 -1.458 4.035
c -1.020 -2.447 3.077
c 0.067 -2.623 2.268
c -0.395 -2.791 0.939
c 0.392 -2.571 -0.163
c -0.240 -2.199 -1.386
c 0.576 -1.979 -2.487
c 0.210 -1.140 -3.513
c 1.333 -0.426 -3.970
c 0.967 0.836 -4.224
c 1.616 1.884 -3.571
c 0.646 2.685 -3.097
c 0.846 2.969 -1.798
c -0.333 2.772 -1.117
c -0.348 2.477 0.203
c -1.518 1.901 0.704
c -1.624 1.755 2.049
c -2.568 0.927 2.602
c -2.100 0.472 3.799
c -2.295 -0.838 3.882
c -0.073 -0.452 4.030
c -0.758 0.761 3.876
c -0.431 1.631 2.832
c 0.800 1.590 2.154
c 0.907 2.150 0.855
c 2.016 1.842 -0.026
c 2.009 2.352 -1.351
c 2.504 1.625 -2.485
c 2.913 0.315 -2.269
c 2.346 -0.693 -3.082
c 1.936 -1.702 -2.263
c 2.396 -1.522 -0.999
c 1.724 -2.058 0.072
c 1.946 -1.486 1.322
c 1.181 -1.791 2.428
c 1.047 -0.625 3.217
c 1.562 0.423 2.408
c 2.292 -0.117 1.361
c 2.636 0.574 0.189
c 2.928 -0.198 -0.958
c -0.866 -0.272 -3.384
c -0.413 0.940 -3.928
c -0.599 2.097 -3.247
c -1.213 2.087 -2.012
c -1.897 0.956 -1.513
c -2.225 0.949 -0.155
c -2.707 -0.227 0.476
c -3.059 -0.163 1.852
c -2.888 -1.270 2.703
c -2.149 -2.314 2.243
c -1.745 -2.401 0.930
c -2.158 -1.461 -0.051
c -1.481 -1.437 -1.289
c -1.615 -0.308 -2.166




