%chk=000419.chk
%mem=8GB
%Nproc=32
#p B3LYP/6-31G* opt pop=NPA

Template file

0 1
c 2.667 0.795 -1.089
c 3.047 1.442 0.077
c 3.180 0.770 1.240
c 2.295 1.340 2.154
c 1.598 0.322 2.767
c 0.166 0.357 2.797
c -0.537 -0.882 2.585
c -1.720 -0.863 1.729
c -1.855 -1.944 0.752
c -2.210 -1.571 -0.573
c -1.236 -1.817 -1.644
c -0.904 -0.749 -2.514
c 0.485 -0.290 -2.492
c 0.685 1.146 -2.492
c 1.707 1.632 -1.692
c 1.448 2.734 -0.797
c 2.234 2.524 0.288
c 1.702 2.433 1.583
c 2.561 -0.613 -1.102
c 1.483 -1.166 -1.906
c 1.084 -2.470 -1.574
c -0.309 -2.759 -1.398
c -0.418 -3.567 -0.286
c -1.085 -3.079 0.872
c -0.157 -3.198 1.896
c 0.226 -2.083 2.617
c 1.660 -2.040 2.492
c 2.266 -0.856 2.428
c 3.112 -0.565 1.304
c 3.003 -1.342 0.111
c 2.585 -2.644 0.311
c 1.745 -3.238 -0.621
c 0.810 -3.981 0.065
c 0.972 -3.806 1.376
c 2.034 -3.019 1.588
c 0.349 2.593 1.714
c -0.427 1.557 2.328
c -1.671 1.580 1.722
c -2.362 0.373 1.411
c -3.193 0.452 0.269
c -3.047 -0.532 -0.754
c -3.083 0.131 -1.967
c -1.928 0.143 -2.794
c -1.658 1.493 -3.008
c -0.430 1.999 -2.660
c -0.701 3.062 -1.705
c 0.165 3.250 -0.656
c -0.401 3.135 0.678
c -1.716 2.702 0.834
c -2.594 2.752 -0.215
c -3.435 1.656 -0.406
c -3.474 1.402 -1.752
c -2.641 2.232 -2.392
c -2.074 3.070 -1.500




