%chk=000211.chk
%mem=8GB
%Nproc=32
#p B3LYP/6-31G* opt pop=NPA

Template file

0 1
c 1.838 1.542 2.158
c 2.584 0.598 1.378
c 2.730 0.922 -0.044
c 2.799 -0.130 -0.963
c 2.076 -0.139 -2.213
c 1.645 -1.460 -2.426
c 0.364 -1.700 -2.880
c -0.394 -2.646 -2.170
c -1.638 -2.137 -1.968
c -2.013 -2.304 -0.634
c -2.616 -1.211 0.085
c -2.246 -1.004 1.451
c -2.098 0.378 1.968
c -1.178 0.564 3.039
c -0.265 1.610 2.977
c 1.026 1.109 3.177
c 1.130 2.579 1.551
c -0.245 2.525 2.009
c -1.315 2.640 1.119
c -2.271 1.498 1.073
c -2.844 1.229 -0.187
c -2.926 -0.082 -0.695
c -2.555 -0.007 -2.091
c -1.769 -0.969 -2.641
c -0.481 -0.634 -3.195
c -0.033 0.710 -3.183
c 1.309 0.960 -2.625
c 1.502 2.129 -1.853
c 2.125 2.087 -0.561
c 1.373 2.941 0.277
c 0.348 3.454 -0.457
c -1.008 3.337 -0.073
c -1.669 3.048 -1.231
c -2.563 2.052 -1.279
c -2.273 1.274 -2.376
c -1.043 1.684 -2.941
c -0.741 2.844 -2.273
c 0.486 3.061 -1.765
c 2.815 -1.424 -0.505
c 2.119 -2.224 -1.365
c 1.350 -3.116 -0.627
c 0.025 -3.283 -1.023
c -1.021 -3.119 -0.069
c -0.720 -2.974 1.245
c -1.414 -2.029 2.036
c -0.553 -1.718 3.055
c -0.439 -0.492 3.541
c 0.930 -0.160 3.537
c 1.646 -1.145 2.900
c 2.505 -0.810 1.806
c 2.578 -1.792 0.798
c 1.653 -2.894 0.718
c 0.650 -2.982 1.664
c 0.724 -2.194 2.751




