%chk=000521.chk
%mem=8GB
%Nproc=32
#p B3LYP/6-31G* opt pop=NPA

Template file

0 1
c 0.461 -0.711 -3.694
c -0.001 -1.956 -3.359
c -1.023 -2.068 -2.468
c -0.542 -2.908 -1.382
c -0.984 -2.718 -0.101
c 0.010 -2.523 0.955
c -0.450 -1.941 2.137
c 0.338 -1.021 2.863
c -0.550 -0.206 3.566
c -0.403 1.137 3.637
c -1.608 1.730 3.225
c -1.288 2.721 2.338
c -1.794 2.761 1.030
c -0.707 2.981 0.152
c -0.600 2.392 -1.152
c 0.725 2.200 -1.694
c 0.924 1.268 -2.730
c 2.134 0.480 -2.839
c 1.826 -0.691 -3.439
c 2.173 -1.915 -2.852
c 1.070 -2.672 -2.877
c 0.784 -3.135 -1.635
c -0.126 0.449 -3.182
c -1.337 0.392 -2.458
c -1.652 1.468 -1.543
c -2.691 1.240 -0.589
c -2.754 1.842 0.686
c -3.147 0.838 1.651
c -2.502 0.745 2.888
c -1.839 -0.477 3.176
c -1.816 -1.549 2.314
c -2.645 -1.519 1.216
c -2.198 -2.035 0.018
c -2.578 -1.120 -1.022
c -1.825 -0.968 -2.151
c -3.135 -0.054 -0.401
c -3.303 -0.311 0.928
c 1.766 -2.704 -0.740
c 1.395 -2.318 0.580
c 2.119 -1.220 1.208
c 1.527 -0.498 2.314
c 1.671 0.974 2.405
c 0.652 1.744 3.014
c 0.069 2.802 2.269
c 0.443 3.077 0.984
c 1.618 2.603 0.548
c 1.824 2.330 -0.788
c 2.852 1.402 -0.826
c 2.980 0.441 -1.742
c 3.167 -0.794 -1.013
c 2.678 -1.944 -1.541
c 2.999 -0.498 0.351
c 3.001 0.873 0.439
c 2.293 1.589 1.325




