%chk=000566.chk
%mem=8GB
%Nproc=32
#p B3LYP/6-31G* opt pop=NPA

Template file

0 1
c -0.558 1.240 2.644
c -1.560 0.268 2.305
c -1.272 -1.108 2.349
c -1.662 -1.878 1.190
c -0.887 -3.041 0.935
c -0.643 -3.405 -0.374
c 0.678 -3.764 -0.479
c 1.271 -3.034 -1.442
c 2.345 -2.322 -0.870
c 2.481 -0.923 -1.166
c 2.774 0.009 -0.101
c 2.174 1.360 -0.146
c 1.622 1.926 1.092
c 0.451 2.743 1.023
c -0.683 2.294 1.803
c -1.951 2.222 1.235
c -2.351 0.858 1.346
c -2.790 0.148 0.198
c -2.281 -1.180 0.042
c -1.851 -1.542 -1.315
c -0.955 -2.597 -1.433
c 0.287 -2.405 -2.142
c 0.647 0.836 3.056
c 1.794 1.186 2.254
c 2.614 0.092 2.303
c 3.036 -0.571 1.169
c 2.807 -1.971 1.437
c 2.447 -2.807 0.449
c 1.304 -3.635 0.668
c 0.340 -3.319 1.644
c 0.733 -2.538 2.663
c -0.089 -1.470 3.079
c 0.802 -0.451 3.472
c 2.054 -0.829 3.154
c 2.069 -2.035 2.634
c 0.536 -1.202 -2.666
c 1.663 -0.441 -2.204
c 1.316 0.881 -2.359
c 1.600 1.851 -1.362
c 0.719 2.966 -1.359
c 0.125 3.394 -0.141
c -1.218 3.717 -0.435
c -2.267 2.982 0.173
c -2.980 2.376 -0.862
c -3.059 0.967 -0.932
c -2.516 0.625 -2.199
c -1.772 -0.524 -2.316
c -0.477 -0.344 -2.939
c 0.079 0.924 -3.067
c -0.706 2.015 -3.083
c -0.289 3.118 -2.338
c -1.400 3.652 -1.762
c -2.473 2.858 -2.029
c -2.081 1.829 -2.795




