%chk=000114.chk
%mem=8GB
%Nproc=32
#p B3LYP/6-31G* opt pop=NPA

Template file

0 1
c -2.797 1.251 0.820
c -2.630 1.369 -0.542
c -2.547 0.210 -1.326
c -1.648 0.486 -2.374
c -0.761 -0.527 -2.856
c 0.562 -0.128 -3.116
c 1.663 -0.822 -2.512
c 2.562 0.161 -2.066
c 3.026 0.102 -0.749
c 2.962 1.257 0.073
c 2.592 0.833 1.354
c 1.738 1.604 2.124
c 0.741 0.980 2.904
c -0.332 1.853 2.891
c -1.593 1.419 2.686
c -2.127 2.132 1.631
c -2.741 -0.026 1.422
c -1.882 0.099 2.560
c -0.892 -0.869 2.822
c 0.513 -0.420 2.855
c 1.502 -1.228 2.167
c 2.444 -0.557 1.346
c 2.728 -1.014 0.027
c 2.084 -2.151 -0.500
c 1.456 -2.006 -1.818
c 0.188 -2.610 -1.999
c -0.936 -1.799 -2.357
c -1.987 -2.124 -1.459
c -2.669 -1.089 -0.770
c -2.773 -1.206 0.687
c -2.174 -2.325 1.308
c -1.166 -2.119 2.333
c -0.133 -2.988 2.032
c 1.141 -2.505 1.750
c 1.469 -3.000 0.432
c 0.405 -3.806 0.046
c -0.263 -3.539 -1.121
c -1.599 -3.259 -0.799
c -1.739 -3.393 0.554
c -0.523 -3.795 1.037
c 1.198 2.811 1.581
c -0.086 2.896 2.027
c -1.191 3.057 1.168
c -0.974 3.212 -0.206
c -1.765 2.361 -1.072
c -1.235 1.835 -2.260
c 0.029 2.204 -2.679
c 0.889 1.204 -3.129
c 2.121 1.375 -2.542
c 2.066 2.493 -1.758
c 2.452 2.472 -0.444
c 1.468 3.166 0.280
c 0.370 3.439 -0.613
c 0.791 3.025 -1.852




