%chk=000193.chk
%mem=8GB
%Nproc=32
#p B3LYP/6-31G* opt pop=NPA

Template file

0 1
c 0.250 0.988 -3.329
c -0.499 1.951 -2.601
c 0.128 2.658 -1.552
c -0.738 2.700 -0.442
c -0.265 2.555 0.921
c -1.139 1.850 1.851
c -0.552 0.984 2.877
c -1.235 -0.231 3.228
c -0.535 -1.456 3.148
c -1.222 -2.328 2.340
c -0.369 -2.769 1.322
c -0.801 -2.743 -0.016
c 0.226 -2.529 -1.028
c -0.240 -2.111 -2.288
c 0.500 -1.233 -3.070
c -0.334 -0.230 -3.562
c 1.556 0.725 -2.939
c 1.671 -0.699 -2.683
c 2.337 -1.195 -1.548
c 1.594 -2.112 -0.650
c 1.938 -2.080 0.757
c 0.919 -2.353 1.685
c 0.759 -1.520 2.862
c 1.491 -0.392 2.991
c 0.838 0.907 2.924
c 1.675 1.727 2.173
c 1.164 2.525 1.105
c 2.013 2.594 -0.067
c 1.478 2.553 -1.354
c 2.216 1.585 -2.117
c 3.162 1.092 -1.304
c 3.271 -0.295 -0.994
c 3.568 -0.329 0.332
c 2.923 -1.150 1.208
c 2.631 -0.312 2.319
c 2.866 0.990 1.986
c 3.544 0.996 0.843
c 3.180 1.814 -0.138
c -1.566 -1.700 -2.461
c -1.591 -0.511 -3.182
c -2.379 0.397 -2.518
c -1.801 1.652 -2.190
c -1.958 2.165 -0.881
c -2.780 1.537 0.012
c -2.439 1.467 1.373
c -3.042 0.305 1.835
c -2.455 -0.518 2.699
c -2.427 -1.808 2.110
c -2.940 -1.747 0.854
c -2.198 -2.266 -0.245
c -2.467 -1.644 -1.463
c -3.048 -0.313 -1.530
c -3.402 0.300 -0.360
c -3.477 -0.444 0.754




