%chk=000187.chk
%mem=8GB
%Nproc=32
#p B3LYP/6-31G* opt pop=NPA

Template file

0 1
c -1.061 -0.925 -3.547
c -2.028 -0.093 -3.031
c -1.707 1.145 -2.517
c -2.353 1.244 -1.233
c -1.829 2.036 -0.208
c -1.878 1.563 1.172
c -0.830 2.058 2.093
c -0.333 1.155 3.063
c 1.078 0.862 3.153
c 1.218 -0.539 3.064
c 1.976 -1.152 1.983
c 1.355 -2.235 1.229
c 1.474 -2.262 -0.233
c 0.376 -2.845 -1.037
c 0.186 -2.427 -2.368
c -1.112 -2.116 -2.852
c 0.219 -0.512 -3.580
c 0.995 -1.443 -2.890
c 1.943 -0.797 -2.169
c 2.293 -1.235 -0.869
c 2.920 -0.263 -0.085
c 2.819 -0.263 1.318
c 2.905 1.077 1.717
c 1.968 1.669 2.575
c 1.507 2.800 1.934
c 0.131 2.976 1.630
c 0.116 3.364 0.309
c -0.750 2.861 -0.605
c 0.027 2.572 -1.781
c -0.400 1.665 -2.707
c 0.595 0.746 -3.191
c 1.807 0.600 -2.482
c 2.268 1.565 -1.633
c 3.011 1.110 -0.513
c 3.062 1.881 0.628
c 2.250 2.981 0.785
c 1.411 3.330 -0.207
c 1.386 2.679 -1.412
c -2.209 -2.085 -2.016
c -2.739 -0.791 -2.102
c -2.968 0.006 -0.972
c -2.961 -0.551 0.305
c -2.498 0.258 1.427
c -2.031 -0.466 2.566
c -0.955 -0.002 3.285
c 0.010 -1.030 3.386
c -0.485 -2.117 2.842
c 0.157 -2.775 1.789
c -0.874 -3.162 0.967
c -0.829 -3.163 -0.365
c -2.091 -2.614 -0.798
c -2.674 -1.978 0.319
c -2.064 -2.520 1.385
c -1.805 -1.842 2.478




