%chk=000569.chk
%mem=8GB
%Nproc=32
#p B3LYP/6-31G* opt pop=NPA

Template file

0 1
c 0.926 -3.323 -0.382
c -0.466 -3.282 -0.307
c -0.944 -2.571 -1.339
c -2.038 -1.751 -1.169
c -2.215 -0.792 -2.191
c -2.931 0.338 -1.937
c -2.342 1.428 -2.535
c -2.269 2.469 -1.587
c -1.075 3.155 -1.463
c -0.452 3.243 -0.185
c 0.956 3.046 -0.375
c 1.730 2.303 0.542
c 2.572 1.171 0.063
c 2.828 0.040 0.920
c 2.737 -1.323 0.363
c 2.353 -2.388 1.264
c 1.414 -3.321 0.847
c 0.321 -3.322 1.737
c -0.845 -3.104 1.016
c -1.719 -2.024 1.338
c -2.427 -1.431 0.232
c -2.961 -0.144 0.417
c -3.269 0.659 -0.662
c -2.858 1.954 -0.434
c 1.339 -2.462 -1.345
c 2.319 -1.467 -1.025
c 2.255 -0.348 -1.829
c 2.517 0.939 -1.321
c 1.881 1.825 -2.166
c 1.140 2.868 -1.713
c -0.067 2.884 -2.373
c -0.106 1.782 -3.252
c -1.248 1.002 -3.270
c -1.136 -0.401 -3.050
c 0.130 -1.030 -2.915
c 0.190 -2.140 -2.109
c 1.269 -0.195 -2.869
c 1.124 1.148 -3.097
c -2.281 2.006 0.807
c -1.080 2.729 0.981
c -0.257 2.258 1.974
c 1.166 2.173 1.792
c 1.611 1.233 2.640
c 2.468 0.199 2.291
c 2.027 -0.880 3.045
c 1.969 -2.099 2.560
c 0.651 -2.589 2.777
c -0.149 -1.555 3.224
c -1.338 -1.181 2.488
c -1.635 0.243 2.418
c -2.458 0.712 1.416
c -0.620 1.174 2.811
c 0.533 0.711 3.355
c 0.761 -0.571 3.583




