%chk=000467.chk
%mem=8GB
%Nproc=32
#p B3LYP/6-31G* opt pop=NPA

Template file

0 1
c -2.991 1.598 0.667
c -2.927 0.623 1.612
c -1.862 0.495 2.400
c -1.477 -0.888 2.379
c -0.208 -1.248 2.718
c 0.481 -2.176 1.834
c 1.902 -2.140 1.925
c 2.606 -2.113 0.745
c 3.513 -1.039 0.776
c 3.291 -0.283 -0.353
c 2.884 1.113 -0.252
c 1.911 1.569 -1.198
c 0.726 2.338 -0.775
c -0.461 2.362 -1.638
c -1.743 2.378 -1.024
c -2.851 1.595 -1.547
c -3.498 1.060 -0.464
c -3.627 -0.352 -0.271
c -3.217 -0.585 1.008
c -2.214 -1.492 1.358
c -1.867 2.381 0.372
c -0.755 2.339 1.218
c 0.562 2.523 0.645
c 1.656 2.258 1.493
c 2.847 1.613 1.053
c 3.316 0.825 2.148
c 3.536 -0.524 1.991
c 2.578 -1.228 2.761
c 1.905 -0.307 3.480
c 0.546 -0.233 3.380
c 0.239 1.153 3.086
c -0.875 1.484 2.412
c 1.429 1.761 2.786
c 2.423 0.941 3.142
c -1.563 -2.263 0.362
c -0.159 -2.520 0.546
c 0.678 -2.533 -0.661
c 2.030 -2.188 -0.470
c 2.613 -1.121 -1.218
c 1.964 -0.643 -2.252
c 1.725 0.762 -2.332
c 0.670 0.894 -3.157
c -0.423 1.680 -2.884
c -1.529 0.928 -3.353
c -2.680 0.800 -2.645
c -2.882 -0.614 -2.477
c -3.161 -1.174 -1.254
c -2.101 -2.119 -0.959
c -1.274 -2.154 -2.090
c 0.125 -2.233 -1.946
c 0.877 -1.310 -2.782
c 0.233 -0.376 -3.557
c -1.081 -0.349 -3.698
c -1.843 -1.267 -3.039




