%chk=000313.chk
%mem=8GB
%Nproc=32
#p B3LYP/6-31G* opt pop=NPA

Template file

0 1
c 1.190 2.204 -3.023
c 1.373 0.796 -3.110
c 0.250 -0.063 -3.203
c 0.518 -1.246 -2.511
c -0.489 -2.023 -1.886
c -0.082 -2.923 -0.893
c -0.951 -3.404 0.109
c -0.176 -3.638 1.249
c -0.563 -3.214 2.499
c 0.433 -2.379 2.976
c -0.162 -1.203 3.443
c 0.427 -0.018 3.116
c -0.326 1.088 2.619
c 0.544 1.936 1.972
c 0.159 2.822 0.952
c 1.217 3.278 0.098
c 0.978 3.584 -1.225
c 1.892 2.881 -2.040
c -0.115 2.674 -2.922
c -0.239 3.444 -1.751
c -1.313 2.967 -0.994
c -1.169 2.621 0.386
c -1.987 1.537 0.908
c -1.655 0.905 2.162
c -2.237 -0.343 2.513
c -1.522 -1.328 3.218
c -1.760 -2.581 2.657
c -2.569 -2.390 1.576
c -2.192 -2.774 0.279
c -2.511 -1.711 -0.567
c -1.789 -1.413 -1.730
c -1.954 -0.134 -2.247
c -1.041 0.472 -3.116
c -1.167 1.837 -2.962
c -1.949 2.069 -1.839
c -2.477 0.911 -1.407
c -2.697 0.690 -0.065
c -2.977 -0.626 0.261
c -2.924 -1.058 1.538
c 1.213 -2.773 -0.302
c 1.090 -3.161 1.006
c 1.497 -2.342 2.058
c 2.151 -1.148 1.751
c 1.662 0.009 2.453
c 1.807 1.256 1.920
c 2.639 1.476 0.871
c 2.422 2.553 0.080
c 2.754 2.239 -1.218
c 2.985 0.872 -1.279
c 2.300 0.144 -2.255
c 1.794 -1.107 -1.907
c 2.061 -1.730 -0.666
c 2.624 -0.920 0.402
c 3.012 0.382 0.045




