%chk=000122.chk
%mem=8GB
%Nproc=32
#p B3LYP/6-31G* opt pop=NPA

Template file

0 1
c -0.990 -2.492 -2.238
c -0.483 -1.370 -2.884
c 0.786 -0.872 -2.521
c 0.991 0.580 -2.556
c 2.058 1.160 -1.785
c 1.807 2.397 -1.077
c 2.247 2.577 0.275
c 1.157 3.044 0.984
c 0.629 2.379 2.093
c -0.786 2.285 1.853
c -1.522 1.114 2.163
c -2.565 0.639 1.231
c -2.790 -0.796 1.060
c -3.208 -1.303 -0.204
c -2.608 -2.481 -0.707
c -2.324 -2.290 -2.009
c -0.432 -3.017 -1.097
c -1.504 -3.050 -0.126
c -1.232 -2.751 1.150
c -1.933 -1.657 1.780
c -1.062 -1.164 2.700
c -0.784 0.164 2.890
c 0.634 0.250 3.116
c 1.382 1.361 2.688
c 2.677 1.092 2.125
c 3.057 1.684 0.864
c 3.562 0.670 0.069
c 2.951 0.299 -1.149
c 2.682 -1.102 -1.038
c 1.544 -1.671 -1.570
c 0.860 -2.679 -0.726
c 1.179 -2.765 0.690
c 0.079 -2.750 1.599
c 0.111 -1.877 2.675
c 1.158 -1.075 2.980
c 2.342 -1.298 2.330
c 3.145 -0.220 2.061
c 3.687 -0.416 0.830
c 3.138 -1.490 0.228
c 2.335 -2.138 1.139
c 0.574 3.026 -1.173
c 0.178 3.361 0.136
c -1.054 2.988 0.672
c -2.025 2.574 -0.187
c -2.823 1.450 0.084
c -3.147 0.875 -1.174
c -3.346 -0.454 -1.322
c -2.700 -1.094 -2.413
c -1.606 -0.508 -3.080
c -1.443 0.823 -2.969
c -0.174 1.390 -2.773
c -0.377 2.562 -2.014
c -1.698 2.523 -1.552
c -2.336 1.516 -2.123




