%chk=000226.chk
%mem=8GB
%Nproc=32
#p B3LYP/6-31G* opt pop=NPA

Template file

0 1
c -1.618 2.609 -0.854
c -0.229 2.897 -0.993
c 0.528 2.066 -1.920
c 1.838 1.658 -1.482
c 2.387 0.427 -1.838
c 2.915 -0.190 -0.662
c 2.741 -1.585 -0.424
c 2.361 -1.920 0.891
c 1.325 -2.836 1.066
c 0.513 -2.408 2.056
c -0.807 -2.520 1.639
c -1.666 -1.516 2.003
c -2.582 -1.025 1.072
c -2.808 0.333 1.420
c -2.986 1.275 0.411
c -2.253 2.485 0.427
c -2.178 1.648 -1.637
c -2.985 0.824 -0.867
c -2.812 -0.484 -1.261
c -2.576 -1.498 -0.290
c -1.690 -2.577 -0.664
c -0.797 -3.059 0.341
c 0.577 -3.350 0.037
c 1.053 -3.230 -1.226
c 2.170 -2.341 -1.476
c 1.876 -1.719 -2.686
c 1.830 -0.333 -2.817
c 0.540 0.016 -3.309
c -0.149 1.138 -2.811
c -1.528 0.906 -2.560
c -2.069 -0.423 -2.447
c -1.349 -1.475 -2.858
c -1.172 -2.598 -1.991
c 0.140 -3.038 -2.238
c 0.705 -2.207 -3.143
c -0.130 -1.214 -3.471
c 2.296 1.945 -0.201
c 2.836 0.750 0.359
c 2.538 0.387 1.713
c 2.208 -0.952 1.913
c 1.030 -1.286 2.658
c 0.177 -0.308 3.175
c -1.224 -0.452 2.831
c -2.013 0.668 2.526
c -1.479 1.948 2.649
c -1.591 2.868 1.549
c -0.350 3.456 1.390
c 0.388 3.352 0.193
c 1.660 2.848 0.586
c 1.615 2.605 1.957
c 1.864 1.338 2.487
c 0.681 0.988 3.238
c -0.186 2.076 3.133
c 0.433 3.036 2.409




