%chk=000483.chk
%mem=8GB
%Nproc=32
#p B3LYP/6-31G* opt pop=NPA

Template file

0 1
c 2.312 2.808 -0.921
c 1.400 3.274 -0.066
c 1.149 2.690 1.140
c -0.245 2.781 1.303
c -0.861 2.005 2.175
c -2.123 1.444 1.869
c -2.253 0.370 2.704
c -2.733 -0.863 2.316
c -1.876 -1.797 2.901
c -1.364 -2.821 2.188
c 0.019 -2.782 2.315
c 0.582 -3.122 1.131
c 1.719 -2.453 0.726
c 1.984 -2.269 -0.618
c 2.764 -1.136 -0.754
c 2.739 -0.404 -1.923
c 2.965 0.930 -1.856
c 2.127 1.579 -2.755
c 1.716 2.729 -2.185
c 0.359 3.033 -2.062
c 0.193 3.452 -0.759
c -0.839 3.063 0.050
c 2.998 1.638 -0.643
c 2.775 0.944 0.594
c 2.806 -0.468 0.514
c 2.158 -1.285 1.432
c 1.415 -0.770 2.520
c 0.397 -1.639 3.040
c -0.803 -1.118 3.490
c -1.047 0.190 3.398
c -0.124 1.085 2.944
c 1.192 0.670 2.526
c 1.863 1.516 1.576
c -1.899 2.245 -0.429
c -2.569 1.401 0.519
c -3.032 0.110 0.096
c -3.070 -1.011 0.969
c -2.588 -2.134 0.244
c -1.681 -3.029 0.861
c -0.477 -3.334 0.200
c -0.282 -2.972 -1.125
c 0.968 -2.532 -1.569
c 0.778 -1.636 -2.626
c 1.683 -0.611 -2.859
c 1.244 0.657 -3.281
c -0.140 0.951 -3.223
c -0.581 2.125 -2.555
c -1.712 1.772 -1.772
c -2.048 0.456 -2.092
c -2.697 -0.361 -1.174
c -2.360 -1.725 -1.065
c -1.254 -2.202 -1.790
c -0.603 -1.382 -2.712
c -1.042 -0.065 -2.930




