%chk=000327.chk
%mem=8GB
%Nproc=32
#p B3LYP/6-31G* opt pop=NPA

Template file

0 1
c -1.509 -3.020 1.061
c -2.022 -2.398 -0.052
c -1.260 -2.220 -1.252
c -1.579 -1.139 -2.134
c -0.556 -0.534 -2.993
c -0.772 0.836 -3.428
c 0.287 1.730 -3.480
c 0.002 2.837 -2.635
c 1.030 2.988 -1.725
c 0.755 2.927 -0.305
c 1.754 2.262 0.512
c 1.390 1.789 1.747
c 1.967 0.611 2.322
c 1.128 0.199 3.302
c 0.847 -1.096 3.538
c -0.528 -1.209 3.683
c -0.902 -2.359 3.098
c -1.918 -2.354 2.210
c -0.168 -3.339 1.193
c 0.213 -2.925 2.466
c 1.319 -2.101 2.685
c 2.147 -1.737 1.596
c 2.613 -0.355 1.507
c 3.023 0.135 0.287
c 2.766 1.475 -0.127
c 2.853 1.485 -1.485
c 2.053 2.212 -2.252
c 1.528 1.361 -3.249
c 1.858 0.057 -2.940
c 0.830 -0.933 -2.786
c 1.093 -1.914 -1.795
c 0.103 -2.602 -1.126
c 0.638 -3.049 0.125
c 1.853 -2.374 0.335
c 2.185 -1.787 -0.864
c 2.943 -0.655 -0.888
c 2.834 0.174 -1.945
c 0.057 1.861 2.219
c -0.065 0.908 3.201
c -1.121 0.030 3.332
c -2.146 0.096 2.363
c -2.564 -1.190 1.833
c -2.806 -1.337 0.461
c -3.010 -0.280 -0.302
c -2.616 -0.261 -1.648
c -2.627 1.049 -1.992
c -1.786 1.578 -2.850
c -1.249 2.739 -2.255
c -1.626 2.772 -0.916
c -0.656 2.836 0.121
c -0.992 2.152 1.358
c -2.143 1.214 1.443
c -2.827 1.027 0.241
c -2.623 1.825 -0.818




