%chk=000532.chk
%mem=8GB
%Nproc=32
#p B3LYP/6-31G* opt pop=NPA

Template file

0 1
c 0.906 -2.716 0.397
c 1.647 -2.775 -0.831
c 2.918 -2.238 -0.935
c 2.920 -1.272 -1.979
c 3.400 -0.084 -1.509
c 2.541 1.096 -1.592
c 2.590 1.931 -0.450
c 1.431 2.539 0.032
c 1.393 2.346 1.462
c 0.189 2.072 2.106
c 0.116 0.817 2.790
c -1.033 0.042 2.676
c -0.589 -1.265 2.306
c -1.309 -2.005 1.367
c -0.539 -2.586 0.286
c -1.123 -2.414 -1.052
c -0.263 -2.078 -2.072
c -0.370 -0.795 -2.728
c 0.922 -0.284 -2.815
c 1.241 0.993 -2.278
c 1.600 -2.095 1.520
c 0.800 -1.311 2.393
c 1.228 -0.023 2.823
c 2.473 0.444 2.478
c 2.520 1.672 1.790
c 3.321 1.537 0.693
c 3.943 0.339 0.774
c 4.012 -0.439 -0.288
c 3.555 -1.718 0.091
c 2.962 -1.643 1.346
c 3.341 -0.385 1.825
c 0.090 1.780 -1.870
c 0.242 2.593 -0.676
c -0.900 2.853 0.097
c -0.951 2.483 1.486
c -2.202 1.899 1.717
c -2.261 0.565 2.256
c -3.156 -0.327 1.633
c -2.641 -1.583 1.143
c -3.201 -1.735 -0.117
c -2.378 -1.895 -1.198
c -2.609 -0.746 -2.058
c -1.482 -0.044 -2.565
c -1.280 1.345 -2.198
c -2.393 1.950 -1.541
c -2.140 2.666 -0.387
c -2.991 2.231 0.631
c -3.895 1.401 0.110
c -4.066 0.149 0.661
c -4.052 -0.722 -0.367
c -3.683 -0.081 -1.538
c -3.575 1.242 -1.260
c 1.020 -2.371 -1.995
c 1.760 -1.355 -2.595




