%chk=000245.chk
%mem=8GB
%Nproc=32
#p B3LYP/6-31G* opt pop=NPA

Template file

0 1
c -0.343 -2.088 -2.234
c 0.811 -1.379 -2.642
c 1.978 -1.492 -1.903
c 2.509 -0.185 -1.701
c 3.125 0.157 -0.465
c 2.694 1.394 0.102
c 2.376 1.482 1.485
c 1.179 2.216 1.606
c 0.076 1.746 2.409
c -1.256 1.965 1.919
c -2.171 0.879 2.045
c -3.106 0.635 1.055
c -3.103 -0.708 0.759
c -3.160 -0.867 -0.603
c -2.301 -1.809 -1.152
c -1.598 -1.493 -2.329
c -0.294 -2.846 -1.048
c -1.454 -2.587 -0.317
c -1.389 -2.405 1.112
c -2.232 -1.373 1.596
c -1.747 -0.390 2.492
c -0.544 -0.549 3.067
c 0.347 0.557 3.131
c 1.606 0.008 3.159
c 2.641 0.432 2.325
c 3.215 -0.716 1.806
c 3.402 -0.896 0.437
c 2.873 -2.173 0.173
c 2.082 -2.434 -0.896
c 0.900 -3.063 -0.402
c 0.971 -3.081 0.999
c -0.144 -2.629 1.784
c 0.199 -1.728 2.862
c 1.518 -1.371 3.092
c 2.532 -1.820 2.322
c 2.270 -2.669 1.312
c 0.683 -0.064 -3.067
c 1.686 0.703 -2.404
c 1.380 1.995 -1.900
c 1.834 2.252 -0.579
c 0.948 2.822 0.389
c -0.314 3.217 0.025
c -1.439 2.773 0.761
c -2.470 2.517 -0.201
c -3.235 1.363 -0.090
c -3.296 0.418 -1.172
c -2.645 0.712 -2.371
c -1.741 -0.229 -2.915
c -0.570 0.476 -3.310
c -0.776 1.796 -3.016
c 0.139 2.550 -2.269
c -0.645 3.201 -1.307
c -1.958 2.824 -1.440
c -2.043 1.951 -2.494




