%chk=000080.chk
%mem=8GB
%Nproc=32
#p B3LYP/6-31G* opt pop=NPA

Template file

0 1
c -0.024 3.124 -0.357
c -1.307 2.563 -0.253
c -1.686 1.965 1.002
c -2.819 1.101 0.987
c -2.895 -0.062 1.807
c -3.306 -1.123 0.988
c -2.491 -2.245 0.783
c -2.186 -2.248 -0.633
c -0.866 -2.446 -1.111
c -0.342 -1.550 -2.142
c 1.100 -1.292 -2.205
c 1.545 -0.128 -2.893
c 2.549 0.741 -2.339
c 2.166 2.056 -2.596
c 1.907 2.914 -1.523
c 0.581 3.301 -1.600
c 0.998 2.737 0.545
c 2.174 2.539 -0.239
c 2.901 1.385 -0.025
c 3.037 0.436 -1.104
c 2.868 -0.809 -0.566
c 1.917 -1.748 -1.123
c 1.396 -2.674 -0.211
c 0.019 -2.973 -0.165
c -0.346 -3.132 1.222
c -1.547 -2.568 1.719
c -1.401 -1.630 2.822
c -1.941 -0.316 2.707
c -0.890 0.613 2.905
c -0.654 1.686 1.997
c 0.738 1.979 1.693
c 1.780 1.040 2.113
c 2.763 0.688 1.132
c 2.996 -0.677 0.825
c 2.582 -1.650 1.660
c 1.846 -2.700 1.107
c 0.818 -3.012 1.952
c 0.900 -2.179 3.043
c -0.187 -1.477 3.421
c 0.150 -0.119 3.419
c 1.460 0.030 3.019
c 1.932 -1.289 2.823
c -3.363 0.716 -0.234
c -3.623 -0.615 -0.186
c -2.962 -1.251 -1.187
c -2.443 -0.307 -2.018
c -1.235 -0.498 -2.656
c -0.690 0.654 -3.185
c 0.636 0.728 -3.497
c 1.049 2.016 -3.336
c 0.055 2.747 -2.743
c -1.051 1.961 -2.643
c -1.864 2.013 -1.515
c -2.744 0.986 -1.409




