%chk=000491.chk
%mem=8GB
%Nproc=32
#p B3LYP/6-31G* opt pop=NPA

Template file

0 1
c 0.023 -1.555 -3.500
c -0.941 -0.604 -3.577
c -0.717 0.638 -3.165
c -1.880 1.010 -2.411
c -1.806 2.031 -1.578
c -2.268 1.937 -0.251
c -1.520 2.873 0.481
c -1.183 2.662 1.780
c 0.089 3.047 2.206
c 0.541 2.158 3.117
c 1.874 1.932 2.864
c 2.331 0.679 2.799
c 2.972 0.504 1.565
c 2.732 -0.746 1.099
c 2.496 -0.997 -0.273
c 1.838 -2.233 -0.588
c 1.304 -2.402 -1.853
c 0.125 -3.179 -2.029
c -0.584 -2.667 -3.013
c -1.870 -2.366 -2.569
c -2.114 -1.100 -2.941
c -2.573 -0.148 -2.067
c 1.198 -1.312 -2.758
c 1.539 0.004 -2.348
c 2.328 0.181 -1.150
c 2.428 1.514 -0.548
c 2.827 1.643 0.806
c 2.208 2.576 1.679
c 1.145 3.338 1.288
c 0.836 3.364 -0.030
c -0.498 3.344 -0.379
c -0.639 2.760 -1.558
c 0.593 2.224 -1.989
c 0.581 1.048 -2.706
c 1.505 2.505 -0.980
c -2.816 -0.436 -0.672
c -2.651 0.664 0.281
c -2.209 0.410 1.644
c -1.480 1.416 2.367
c -0.369 1.099 3.217
c 0.112 -0.219 3.287
c 1.535 -0.408 3.034
c 1.957 -1.387 2.111
c 1.144 -2.396 1.771
c 1.112 -2.889 0.476
c -0.218 -3.357 0.259
c -0.732 -3.408 -0.964
c -1.970 -2.720 -1.246
c -2.518 -1.797 -0.265
c -2.051 -1.963 1.044
c -1.884 -0.908 1.968
c -0.723 -1.198 2.771
c -0.179 -2.333 2.221
c -0.979 -2.832 1.272




