%chk=000413.chk
%mem=8GB
%Nproc=32
#p B3LYP/6-31G* opt pop=NPA

Template file

0 1
c 2.441 0.998 1.540
c 3.136 -0.002 0.819
c 3.302 0.033 -0.516
c 2.624 -1.130 -1.041
c 1.795 -1.005 -2.172
c 0.507 -1.653 -2.079
c -0.580 -0.909 -2.650
c -1.831 -0.961 -2.071
c -2.262 0.375 -1.841
c -2.778 0.729 -0.566
c -2.047 1.764 0.156
c -1.663 1.517 1.524
c -0.255 1.729 1.903
c 0.348 0.731 2.776
c 1.654 0.324 2.457
c 1.934 -1.083 2.296
c 2.686 -1.203 1.189
c 2.269 -1.925 0.055
c 2.013 2.126 0.857
c 0.596 2.488 1.017
c -0.010 3.084 -0.121
c -1.244 2.595 -0.600
c -1.098 2.425 -2.009
c -1.443 1.190 -2.539
c -0.427 0.383 -3.155
c 0.801 0.920 -3.408
c 1.931 0.232 -2.898
c 2.775 1.261 -2.410
c 3.236 1.221 -1.124
c 2.651 2.349 -0.410
c 2.048 3.104 -1.372
c 0.734 3.434 -1.242
c 0.071 2.988 -2.387
c 0.987 2.297 -3.173
c 2.183 2.454 -2.592
c 1.086 -2.673 0.137
c 0.172 -2.558 -0.967
c -1.210 -2.773 -0.643
c -2.189 -1.931 -1.210
c -3.116 -1.635 -0.241
c -3.362 -0.290 0.151
c -3.298 -0.300 1.517
c -2.418 0.545 2.217
c -1.817 -0.277 3.157
c -0.467 -0.264 3.357
c -0.084 -1.637 3.255
c 0.994 -2.005 2.534
c 0.550 -2.863 1.466
c -0.796 -3.117 1.720
c -1.685 -3.093 0.660
c -2.902 -2.398 0.848
c -3.136 -1.612 1.962
c -2.257 -1.604 2.965
c -1.146 -2.395 2.900




