%chk=000363.chk
%mem=8GB
%Nproc=32
#p B3LYP/6-31G* opt pop=NPA

Template file

0 1
c -2.896 -1.293 -1.122
c -1.655 -1.457 -1.801
c -0.693 -2.340 -1.204
c 0.614 -2.334 -1.690
c 1.722 -2.839 -0.965
c 2.841 -2.102 -1.353
c 3.740 -1.590 -0.443
c 3.774 -0.219 -0.628
c 3.621 0.401 0.615
c 2.775 1.472 0.694
c 1.815 1.584 1.734
c 0.842 2.464 1.304
c -0.471 2.388 1.746
c -1.537 2.819 0.940
c -2.660 2.019 1.222
c -3.567 1.673 0.179
c -3.945 0.346 0.073
c -3.635 -0.122 -1.220
c -2.953 -1.629 0.227
c -3.505 -0.583 0.946
c -2.650 -0.291 1.994
c -2.217 1.026 2.146
c -0.867 1.256 2.471
c 0.070 0.209 2.749
c 1.484 0.455 2.542
c 2.373 -0.637 2.431
c 3.469 -0.613 1.548
c 3.567 -1.836 0.887
c 2.518 -2.603 1.298
c 1.568 -3.114 0.401
c 0.318 -2.895 0.968
c -0.830 -2.687 0.212
c -1.901 -2.142 0.893
c -1.702 -1.315 2.053
c -0.416 -1.145 2.549
c 0.506 -2.120 2.169
c 1.841 -1.915 2.286
c 1.070 -1.215 -2.439
c 2.411 -1.076 -2.158
c 2.959 0.127 -1.718
c 2.131 1.245 -1.680
c 2.177 2.007 -0.461
c 1.093 2.756 -0.057
c 0.042 2.993 -0.892
c -1.258 3.190 -0.398
c -2.118 2.766 -1.379
c -3.232 2.054 -1.118
c -3.196 0.913 -1.936
c -1.973 0.860 -2.602
c -1.162 -0.304 -2.572
c 0.258 -0.116 -2.666
c 0.855 1.196 -2.345
c -0.046 2.227 -2.088
c -1.374 2.084 -2.340




