%chk=000103.chk
%mem=8GB
%Nproc=32
#p B3LYP/6-31G* opt pop=NPA

Template file

0 1
c 3.032 1.376 -1.567
c 3.232 0.014 -1.454
c 2.231 -0.906 -1.948
c 2.091 -1.940 -0.991
c 0.828 -2.498 -0.657
c 0.508 -2.651 0.784
c -0.854 -2.632 1.199
c -1.193 -1.784 2.318
c -2.338 -0.936 2.258
c -1.908 0.316 2.619
c -2.012 1.430 1.784
c -0.761 2.084 1.867
c -0.210 2.745 0.786
c 1.227 2.850 0.796
c 1.908 2.956 -0.388
c 3.032 2.157 -0.381
c 1.943 1.799 -2.279
c 1.270 2.790 -1.559
c -0.075 2.599 -1.646
c -0.920 2.630 -0.491
c -2.175 1.914 -0.584
c -2.765 1.324 0.604
c -3.550 0.112 0.465
c -3.227 -1.046 1.268
c -3.097 -2.125 0.406
c -1.842 -2.762 0.232
c -1.536 -2.652 -1.160
c -0.230 -2.302 -1.581
c -0.101 -1.209 -2.571
c 1.111 -0.470 -2.672
c 1.007 0.955 -2.820
c -0.231 1.590 -2.616
c -1.348 0.902 -2.670
c -2.423 1.203 -1.815
c -3.229 0.105 -1.869
c -3.838 -0.401 -0.780
c -3.561 -1.760 -0.775
c -2.660 -2.065 -1.749
c -2.514 -0.950 -2.501
c -1.303 -0.498 -2.873
c -0.207 -1.070 2.999
c -0.666 0.239 3.127
c 0.081 1.334 2.763
c 1.466 1.205 2.595
c 2.055 2.045 1.642
c 3.187 1.614 0.867
c 3.616 0.299 0.950
c 3.647 -0.470 -0.243
c 3.024 -1.671 -0.008
c 2.697 -1.738 1.297
c 1.473 -2.153 1.712
c 1.098 -1.246 2.730
c 1.987 -0.133 2.690
c 3.029 -0.518 1.889




