%chk=000008.chk
%mem=8GB
%Nproc=32
#p B3LYP/6-31G* opt pop=NPA

Template file

0 1
c 0.839 2.800 1.536
c 1.449 1.840 2.385
c 2.202 0.768 1.805
c 1.932 -0.509 2.348
c 1.908 -1.653 1.509
c 0.907 -2.473 2.001
c -0.070 -3.013 1.181
c -1.283 -2.643 1.792
c -2.262 -1.967 1.088
c -2.564 -0.790 1.787
c -2.734 0.451 1.067
c -2.286 1.590 1.751
c -1.541 2.587 1.065
c -0.485 2.935 1.932
c 1.091 2.791 0.229
c 0.031 2.863 -0.708
c -1.308 2.524 -0.300
c -1.989 1.543 -1.087
c -2.622 0.436 -0.379
c -2.504 -0.840 -1.017
c -2.177 -1.966 -0.264
c -1.110 -2.626 -0.921
c 0.076 -2.951 -0.186
c 1.314 -2.455 -0.725
c 2.152 -1.600 0.139
c 2.686 -0.369 -0.392
c 2.541 0.835 0.406
c 2.078 1.987 -0.319
c 1.867 1.974 -1.680
c 0.539 2.491 -1.909
c -0.266 1.897 -2.856
c -1.491 1.321 -2.410
c -1.564 0.062 -3.044
c -1.928 -1.015 -2.268
c -1.048 -2.151 -2.195
c 0.151 -2.139 -2.878
c 1.358 -2.227 -2.092
c 2.208 -1.267 -2.606
c 2.714 -0.249 -1.799
c 2.340 0.964 -2.462
c 1.638 0.628 -3.617
c 0.316 1.053 -3.774
c -0.477 -0.067 -3.902
c 0.355 -1.181 -3.849
c 1.628 -0.718 -3.709
c 0.936 -0.705 3.375
c 0.330 -1.897 3.103
c -1.043 -1.989 2.954
c -1.844 -0.866 3.030
c -1.311 0.268 3.572
c -1.695 1.471 3.037
c -0.631 2.294 3.078
c 0.507 1.603 3.399
c 0.139 0.350 3.779




