%chk=000221.chk
%mem=8GB
%Nproc=32
#p B3LYP/6-31G* opt pop=NPA

Template file

0 1
c 2.553 0.048 -1.860
c 2.943 -0.057 -0.534
c 2.558 -1.164 0.218
c 2.288 -0.727 1.538
c 1.379 -1.429 2.343
c 0.385 -0.623 2.970
c -0.966 -1.051 2.967
c -1.717 0.026 2.467
c -2.597 -0.141 1.332
c -2.567 0.877 0.323
c -2.439 0.470 -1.066
c -1.894 1.400 -1.986
c -1.064 0.942 -2.984
c -0.015 1.824 -3.167
c 1.137 1.079 -3.244
c 2.209 1.310 -2.410
c 1.659 -0.932 -2.371
c 0.786 -0.247 -3.176
c -0.597 -0.362 -3.028
c -1.117 -1.325 -2.208
c -2.232 -0.933 -1.343
c -2.606 -1.857 -0.394
c -2.816 -1.464 0.966
c -2.352 -2.531 1.753
c -1.303 -2.334 2.671
c -0.274 -3.213 2.279
c 0.979 -2.705 1.927
c 1.197 -3.101 0.556
c 1.829 -2.245 -0.333
c 1.197 -2.006 -1.611
c -0.211 -2.361 -1.750
c -0.722 -3.306 -0.899
c -2.006 -3.113 -0.350
c -1.988 -3.548 0.934
c -0.746 -3.957 1.247
c 0.062 -3.792 0.167
c 2.915 1.079 0.288
c 2.410 0.673 1.547
c 1.468 1.476 2.245
c 0.400 0.759 2.837
c -0.949 1.152 2.584
c -1.199 2.252 1.827
c -2.011 2.139 0.667
c -1.477 3.039 -0.282
c -1.374 2.658 -1.599
c -0.140 2.873 -2.314
c 1.011 3.292 -1.609
c 2.172 2.444 -1.594
c 2.592 2.332 -0.246
c 1.784 3.152 0.503
c 1.172 2.733 1.687
c -0.174 3.109 1.540
c -0.373 3.653 0.305
c 0.840 3.733 -0.330




