%chk=000454.chk
%mem=8GB
%Nproc=32
#p B3LYP/6-31G* opt pop=NPA

Template file

0 1
c 0.297 2.556 -2.109
c -0.639 2.088 -3.036
c -1.968 2.073 -2.776
c -2.404 0.738 -2.838
c -3.126 0.437 -1.674
c -2.797 -0.731 -0.893
c -2.727 -0.638 0.562
c -1.897 -1.555 1.328
c -1.307 -1.064 2.548
c -0.083 -1.546 3.055
c 0.686 -0.413 3.410
c 1.979 -0.185 2.957
c 1.945 1.098 2.338
c 2.536 1.272 1.098
c 1.909 2.063 0.120
c 2.193 1.457 -1.117
c 1.370 1.653 -2.178
c 0.986 0.531 -2.963
c -0.265 0.828 -3.440
c -1.360 -0.035 -3.272
c -0.133 3.085 -0.841
c 0.676 2.765 0.326
c 0.031 2.490 1.600
c 0.685 1.672 2.546
c -0.053 0.684 3.216
c -1.321 0.317 2.825
c -2.007 1.162 2.068
c -2.876 0.693 1.090
c -3.085 1.764 0.267
c -3.254 1.663 -1.039
c -2.426 2.613 -1.654
c -1.557 3.152 -0.680
c -2.093 2.735 0.513
c -1.376 2.361 1.580
c -1.114 -1.220 -2.646
c -1.878 -1.617 -1.498
c -1.090 -2.484 -0.766
c -1.135 -2.573 0.651
c 0.033 -3.120 1.269
c 0.563 -2.580 2.471
c 1.967 -2.479 2.310
c 2.643 -1.243 2.383
c 3.274 -1.057 1.117
c 3.157 0.167 0.469
c 2.809 0.222 -0.893
c 2.382 -0.951 -1.619
c 1.323 -0.769 -2.554
c 0.193 -1.668 -2.455
c 0.155 -2.616 -1.467
c 1.277 -2.984 -0.814
c 1.161 -3.420 0.483
c 2.274 -3.038 1.144
c 3.020 -2.201 0.371
c 2.444 -2.151 -0.895




