%chk=000047.chk
%mem=8GB
%Nproc=32
#p B3LYP/6-31G* opt pop=NPA

Template file

0 1
c -0.591 -2.164 1.554
c -0.312 -2.719 0.304
c 0.973 -2.374 -0.277
c 0.939 -1.983 -1.680
c 1.598 -0.772 -2.018
c 0.803 0.342 -2.532
c 0.907 1.613 -1.862
c -0.292 2.183 -1.318
c -0.184 2.734 0.043
c -1.304 2.483 0.869
c -1.150 1.939 2.166
c -2.044 0.850 2.275
c -1.537 -0.407 2.615
c -1.829 -1.495 1.782
c 0.398 -1.567 2.332
c -0.222 -0.494 3.030
c 0.516 0.648 3.282
c 0.074 1.886 2.722
c 1.166 2.493 2.108
c 1.093 2.865 0.702
c 2.263 2.582 -0.039
c 2.125 1.883 -1.265
c 3.093 0.867 -1.236
c 2.709 -0.460 -1.346
c 3.037 -1.089 -0.110
c 2.029 -1.854 0.543
c 1.753 -1.486 1.927
c 2.538 -0.444 2.531
c 1.852 0.617 3.148
c 2.287 1.818 2.600
c 3.370 1.582 1.870
c 3.424 2.043 0.591
c 3.851 1.002 -0.162
c 3.839 -0.176 0.570
c 3.568 0.166 1.844
c -2.441 1.915 0.363
c -2.890 0.921 1.221
c -3.339 -0.139 0.486
c -2.830 -1.448 0.781
c -2.690 -2.303 -0.302
c -1.414 -2.947 -0.542
c -1.249 -2.952 -1.912
c -0.138 -2.317 -2.468
c -0.674 -1.336 -3.340
c -0.352 0.007 -3.156
c -1.559 0.691 -2.852
c -1.557 1.664 -1.831
c -2.628 1.515 -0.912
c -3.415 0.314 -0.852
c -3.410 -0.569 -1.870
c -3.191 -1.938 -1.559
c -2.373 -2.443 -2.504
c -2.015 -1.461 -3.353
c -2.578 -0.284 -2.960




