%chk=000286.chk
%mem=8GB
%Nproc=32
#p B3LYP/6-31G* opt pop=NPA

Template file

0 1
c 3.458 -1.206 0.387
c 2.548 -2.227 0.578
c 1.613 -2.523 -0.403
c 0.310 -2.913 0.050
c -0.800 -2.854 -0.765
c -1.899 -2.343 -0.011
c -2.904 -1.533 -0.605
c -3.403 -0.508 0.204
c -3.660 0.748 -0.380
c -3.312 1.686 0.493
c -2.411 2.549 -0.058
c -1.381 2.696 0.823
c -0.085 2.838 0.377
c 0.879 2.622 1.346
c 2.165 2.409 1.008
c 2.788 1.634 1.954
c 3.654 0.802 1.309
c 3.647 -0.520 1.583
c 3.307 -0.282 -0.656
c 3.440 0.967 -0.063
c 2.513 1.981 -0.276
c 1.528 1.879 -1.265
c 0.221 2.485 -1.019
c -0.881 2.180 -1.905
c -2.212 2.197 -1.372
c -3.136 1.101 -1.614
c -2.797 0.125 -2.465
c -2.739 -1.244 -1.996
c -1.689 -1.826 -2.698
c -0.658 -2.505 -2.078
c 0.578 -1.892 -2.488
c 1.652 -1.766 -1.632
c 2.340 -0.477 -1.627
c 1.605 0.706 -2.106
c 0.562 0.486 -2.969
c -0.657 1.230 -2.909
c -1.683 0.320 -3.258
c -1.122 -0.870 -3.478
c 0.206 -0.825 -3.284
c -2.842 -0.228 1.509
c -2.813 1.154 1.624
c -1.661 1.824 1.952
c -0.643 1.201 2.635
c 0.619 1.799 2.505
c 1.805 1.153 2.838
c 1.762 -0.220 3.096
c 2.745 -1.024 2.495
c 2.127 -2.093 1.921
c 0.796 -2.099 2.260
c -0.109 -2.586 1.359
c -1.407 -2.101 1.294
c -1.776 -0.954 2.044
c -0.712 -0.247 2.766
c 0.523 -0.905 2.970




