%chk=000266.chk
%mem=8GB
%Nproc=32
#p B3LYP/6-31G* opt pop=NPA

Template file

0 1
c 2.098 -2.653 2.381
c 2.543 -1.463 2.898
c 1.627 -0.453 3.228
c 2.058 0.734 2.514
c 1.163 1.677 2.030
c 1.298 2.187 0.659
c 0.212 2.907 0.048
c 0.148 2.999 -1.346
c -1.099 3.066 -2.013
c -0.997 2.423 -3.183
c -1.977 1.468 -3.294
c -1.330 0.286 -3.596
c -1.532 -0.862 -2.868
c -0.261 -1.414 -2.566
c -0.021 -2.245 -1.484
c 1.321 -2.330 -0.982
c 1.540 -3.061 0.206
c 2.595 -2.768 1.061
c 0.774 -2.906 2.333
c 0.440 -3.265 1.040
c -0.810 -2.824 0.736
c -1.130 -2.428 -0.555
c -2.270 -1.609 -0.709
c -2.494 -0.856 -1.856
c -3.120 0.369 -1.485
c -2.783 1.555 -2.169
c -2.270 2.648 -1.391
c -2.262 2.569 -0.032
c -1.059 2.842 0.694
c -1.161 2.168 1.873
c -0.137 1.558 2.522
c -0.626 0.307 3.009
c 0.234 -0.739 3.288
c -0.186 -2.013 2.781
c -1.271 -2.085 1.867
c -2.183 -1.055 1.690
c -2.772 -0.893 0.400
c -3.225 0.353 -0.094
c -2.890 1.496 0.631
c -2.247 1.328 1.826
c -1.891 0.128 2.393
c 0.983 2.186 -2.169
c 0.234 1.858 -3.297
c 0.043 0.541 -3.617
c 0.701 -0.446 -2.942
c 1.746 -0.152 -2.057
c 2.209 -1.181 -1.237
c 3.105 -0.829 -0.220
c 3.390 -1.689 0.830
c 3.409 -0.948 1.984
c 3.102 0.329 1.708
c 3.014 0.491 0.335
c 2.197 1.449 -0.228
c 1.822 1.245 -1.574




