%chk=000433.chk
%mem=8GB
%Nproc=32
#p B3LYP/6-31G* opt pop=NPA

Template file

0 1
c 0.590 -0.272 3.200
c 0.461 -1.654 3.117
c 1.363 -2.424 2.509
c 0.713 -3.124 1.472
c 1.497 -3.093 0.358
c 0.937 -2.832 -0.900
c 1.822 -2.213 -1.814
c 1.338 -1.481 -2.860
c 2.129 -0.373 -3.022
c 1.380 0.729 -3.094
c 1.804 1.624 -2.114
c 0.850 2.412 -1.482
c 1.066 2.621 -0.089
c 0.006 2.915 0.755
c 0.174 2.166 1.943
c -0.949 1.514 2.545
c -0.702 0.244 3.026
c -1.545 -0.848 2.594
c -0.777 -1.945 2.589
c -0.621 -2.768 1.462
c 1.719 0.359 2.578
c 1.443 1.567 1.909
c 2.017 1.866 0.644
c 2.926 1.000 0.012
c 2.853 0.948 -1.395
c 3.023 -0.292 -2.037
c 2.988 -1.474 -1.340
c 3.258 -1.456 -0.022
c 2.674 -2.388 0.759
c 2.489 -1.885 2.010
c 2.692 -0.494 1.977
c 3.224 -0.209 0.702
c -1.288 -2.428 0.271
c -0.498 -2.477 -0.971
c -0.934 -1.631 -2.070
c 0.033 -1.079 -2.930
c 0.063 0.353 -3.189
c -0.918 1.169 -2.735
c -0.528 2.348 -1.939
c -1.530 2.902 -1.122
c -1.251 3.160 0.255
c -2.352 2.719 0.988
c -2.198 1.743 1.969
c -3.028 0.632 1.551
c -2.511 -0.668 1.635
c -2.383 -1.489 0.401
c -2.874 -0.889 -0.766
c -2.065 -0.843 -1.910
c -2.113 0.513 -2.398
c -3.071 1.160 -1.711
c -2.832 2.390 -1.148
c -3.298 2.322 0.128
c -3.693 1.041 0.424
c -3.571 0.310 -0.722




