%chk=000427.chk
%mem=8GB
%Nproc=32
#p B3LYP/6-31G* opt pop=NPA

Template file

0 1
c 3.636 -0.735 0.267
c 3.959 0.173 1.258
c 3.398 -0.198 2.391
c 2.504 0.769 2.804
c 1.323 0.155 3.120
c 0.091 0.775 2.896
c -1.012 -0.082 2.852
c -2.226 0.248 2.221
c -2.800 -0.919 1.765
c -3.330 -1.072 0.488
c -2.724 -2.258 0.003
c -2.178 -2.344 -1.237
c -0.783 -2.693 -1.064
c 0.239 -2.092 -1.855
c 1.482 -1.768 -1.221
c 2.185 -0.552 -1.661
c 3.188 -0.045 -0.829
c 3.149 1.340 -0.416
c 3.491 1.394 0.907
c 2.527 1.814 1.877
c 2.849 -1.742 0.833
c 1.730 -2.235 0.148
c 0.593 -2.593 0.954
c -0.589 -2.942 0.301
c -1.822 -2.713 0.916
c -1.919 -1.949 2.026
c -0.814 -1.481 2.643
c 0.450 -1.961 2.284
c 1.498 -1.250 2.766
c 2.731 -1.365 2.198
c 1.313 2.391 1.448
c 0.063 1.955 2.046
c -1.157 2.202 1.327
c -2.281 1.355 1.412
c -2.927 1.283 0.145
c -3.452 0.030 -0.368
c -3.235 -0.218 -1.744
c -2.548 -1.434 -2.164
c -1.620 -1.076 -3.105
c -0.232 -1.270 -2.907
c 0.373 -0.015 -3.173
c 1.476 0.394 -2.463
c 1.421 1.753 -1.969
c 2.140 2.109 -0.863
c 1.245 2.726 0.066
c 0.057 2.920 -0.609
c -1.160 2.714 0.027
c -2.262 2.193 -0.691
c -2.147 1.932 -2.054
c -2.731 0.779 -2.560
c -1.830 0.212 -3.418
c -0.682 0.888 -3.427
c -0.857 2.033 -2.662
c 0.209 2.459 -1.931




