%chk=000442.chk
%mem=8GB
%Nproc=32
#p B3LYP/6-31G* opt pop=NPA

Template file

0 1
c -1.497 -0.103 -3.172
c -1.611 1.249 -3.299
c -0.418 1.821 -3.384
c -0.359 2.846 -2.409
c 0.827 3.011 -1.731
c 0.862 3.108 -0.309
c 2.001 2.434 0.167
c 2.017 1.695 1.376
c 2.812 0.505 1.365
c 2.525 -0.574 2.192
c 2.639 -1.742 1.399
c 1.684 -2.728 1.362
c 1.253 -2.819 -0.016
c -0.120 -2.929 -0.346
c -0.605 -2.160 -1.479
c -1.961 -1.588 -1.374
c -2.306 -0.506 -2.152
c -2.845 0.705 -1.550
c -2.330 1.761 -2.274
c -1.572 2.764 -1.673
c -0.157 -0.453 -3.223
c 0.345 -1.465 -2.358
c 1.705 -1.308 -1.915
c 2.110 -2.010 -0.775
c 2.964 -1.384 0.153
c 3.240 -0.049 0.116
c 3.034 0.602 -1.036
c 2.606 1.898 -0.977
c 1.882 2.180 -2.073
c 1.727 0.994 -2.834
c 0.538 0.787 -3.442
c 2.341 -0.026 -2.117
c -1.534 2.792 -0.276
c -0.321 2.998 0.410
c -0.350 2.277 1.613
c 0.813 1.672 2.176
c 0.585 0.573 3.040
c 1.488 -0.524 3.084
c 0.741 -1.673 3.286
c 0.791 -2.787 2.392
c -0.504 -3.092 2.099
c -0.984 -3.141 0.774
c -2.188 -2.461 0.825
c -2.595 -1.621 -0.136
c -3.003 -0.401 0.518
c -2.969 0.788 -0.168
c -2.277 1.865 0.475
c -1.618 1.647 1.703
c -1.817 0.493 2.466
c -0.719 0.039 3.247
c -0.558 -1.333 3.482
c -1.337 -2.257 2.850
c -2.337 -1.852 2.065
c -2.638 -0.518 1.863




