%chk=000146.chk
%mem=8GB
%Nproc=32
#p B3LYP/6-31G* opt pop=NPA

Template file

0 1
c -0.343 0.991 -3.215
c 0.958 0.567 -2.956
c 1.207 -0.776 -2.599
c 2.280 -0.823 -1.716
c 2.330 -1.788 -0.648
c 2.927 -1.314 0.557
c 2.331 -1.585 1.804
c 2.135 -0.339 2.481
c 0.827 0.057 2.957
c 0.303 1.342 2.517
c -1.096 1.436 2.112
c -1.430 2.414 1.123
c -2.426 2.182 0.143
c -2.015 2.796 -1.031
c -2.000 2.125 -2.226
c -0.729 2.229 -2.752
c -1.425 0.106 -2.996
c -2.438 0.831 -2.322
c -3.055 0.253 -1.206
c -3.024 0.943 0.055
c -2.839 0.017 1.055
c -1.926 0.254 2.157
c -1.420 -0.898 2.765
c -0.052 -0.994 3.137
c 0.353 -2.307 2.789
c 1.422 -2.547 1.931
c 0.906 -3.206 0.774
c 1.258 -2.747 -0.527
c 0.163 -2.636 -1.450
c 0.148 -1.670 -2.457
c -1.178 -1.216 -2.639
c -1.969 -1.855 -1.686
c -2.900 -1.089 -0.937
c -2.949 -1.266 0.448
c -2.362 -2.344 1.033
c -1.777 -2.172 2.267
c -0.695 -2.964 2.318
c -0.424 -3.497 1.088
c -1.470 -3.172 0.262
c -1.191 -2.814 -1.037
c -0.438 3.208 0.486
c -0.792 3.355 -0.839
c 0.066 3.000 -1.904
c 1.376 2.614 -1.617
c 1.840 1.383 -2.227
c 2.729 0.523 -1.555
c 3.287 0.912 -0.361
c 3.388 -0.023 0.645
c 2.911 0.542 1.829
c 2.506 1.791 1.564
c 1.235 2.227 1.867
c 0.864 3.031 0.783
c 1.814 2.837 -0.289
c 2.802 2.076 0.241




