%chk=000436.chk
%mem=8GB
%Nproc=32
#p B3LYP/6-31G* opt pop=NPA

Template file

0 1
c 1.299 -2.845 -0.578
c 1.810 -3.031 0.683
c 1.029 -3.201 1.767
c 1.456 -2.291 2.744
c 0.351 -1.748 3.306
c 0.146 -0.372 3.367
c -1.180 -0.124 2.983
c -1.556 1.065 2.303
c -2.643 0.937 1.390
c -2.727 1.701 0.226
c -3.037 0.827 -0.877
c -2.386 0.956 -2.121
c -1.741 -0.250 -2.597
c -0.460 -0.195 -3.168
c 0.295 -1.268 -2.638
c 1.653 -1.080 -2.241
c 2.101 -1.846 -1.187
c 2.911 -1.267 -0.159
c 2.730 -2.027 0.958
c 2.456 -1.494 2.212
c -0.107 -2.881 -0.791
c -0.565 -2.097 -1.886
c -1.819 -1.468 -1.878
c -2.605 -1.569 -0.755
c -3.221 -0.406 -0.315
c -3.087 -0.334 1.037
c -2.543 -1.481 1.513
c -1.727 -1.402 2.597
c -0.753 -2.332 2.729
c -0.346 -3.167 1.664
c -0.968 -3.023 0.386
c -2.173 -2.281 0.376
c 2.320 -0.102 2.293
c 1.158 0.466 2.892
c 0.834 1.631 2.204
c -0.517 2.013 1.957
c -0.716 2.862 0.849
c -1.870 2.734 0.023
c -1.509 3.045 -1.260
c -1.721 2.170 -2.355
c -0.527 2.192 -3.061
c 0.139 1.029 -3.422
c 1.461 1.198 -3.004
c 2.159 0.232 -2.335
c 2.742 0.866 -1.188
c 3.032 0.132 -0.057
c 2.657 0.704 1.202
c 1.845 1.857 1.231
c 1.625 2.639 0.100
c 0.348 3.258 -0.005
c -0.211 3.476 -1.267
c 0.377 3.027 -2.400
c 1.569 2.395 -2.328
c 2.214 2.171 -1.122




