%chk=000364.chk
%mem=8GB
%Nproc=32
#p B3LYP/6-31G* opt pop=NPA

Template file

0 1
c -1.154 -0.009 -3.563
c -2.080 -0.497 -2.621
c -2.409 0.266 -1.475
c -2.617 -0.420 -0.204
c -2.791 0.341 0.985
c -2.504 -0.258 2.246
c -2.095 0.520 3.358
c -1.036 -0.102 3.934
c 0.070 0.725 3.945
c 1.098 0.060 3.311
c 1.910 0.713 2.358
c 2.596 -0.127 1.498
c 3.048 0.310 0.285
c 3.091 -0.719 -0.623
c 2.756 -0.278 -1.883
c 2.000 -1.111 -2.757
c 1.085 -0.444 -3.624
c -0.201 -0.982 -3.845
c -0.508 1.148 -3.355
c 0.859 0.920 -3.419
c 1.465 1.671 -2.435
c 2.466 1.116 -1.699
c 2.590 1.445 -0.321
c 1.672 2.258 0.387
c 1.460 2.005 1.812
c 0.305 2.560 2.423
c -0.339 1.936 3.492
c -1.722 1.822 3.186
c -1.920 2.399 2.003
c -2.482 1.740 0.911
c -1.839 2.238 -0.214
c -1.858 1.610 -1.418
c -0.788 1.940 -2.287
c 0.458 2.386 -1.755
c 0.560 2.752 -0.410
c -0.653 2.924 0.241
c -0.727 2.968 1.583
c -1.697 -1.431 2.275
c -0.752 -1.232 3.287
c 0.599 -1.261 2.993
c 1.041 -1.963 1.897
c 2.208 -1.487 1.286
c 2.554 -1.840 -0.029
c 1.729 -2.618 -0.787
c 1.537 -2.351 -2.170
c 0.251 -2.795 -2.449
c -0.601 -2.109 -3.238
c -1.752 -1.826 -2.476
c -1.638 -2.416 -1.236
c -2.044 -1.763 -0.077
c -1.338 -2.094 1.129
c 0.053 -2.561 1.028
c 0.480 -3.011 -0.222
c -0.395 -3.066 -1.258




