%chk=000062.chk
%mem=8GB
%Nproc=32
#p B3LYP/6-31G* opt pop=NPA

Template file

0 1
c 2.347 0.075 -2.699
c 2.889 0.162 -1.440
c 2.611 -0.818 -0.475
c 2.747 -0.396 0.845
c 2.140 -1.068 1.911
c 1.827 -0.084 2.859
c 0.576 0.001 3.453
c 0.101 1.273 3.147
c -1.103 1.476 2.469
c -0.806 2.376 1.422
c -1.462 2.323 0.194
c -0.729 2.851 -0.914
c -0.914 2.379 -2.226
c 0.276 2.517 -2.920
c 0.843 1.444 -3.605
c 2.120 1.333 -3.172
c 1.232 -0.705 -2.928
c 0.261 0.194 -3.508
c -1.028 0.101 -3.049
c -1.638 1.222 -2.377
c -2.427 0.719 -1.353
c -2.395 1.233 -0.013
c -2.729 0.306 1.064
c -2.004 0.415 2.320
c -1.618 -0.814 2.991
c -0.254 -1.030 3.328
c 0.173 -2.210 2.650
c 1.269 -2.138 1.709
c 1.033 -2.590 0.333
c 1.621 -1.852 -0.765
c 0.853 -1.705 -2.014
c -0.528 -2.044 -1.994
c -1.450 -1.018 -2.417
c -2.519 -0.648 -1.568
c -2.944 -1.483 -0.624
c -3.164 -1.017 0.698
c -2.892 -2.123 1.505
c -2.068 -2.009 2.561
c -0.951 -2.870 2.339
c -1.118 -3.472 1.142
c -0.206 -3.250 0.097
c -0.998 -2.889 -1.026
c -2.315 -2.727 -0.539
c -2.366 -3.123 0.709
c 2.763 1.014 1.157
c 2.170 1.139 2.369
c 1.095 1.979 2.538
c 0.600 2.688 1.488
c 1.367 2.854 0.335
c 0.663 3.197 -0.813
c 1.231 3.011 -2.052
c 2.376 2.246 -2.202
c 2.892 1.581 -1.111
c 2.551 1.969 0.170




