%chk=000539.chk
%mem=8GB
%Nproc=32
#p B3LYP/6-31G* opt pop=NPA

Template file

0 1
c -1.887 0.309 -2.302
c -0.969 1.380 -2.419
c 0.318 1.193 -3.022
c 1.385 1.829 -2.357
c 2.605 1.166 -2.226
c 3.054 1.339 -0.937
c 3.419 0.122 -0.441
c 2.880 -0.347 0.746
c 2.375 -1.639 0.465
c 1.195 -2.075 1.098
c 0.192 -2.699 0.235
c -1.188 -2.409 0.508
c -2.028 -1.857 -0.559
c -2.811 -0.679 -0.268
c -2.580 0.440 -1.107
c -2.275 1.686 -0.540
c -1.180 2.192 -1.288
c -0.101 2.796 -0.621
c 1.172 2.523 -1.135
c 2.216 2.138 -0.240
c -1.536 -0.927 -2.766
c -1.575 -2.027 -1.845
c -0.430 -2.757 -2.088
c 0.527 -2.984 -1.099
c 1.771 -2.600 -1.670
c 2.675 -1.932 -0.894
c 3.279 -0.799 -1.431
c 2.801 -0.153 -2.603
c 1.835 -0.775 -3.331
c 0.591 -0.088 -3.598
c -0.396 -1.069 -3.533
c 0.190 -2.239 -3.175
c 1.491 -2.085 -2.962
c 1.929 1.865 1.102
c 2.218 0.512 1.623
c 1.330 -0.056 2.576
c 0.773 -1.391 2.275
c -0.539 -1.639 2.729
c -1.523 -2.056 1.780
c -2.653 -1.276 2.025
c -3.137 -0.417 1.042
c -3.078 0.902 1.604
c -2.472 1.939 0.830
c -1.430 2.678 1.464
c -0.233 2.932 0.764
c 0.839 2.512 1.620
c 0.285 2.107 2.781
c 0.523 0.840 3.329
c -0.689 0.455 3.866
c -1.191 -0.777 3.610
c -2.476 -0.595 3.154
c -2.737 0.730 2.961
c -1.682 1.406 3.496
c -1.070 2.359 2.775




