%chk=000083.chk
%mem=8GB
%Nproc=32
#p B3LYP/6-31G* opt pop=NPA

Template file

0 1
c -1.070 -3.146 0.611
c -2.064 -2.348 1.145
c -2.674 -1.376 0.348
c -2.964 -0.142 1.016
c -3.015 1.063 0.313
c -2.331 2.014 1.065
c -1.344 2.830 0.544
c -0.220 2.666 1.411
c 1.082 2.626 0.884
c 1.965 1.707 1.483
c 2.867 0.944 0.685
c 3.015 -0.273 1.318
c 2.897 -1.494 0.677
c 2.117 -2.320 1.499
c 1.159 -3.156 0.908
c -0.047 -3.301 1.536
c -0.541 -2.954 -0.640
c 0.873 -3.018 -0.472
c 1.673 -2.243 -1.278
c 2.702 -1.461 -0.698
c 2.763 -0.256 -1.402
c 2.843 1.013 -0.708
c 2.144 2.081 -1.277
c 1.217 2.850 -0.502
c 0.096 3.127 -1.337
c -1.223 2.967 -0.838
c -2.120 2.148 -1.635
c -2.860 1.101 -1.028
c -2.599 -0.107 -1.735
c -2.311 -1.309 -1.058
c -1.147 -2.071 -1.552
c -0.290 -1.492 -2.570
c 1.132 -1.540 -2.339
c 1.942 -0.389 -2.531
c 1.438 0.712 -3.163
c 1.598 1.958 -2.534
c 0.415 2.643 -2.600
c -0.465 1.891 -3.326
c -1.693 1.643 -2.837
c -1.899 0.264 -2.847
c -0.742 -0.370 -3.274
c 0.138 0.674 -3.617
c -2.377 0.155 2.289
c -1.921 1.449 2.219
c -0.608 1.807 2.483
c 0.258 0.858 3.059
c 1.580 0.890 2.588
c 2.292 -0.298 2.471
c 1.753 -1.549 2.656
c 0.473 -1.630 3.184
c -0.378 -2.587 2.656
c -1.612 -2.039 2.452
c -1.624 -0.766 2.945
c -0.291 -0.443 3.355




