%chk=000518.chk
%mem=8GB
%Nproc=32
#p B3LYP/6-31G* opt pop=NPA

Template file

0 1
c 2.823 -0.856 -2.448
c 1.818 -0.940 -3.355
c 0.787 -0.027 -3.321
c -0.410 -0.818 -3.259
c -1.472 -0.348 -2.595
c -2.082 -1.109 -1.546
c -2.777 -0.221 -0.754
c -2.924 -0.394 0.635
c -3.215 0.808 1.374
c -2.649 0.993 2.620
c -1.994 2.239 2.669
c -0.667 2.030 3.055
c 0.411 2.479 2.205
c 1.515 1.611 2.068
c 2.233 1.468 0.857
c 2.848 0.215 0.863
c 3.199 -0.412 -0.301
c 3.038 -1.819 -0.438
c 2.883 -2.080 -1.757
c 1.850 -2.879 -2.218
c 1.281 -2.213 -3.240
c -0.043 -2.130 -3.062
c 2.891 0.182 -1.543
c 1.976 1.282 -1.588
c 1.771 2.032 -0.372
c 0.646 2.846 -0.244
c 0.045 3.171 1.016
c -1.303 3.406 0.759
c -2.297 2.897 1.552
c -3.089 2.065 0.753
c -2.674 2.195 -0.545
c -2.569 1.084 -1.312
c -1.562 0.970 -2.261
c -0.363 1.783 -2.197
c 0.862 1.164 -2.542
c -0.393 2.756 -1.201
c -1.564 3.056 -0.533
c -0.407 -2.801 -1.874
c -1.434 -2.263 -1.043
c -1.323 -2.336 0.387
c -2.095 -1.440 1.233
c -1.542 -1.119 2.517
c -1.835 0.078 3.138
c -0.642 0.711 3.502
c 0.376 -0.141 3.280
c 1.536 0.330 2.687
c 2.305 -0.519 1.922
c 1.873 -1.838 1.663
c 2.197 -2.461 0.487
c 1.018 -3.125 0.012
c 0.821 -3.272 -1.339
c -0.033 -2.773 0.868
c 0.543 -2.163 1.982
c -0.188 -1.353 2.785




