%chk=000284.chk
%mem=8GB
%Nproc=32
#p B3LYP/6-31G* opt pop=NPA

Template file

0 1
c 1.782 -2.134 2.082
c 0.455 -1.996 2.421
c -0.533 -2.481 1.581
c -1.775 -1.839 1.706
c -2.738 -1.867 0.686
c -3.424 -0.673 0.752
c -3.636 0.103 -0.355
c -3.214 1.367 -0.063
c -2.528 1.866 -1.145
c -1.491 2.686 -0.895
c -0.344 2.655 -1.702
c 0.644 3.193 -0.930
c 1.896 2.727 -0.910
c 2.298 2.612 0.402
c 3.091 1.529 0.534
c 3.031 0.835 1.700
c 3.242 -0.526 1.657
c 2.460 -1.089 2.584
c 2.184 -2.335 0.771
c 3.109 -1.262 0.472
c 3.052 -0.582 -0.763
c 3.065 0.835 -0.725
c 2.256 1.607 -1.613
c 1.314 1.013 -2.496
c -0.071 1.547 -2.561
c -1.183 0.652 -2.836
c -2.411 0.839 -2.109
c -3.163 -0.269 -1.593
c -2.668 -1.554 -1.732
c -2.391 -2.358 -0.559
c -1.140 -2.975 -0.743
c -0.137 -2.984 0.271
c 1.265 -2.787 -0.156
c 1.493 -2.330 -1.479
c 2.250 -1.151 -1.739
c 1.483 -0.359 -2.665
c 0.434 -1.126 -3.055
c -0.877 -0.687 -3.134
c -1.637 -1.741 -2.578
c -0.777 -2.679 -2.043
c 0.477 -2.335 -2.373
c -1.870 -0.550 2.357
c -2.865 0.125 1.729
c -2.698 1.412 1.255
c -1.526 2.124 1.540
c -1.077 2.937 0.467
c 0.208 3.312 0.395
c 1.193 2.870 1.247
c 0.880 1.977 2.294
c 1.916 1.067 2.612
c 1.611 -0.173 3.121
c 0.343 -0.696 3.072
c -0.746 0.127 2.837
c -0.511 1.520 2.408




