%chk=000489.chk
%mem=8GB
%Nproc=32
#p B3LYP/6-31G* opt pop=NPA

Template file

0 1
c 0.486 -3.035 -2.043
c -0.731 -3.133 -1.499
c -1.649 -2.134 -1.584
c -2.261 -2.087 -0.312
c -2.908 -0.994 0.067
c -2.763 -0.509 1.387
c -3.114 0.805 1.321
c -2.411 1.780 1.939
c -2.223 2.813 1.056
c -0.947 3.305 1.204
c -0.273 3.699 0.068
c 1.063 3.378 -0.045
c 1.310 2.904 -1.320
c 2.153 1.850 -1.277
c 1.916 0.723 -2.084
c 2.606 -0.414 -1.714
c 2.173 -1.632 -2.123
c 2.463 -2.583 -1.155
c 1.418 -3.443 -1.089
c 0.754 -3.688 0.120
c -0.589 -3.536 -0.164
c -1.470 -2.810 0.606
c 0.892 -1.844 -2.636
c -0.001 -0.744 -2.776
c 0.573 0.566 -2.698
c -0.305 1.661 -2.574
c 0.130 2.843 -1.990
c -0.843 3.374 -1.194
c -1.986 2.624 -1.327
c -2.757 2.431 -0.203
c -3.297 1.187 -0.007
c -3.035 0.101 -0.811
c -2.178 0.213 -1.959
c -1.385 -0.923 -2.308
c -1.653 1.505 -2.180
c -1.062 -2.204 1.831
c -1.684 -0.952 2.203
c -0.880 0.127 2.813
c -1.241 1.485 2.595
c -0.291 2.462 2.162
c 1.076 2.110 2.017
c 1.741 2.577 0.854
c 2.553 1.697 0.085
c 2.976 0.466 0.560
c 3.129 -0.578 -0.385
c 2.962 -1.945 -0.044
c 2.401 -2.263 1.199
c 1.224 -3.074 1.271
c 0.308 -2.404 2.146
c 1.000 -1.349 2.689
c 0.483 -0.103 2.929
c 1.450 0.843 2.460
c 2.477 0.095 1.829
c 2.226 -1.240 2.087




