%chk=000054.chk
%mem=8GB
%Nproc=32
#p B3LYP/6-31G* opt pop=NPA

Template file

0 1
c 2.226 -1.701 0.375
c 2.608 -0.832 -0.671
c 2.492 0.584 -0.395
c 1.846 1.390 -1.436
c 0.876 2.346 -1.013
c -0.489 2.235 -1.516
c -1.566 2.154 -0.545
c -2.414 0.991 -0.571
c -2.625 0.290 0.675
c -2.506 -1.137 0.574
c -1.774 -1.844 1.529
c -0.968 -2.768 0.848
c 0.410 -2.795 1.158
c 1.316 -2.775 0.120
c 2.001 -1.247 1.659
c 0.887 -1.988 2.167
c 0.030 -1.374 3.043
c -1.335 -1.215 2.659
c -1.706 0.096 2.956
c -2.289 0.924 1.925
c -1.796 2.260 1.893
c -1.358 2.786 0.649
c -0.103 3.361 0.888
c 1.019 2.898 0.206
c 1.890 2.346 1.188
c 2.426 1.050 0.966
c 2.217 0.089 2.051
c 1.525 0.517 3.234
c 0.408 -0.236 3.649
c -0.685 0.602 3.774
c -0.257 1.861 3.711
c -0.860 2.726 2.856
c 0.146 3.350 2.184
c 1.358 2.731 2.422
c 1.139 1.826 3.398
c -2.345 -1.812 -0.649
c -1.375 -2.829 -0.475
c -0.463 -3.100 -1.500
c 0.925 -3.068 -1.166
c 1.572 -2.458 -2.191
c 2.379 -1.310 -1.983
c 2.011 -0.448 -2.990
c 1.661 0.859 -2.713
c 0.437 1.058 -3.373
c -0.650 1.611 -2.715
c -1.690 0.695 -2.866
c -2.439 0.273 -1.789
c -2.402 -1.141 -1.845
c -1.609 -1.543 -2.956
c -0.609 -2.527 -2.770
c 0.694 -2.236 -3.225
c 1.015 -1.037 -3.788
c 0.050 -0.115 -4.000
c -1.252 -0.373 -3.616




