%chk=000147.chk
%mem=8GB
%Nproc=32
#p B3LYP/6-31G* opt pop=NPA

Template file

0 1
c 2.917 0.810 -2.111
c 3.118 1.057 -0.743
c 2.998 -0.006 0.174
c 2.441 0.287 1.438
c 1.707 -0.674 2.177
c 0.717 0.007 2.921
c -0.567 -0.583 3.142
c -1.685 0.272 2.900
c -2.708 -0.116 1.965
c -2.867 0.926 1.035
c -2.730 0.700 -0.387
c -1.967 1.700 -1.155
c -1.218 1.299 -2.315
c -0.033 2.027 -2.668
c 1.068 1.369 -3.228
c 2.200 1.832 -2.622
c 2.357 -0.361 -2.567
c 1.157 0.006 -3.278
c 0.017 -0.728 -3.078
c -1.188 -0.089 -2.627
c -1.907 -1.031 -1.902
c -2.727 -0.679 -0.794
c -2.880 -1.702 0.199
c -2.801 -1.387 1.586
c -1.940 -2.312 2.182
c -0.728 -1.912 2.781
c 0.303 -2.631 2.092
c 1.490 -1.983 1.694
c 1.962 -2.242 0.371
c 2.685 -1.294 -0.358
c 2.322 -1.445 -1.729
c 1.272 -2.345 -1.787
c 0.084 -1.972 -2.482
c -1.143 -2.247 -1.909
c -1.238 -3.131 -0.867
c -2.208 -2.924 0.073
c -1.682 -3.253 1.288
c -0.355 -3.477 1.185
c -0.038 -3.500 -0.154
c 1.158 -2.970 -0.557
c 0.531 2.978 -1.770
c 1.902 2.722 -1.688
c 2.507 2.326 -0.477
c 1.843 2.574 0.714
c 1.905 1.563 1.725
c 0.869 1.386 2.665
c -0.256 2.198 2.605
c -1.499 1.595 2.704
c -2.279 2.006 1.620
c -1.591 2.907 0.927
c -1.421 2.819 -0.421
c -0.113 3.283 -0.648
c 0.593 3.256 0.605
c -0.355 3.093 1.552




