%chk=000012.chk
%mem=8GB
%Nproc=32
#p B3LYP/6-31G* opt pop=NPA

Template file

0 1
c 0.424 1.444 3.020
c 0.186 2.567 2.237
c -0.813 2.472 1.238
c -0.438 2.979 -0.031
c -0.936 2.357 -1.190
c 0.148 2.204 -2.031
c 0.454 0.979 -2.584
c 1.779 0.720 -2.201
c 2.075 -0.553 -1.647
c 2.937 -0.517 -0.528
c 2.570 -1.180 0.667
c 2.958 -0.362 1.752
c 2.012 -0.114 2.753
c 1.779 1.218 3.121
c -0.232 0.270 2.812
c 0.762 -0.731 2.643
c 0.482 -1.774 1.772
c 1.419 -1.965 0.679
c 0.877 -2.400 -0.549
c 1.065 -1.547 -1.709
c -0.110 -1.344 -2.530
c -0.513 0.015 -2.675
c -1.846 0.369 -2.229
c -1.907 1.385 -1.198
c -2.466 1.009 0.068
c -1.712 1.336 1.232
c -1.407 0.197 2.095
c -1.870 -1.082 1.741
c -0.856 -2.130 1.562
c -1.139 -3.114 0.617
c -0.262 -3.184 -0.515
c -1.081 -3.342 -1.615
c -1.115 -2.307 -2.563
c -2.474 -1.926 -2.623
c -2.809 -0.610 -2.257
c -3.652 -0.741 -1.134
c -3.269 -0.125 0.053
c -3.022 -1.190 0.969
c -3.390 -2.376 0.337
c -2.424 -3.360 0.156
c -2.354 -3.608 -1.203
c -3.214 -2.793 -1.848
c -3.875 -2.064 -0.917
c 0.912 3.389 -0.298
c 1.241 2.786 -1.507
c 2.325 1.922 -1.655
c 3.261 1.900 -0.652
c 3.601 0.649 -0.143
c 3.665 0.721 1.227
c 3.400 2.027 1.608
c 2.434 2.265 2.541
c 1.467 3.097 1.972
c 1.867 3.429 0.691
c 3.087 2.738 0.468




