%chk=000202.chk
%mem=8GB
%Nproc=32
#p B3LYP/6-31G* opt pop=NPA

Template file

0 1
c 3.149 1.799 0.346
c 3.511 0.473 0.614
c 3.285 -0.523 -0.309
c 2.472 -1.520 0.321
c 1.439 -2.201 -0.380
c 0.244 -2.572 0.385
c -1.015 -2.715 -0.345
c -2.238 -2.498 0.339
c -3.171 -1.555 -0.192
c -3.525 -0.670 0.769
c -3.160 0.638 0.331
c -2.374 1.466 1.171
c -1.273 2.228 0.559
c -0.096 2.489 1.387
c 1.143 2.756 0.784
c 2.329 2.212 1.339
c 2.621 2.139 -0.846
c 1.315 2.731 -0.596
c 0.233 2.511 -1.474
c -1.086 2.196 -0.902
c -1.961 1.329 -1.694
c -2.878 0.517 -1.015
c -2.940 -0.906 -1.318
c -2.071 -1.442 -2.181
c -1.038 -2.347 -1.700
c 0.097 -2.068 -2.441
c 1.359 -1.937 -1.816
c 2.212 -0.907 -2.390
c 3.041 -0.152 -1.596
c 2.769 1.257 -1.880
c 1.872 1.284 -2.851
c 0.607 1.926 -2.723
c -0.250 1.107 -3.391
c -1.465 0.767 -2.902
c -1.530 -0.647 -3.086
c -0.306 -1.122 -3.424
c 0.444 -0.081 -3.764
c 1.681 0.005 -3.323
c 2.305 1.240 2.320
c 2.962 0.125 1.788
c 2.327 -1.127 1.670
c 1.180 -1.384 2.398
c 0.162 -2.236 1.824
c -1.137 -2.144 2.428
c -2.269 -2.280 1.672
c -3.138 -1.174 1.936
c -2.566 -0.397 2.818
c -2.208 0.946 2.507
c -1.017 1.111 3.132
c 0.008 1.808 2.640
c 1.175 1.036 2.963
c 0.747 -0.276 3.239
c -0.538 -0.155 3.573
c -1.437 -1.062 3.284




