%chk=000111.chk
%mem=8GB
%Nproc=32
#p B3LYP/6-31G* opt pop=NPA

Template file

0 1
c -2.741 -1.491 -0.350
c -2.835 -0.628 0.779
c -2.649 0.779 0.543
c -1.992 1.510 1.585
c -1.158 2.610 1.297
c -0.019 2.481 2.067
c 1.268 2.498 1.540
c 1.920 1.402 2.136
c 2.769 0.652 1.370
c 2.752 -0.715 1.544
c 2.804 -1.320 0.314
c 2.004 -2.424 0.297
c 1.187 -2.672 -0.842
c -0.020 -3.349 -0.552
c -1.191 -2.916 -1.164
c -2.189 -2.768 -0.221
c -2.286 -1.002 -1.572
c -1.231 -1.887 -2.020
c -0.070 -1.383 -2.586
c 1.198 -1.673 -1.908
c 2.168 -0.571 -1.864
c 2.852 -0.371 -0.666
c 2.889 0.907 -0.013
c 2.344 2.042 -0.624
c 1.445 2.862 0.190
c 0.283 3.391 -0.461
c -1.023 3.083 0.051
c -1.800 2.551 -0.987
c -2.458 1.285 -0.810
c -2.257 0.329 -1.895
c -1.384 0.663 -2.961
c -0.236 -0.184 -3.237
c 0.830 0.666 -3.427
c 1.930 0.593 -2.592
c 2.065 1.913 -1.999
c 1.084 2.700 -2.589
c 0.166 3.347 -1.805
c -1.115 2.854 -2.140
c -0.957 1.953 -3.144
c 0.379 1.927 -3.456
c -1.410 0.857 2.698
c -0.170 1.442 2.915
c 1.007 0.728 3.015
c 0.939 -0.682 3.130
c 1.890 -1.413 2.364
c 1.526 -2.582 1.642
c 0.318 -3.176 1.863
c -0.399 -3.626 0.772
c -1.736 -3.255 0.940
c -1.838 -2.504 2.054
c -2.353 -1.210 2.022
c -1.531 -0.473 2.878
c -0.364 -1.254 3.201
c -0.603 -2.496 2.679




