%chk=000233.chk
%mem=8GB
%Nproc=32
#p B3LYP/6-31G* opt pop=NPA

Template file

0 1
c -3.306 0.742 0.705
c -3.080 0.681 -0.662
c -2.565 -0.535 -1.234
c -1.549 -0.405 -2.276
c -0.558 -1.444 -2.429
c 0.823 -1.050 -2.651
c 1.906 -1.692 -1.998
c 2.769 -0.696 -1.520
c 3.229 -0.788 -0.197
c 3.205 0.357 0.550
c 2.595 0.088 1.763
c 1.777 1.135 2.109
c 0.495 0.888 2.643
c -0.527 1.897 2.342
c -1.860 1.470 2.301
c -2.706 1.865 1.233
c -3.048 -0.283 1.511
c -2.155 0.148 2.506
c -1.244 -0.836 2.730
c 0.134 -0.536 2.825
c 1.043 -1.611 2.419
c 2.274 -1.232 1.841
c 2.785 -1.832 0.632
c 2.141 -2.906 0.095
c 1.681 -2.832 -1.271
c 0.411 -3.367 -1.292
c -0.719 -2.640 -1.726
c -1.678 -2.745 -0.681
c -2.522 -1.700 -0.365
c -2.679 -1.484 1.058
c -1.707 -1.953 1.988
c -0.887 -2.936 1.639
c 0.502 -2.825 1.900
c 1.125 -3.477 0.819
c 0.154 -3.850 -0.061
c -1.041 -3.467 0.356
c 1.172 0.277 -2.790
c 2.345 0.537 -2.019
c 2.457 1.754 -1.265
c 2.815 1.584 0.100
c 2.022 2.148 1.149
c 1.070 3.069 0.854
c -0.211 2.955 1.421
c -1.135 3.358 0.392
c -2.317 2.664 0.236
c -2.583 1.942 -0.999
c -1.710 2.075 -2.044
c -1.157 0.919 -2.642
c 0.206 1.231 -2.912
c 0.463 2.491 -2.419
c 1.521 2.751 -1.532
c 0.923 3.453 -0.473
c -0.405 3.632 -0.731
c -0.693 3.016 -1.931




