%chk=000089.chk
%mem=8GB
%Nproc=32
#p B3LYP/6-31G* opt pop=NPA

Template file

0 1
c -1.426 -2.790 1.626
c -0.479 -3.343 0.824
c 0.803 -2.895 0.831
c 1.188 -2.734 -0.535
c 2.170 -1.803 -0.895
c 1.938 -1.063 -2.066
c 2.329 0.308 -2.144
c 1.310 0.941 -2.834
c 0.673 2.088 -2.377
c -0.709 1.836 -2.418
c -1.555 2.208 -1.324
c -2.648 1.335 -1.086
c -3.030 0.948 0.216
c -3.422 -0.410 0.195
c -3.018 -1.274 1.211
c -2.532 -2.517 0.855
c -1.133 -1.726 2.453
c -2.173 -0.787 2.238
c -1.880 0.557 2.315
c -2.315 1.441 1.289
c -1.344 2.415 1.117
c -0.932 2.846 -0.196
c 0.432 3.237 -0.295
c 1.246 2.760 -1.348
c 2.483 2.310 -0.800
c 2.971 0.978 -1.102
c 3.345 0.176 0.012
c 2.834 -1.139 0.149
c 2.383 -1.283 1.508
c 1.231 -1.985 1.819
c 0.209 -1.307 2.646
c 0.432 0.066 3.013
c -0.648 0.990 2.764
c -0.407 2.250 2.164
c 0.865 2.731 2.051
c 1.247 3.259 0.820
c 2.500 2.766 0.498
c 2.924 1.990 1.528
c 3.345 0.728 1.287
c 2.672 -0.118 2.142
c 1.720 0.602 2.870
c 1.913 1.933 2.480
c -2.260 -2.887 -0.480
c -0.966 -3.390 -0.466
c 0.027 -2.971 -1.333
c -0.290 -2.122 -2.409
c 0.723 -1.227 -2.797
c 0.383 0.044 -3.234
c -0.874 0.581 -3.082
c -1.893 -0.261 -2.764
c -2.833 0.194 -1.874
c -3.278 -0.840 -1.119
c -2.601 -2.010 -1.483
c -1.648 -1.634 -2.463




