%chk=000228.chk
%mem=8GB
%Nproc=32
#p B3LYP/6-31G* opt pop=NPA

Template file

0 1
c 0.231 1.577 3.046
c -0.818 0.697 2.951
c -0.545 -0.696 2.857
c -1.460 -1.423 2.051
c -1.046 -2.541 1.310
c -1.662 -2.483 0.035
c -0.908 -2.694 -1.181
c -1.159 -1.786 -2.263
c -0.004 -1.135 -2.843
c -0.014 0.240 -3.151
c 1.173 0.796 -2.628
c 1.119 2.010 -1.944
c 1.868 2.184 -0.785
c 1.072 2.982 0.088
c 1.197 2.832 1.444
c 0.031 2.637 2.191
c 1.517 1.170 2.932
c 2.114 1.922 1.925
c 2.864 1.085 1.129
c 2.751 1.160 -0.292
c 2.848 -0.074 -1.032
c 1.986 -0.227 -2.169
c 1.275 -1.446 -2.413
c 1.501 -2.531 -1.631
c 0.391 -3.172 -0.988
c 0.849 -3.496 0.292
c 0.213 -3.043 1.445
c 1.178 -2.339 2.224
c 0.850 -1.146 2.878
c 1.861 -0.128 2.807
c 2.874 -0.159 1.789
c 3.091 -1.293 1.108
c 3.126 -1.269 -0.321
c 2.538 -2.476 -0.721
c 2.145 -3.146 0.384
c 2.376 -2.424 1.488
c -0.118 2.677 -1.807
c -0.197 3.147 -0.488
c -1.406 2.950 0.297
c -1.207 2.550 1.626
c -1.792 1.339 2.134
c -2.690 0.621 1.356
c -2.480 -0.791 1.317
c -2.645 -1.519 0.102
c -3.081 -0.885 -1.026
c -2.327 -1.011 -2.237
c -2.352 0.261 -2.818
c -1.191 0.949 -3.134
c -1.248 2.201 -2.444
c -2.449 2.212 -1.744
c -2.493 2.397 -0.362
c -3.153 1.230 0.176
c -3.488 0.438 -0.922
c -3.106 1.073 -2.041




