%chk=000205.chk
%mem=8GB
%Nproc=32
#p B3LYP/6-31G* opt pop=NPA

Template file

0 1
c 2.538 -2.031 -1.002
c 2.731 -0.744 -1.528
c 2.672 0.373 -0.670
c 1.918 1.547 -1.153
c 1.441 2.506 -0.179
c 0.243 3.229 -0.454
c -0.752 3.371 0.543
c -1.970 3.013 0.028
c -2.539 2.049 0.855
c -3.000 0.875 0.247
c -2.733 -0.362 0.843
c -2.498 -1.306 -0.209
c -1.597 -2.399 -0.072
c -0.783 -2.781 -1.213
c 0.586 -3.163 -0.948
c 1.610 -2.709 -1.776
c 2.309 -2.274 0.291
c 1.097 -3.078 0.332
c 0.283 -2.957 1.402
c -1.067 -2.552 1.223
c -1.371 -1.663 2.301
c -2.087 -0.460 2.097
c -1.570 0.771 2.719
c -1.750 1.972 2.005
c -0.622 2.852 1.771
c 0.619 2.480 2.171
c 1.658 2.234 1.187
c 2.370 1.113 1.635
c 2.759 0.090 0.754
c 2.567 -1.301 1.248
c 1.914 -1.514 2.486
c 0.760 -2.333 2.506
c -0.260 -1.659 3.128
c 0.242 -0.532 3.662
c -0.355 0.681 3.459
c 0.718 1.539 3.116
c 1.850 0.795 2.896
c 1.602 -0.460 3.287
c -0.462 2.990 -1.606
c -1.821 2.827 -1.298
c -2.288 1.722 -1.940
c -2.914 0.718 -1.158
c -2.641 -0.627 -1.428
c -1.851 -0.985 -2.512
c -0.989 -2.084 -2.445
c 0.119 -1.738 -3.246
c 1.380 -1.994 -2.866
c 2.064 -0.766 -2.740
c 1.245 0.239 -3.150
c 1.164 1.427 -2.424
c -0.094 2.077 -2.520
c -1.298 1.342 -2.845
c -1.186 0.052 -3.245
c 0.042 -0.414 -3.562




