%chk=000401.chk
%mem=8GB
%Nproc=32
#p B3LYP/6-31G* opt pop=NPA

Template file

0 1
c 1.296 3.114 -1.679
c 0.752 3.217 -0.444
c 1.328 2.617 0.606
c 0.517 2.491 1.722
c 0.920 1.774 2.769
c -0.137 1.090 3.312
c 0.298 -0.140 3.728
c -0.520 -1.189 3.560
c 0.054 -2.391 3.149
c -0.843 -3.035 2.437
c -0.318 -3.495 1.294
c -1.212 -3.242 0.307
c -0.749 -3.042 -0.917
c -1.470 -2.274 -1.746
c -0.676 -1.742 -2.670
c -1.192 -0.582 -3.098
c -0.366 0.320 -3.619
c -0.721 1.623 -3.556
c 0.418 2.349 -3.512
c 0.303 3.270 -2.588
c 2.063 1.961 -2.013
c 1.483 1.506 -3.194
c 1.059 0.220 -3.291
c 1.513 -0.782 -2.389
c 0.670 -1.888 -2.259
c 0.641 -2.706 -1.142
c 1.500 -2.517 -0.048
c 1.028 -3.057 1.196
c 1.288 -2.423 2.421
c 2.057 -1.301 2.438
c 1.639 -0.248 3.243
c 1.977 0.912 2.648
c 2.551 0.674 1.400
c 2.312 1.544 0.346
c 2.435 1.058 -0.990
c 2.265 -0.389 -1.205
c 2.296 -1.293 -0.056
c 2.553 -0.726 1.222
c -1.752 -1.028 2.792
c -1.937 -2.228 2.165
c -2.215 -2.321 0.836
c -2.611 -1.185 0.080
c -2.384 -1.290 -1.295
c -2.207 -0.205 -2.133
c -2.262 1.115 -1.668
c -1.605 2.068 -2.509
c -0.921 3.130 -1.941
c -0.699 3.149 -0.602
c -1.454 2.378 0.299
c -0.893 2.251 1.552
c -1.257 1.280 2.475
c -2.051 0.188 2.089
c -2.502 0.136 0.686
c -2.261 1.280 -0.209




