%chk=000102.chk
%mem=8GB
%Nproc=32
#p B3LYP/6-31G* opt pop=NPA

Template file

0 1
c 3.524 -0.133 0.066
c 2.942 0.045 -1.219
c 2.061 1.211 -1.433
c 1.074 1.098 -2.426
c -0.138 1.829 -2.400
c -1.124 0.956 -2.898
c -2.355 0.804 -2.329
c -2.452 -0.574 -1.951
c -2.893 -0.908 -0.638
c -2.114 -1.867 0.033
c -1.673 -1.657 1.378
c -0.476 -2.347 1.553
c 0.590 -1.822 2.337
c 1.908 -2.274 1.978
c 2.951 -1.348 1.918
c 3.584 -1.417 0.679
c 3.117 0.699 1.066
c 2.730 -0.073 2.185
c 1.554 0.397 2.656
c 0.409 -0.463 2.812
c -0.865 0.186 2.730
c -1.978 -0.473 2.055
c -3.022 0.320 1.498
c -3.433 0.122 0.133
c -3.566 1.413 -0.423
c -2.812 1.779 -1.529
c -1.913 2.831 -1.109
c -0.492 2.724 -1.392
c 0.452 2.840 -0.299
c 1.711 2.104 -0.331
c 2.245 1.726 0.923
c 1.412 1.658 2.066
c 0.261 2.269 2.082
c -0.866 1.618 2.631
c -1.928 2.311 2.167
c -3.041 1.697 1.701
c -3.364 2.312 0.526
c -2.356 3.183 0.146
c -1.484 3.226 1.172
c -0.142 3.062 0.997
c 0.776 -0.175 -2.994
c -0.581 -0.243 -3.133
c -1.367 -1.243 -2.537
c -0.711 -2.309 -1.933
c -1.143 -2.639 -0.610
c -0.223 -3.074 0.357
c 1.067 -3.411 0.004
c 2.098 -3.064 0.844
c 3.135 -2.505 0.065
c 2.701 -2.419 -1.204
c 2.604 -1.195 -1.882
c 1.441 -1.287 -2.627
c 0.681 -2.427 -2.173
c 1.486 -3.071 -1.291




