%chk=000181.chk
%mem=8GB
%Nproc=32
#p B3LYP/6-31G* opt pop=NPA

Template file

0 1
c -3.224 1.589 0.646
c -3.139 0.975 -0.615
c -2.884 -0.414 -0.703
c -2.081 -0.651 -1.849
c -1.148 -1.731 -1.918
c 0.153 -1.516 -2.541
c 1.339 -2.184 -1.970
c 2.524 -1.384 -1.790
c 3.137 -1.260 -0.509
c 3.184 0.136 -0.189
c 2.617 0.651 1.024
c 1.783 1.839 0.958
c 0.697 1.975 1.927
c -0.354 2.890 1.628
c -1.679 2.595 1.969
c -2.503 2.767 0.857
c -2.970 0.802 1.753
c -2.002 1.432 2.540
c -1.069 0.528 2.917
c 0.323 0.814 2.738
c 1.135 -0.298 2.735
c 2.319 -0.342 1.980
c 2.557 -1.695 1.710
c 2.884 -2.170 0.441
c 1.983 -3.190 0.157
c 1.152 -3.155 -0.988
c -0.127 -3.390 -0.502
c -1.221 -2.647 -0.860
c -1.916 -2.335 0.353
c -2.725 -1.218 0.461
c -2.682 -0.531 1.698
c -1.594 -0.753 2.591
c -0.788 -1.846 2.488
c 0.592 -1.630 2.768
c 1.535 -2.457 2.212
c 1.203 -3.402 1.274
c -0.085 -3.516 0.877
c -1.090 -2.758 1.426
c -0.448 3.449 0.364
c -1.759 3.313 -0.116
c -1.709 2.800 -1.385
c -2.426 1.601 -1.655
c -1.819 0.596 -2.429
c -0.592 0.805 -3.023
c 0.348 -0.240 -3.142
c 1.586 0.374 -3.036
c 2.586 -0.159 -2.329
c 2.970 0.779 -1.353
c 2.210 1.905 -1.480
c 1.629 2.504 -0.354
c 0.426 3.191 -0.623
c -0.379 2.879 -1.789
c 0.118 2.007 -2.710
c 1.420 1.676 -2.634




