%chk=000188.chk
%mem=8GB
%Nproc=32
#p B3LYP/6-31G* opt pop=NPA

Template file

0 1
c -1.127 2.006 2.159
c -0.614 1.029 3.014
c 0.780 0.752 3.026
c 0.947 -0.645 2.916
c 1.893 -1.213 2.020
c 1.386 -2.327 1.254
c 1.747 -2.502 -0.083
c 0.613 -2.934 -0.803
c 0.328 -2.363 -2.065
c -0.973 -2.017 -2.391
c -0.928 -0.700 -2.962
c -1.923 0.214 -2.651
c -1.565 1.487 -2.146
c -2.449 1.736 -1.056
c -1.980 2.321 0.088
c -2.238 1.715 1.355
c -0.234 2.785 1.426
c -0.721 2.897 0.100
c 0.163 2.817 -1.034
c -0.230 1.947 -2.136
c 0.774 1.068 -2.731
c 0.385 -0.286 -3.012
c 1.178 -1.381 -2.560
c 2.392 -1.138 -1.964
c 2.665 -1.658 -0.663
c 3.303 -0.655 0.083
c 2.862 -0.339 1.414
c 2.758 1.074 1.703
c 1.650 1.584 2.394
c 1.128 2.684 1.644
c 1.965 2.886 0.604
c 1.531 2.943 -0.741
c 2.464 2.209 -1.441
c 2.113 1.245 -2.357
c 2.894 0.116 -2.004
c 3.569 0.371 -0.834
c 3.392 1.664 -0.533
c 3.030 2.015 0.706
c -1.263 -0.168 3.073
c -0.330 -1.179 3.029
c -0.820 -2.202 2.272
c 0.050 -2.799 1.373
c -0.421 -3.164 0.100
c -1.751 -2.904 -0.265
c -2.031 -2.382 -1.549
c -3.070 -1.492 -1.399
c -3.015 -0.233 -1.933
c -3.301 0.663 -0.940
c -3.519 -0.019 0.268
c -2.946 0.466 1.450
c -2.365 -0.507 2.313
c -2.134 -1.847 1.878
c -2.619 -2.259 0.657
c -3.393 -1.379 -0.066




