%chk=000183.chk
%mem=8GB
%Nproc=32
#p B3LYP/6-31G* opt pop=NPA

Template file

0 1
c 2.375 1.597 -1.459
c 2.603 1.542 -0.059
c 2.781 0.232 0.569
c 2.361 0.101 1.923
c 1.922 -1.119 2.464
c 0.760 -0.838 3.218
c -0.423 -1.537 3.086
c -1.419 -0.565 2.704
c -2.329 -0.825 1.645
c -2.596 0.254 0.707
c -2.714 -0.102 -0.723
c -2.422 0.852 -1.694
c -1.477 0.592 -2.749
c -0.746 1.789 -2.954
c 0.655 1.719 -2.986
c 1.431 2.493 -2.070
c 2.269 0.413 -2.139
c 1.217 0.478 -3.023
c 0.526 -0.713 -2.971
c -0.885 -0.681 -2.854
c -1.444 -1.698 -2.106
c -2.440 -1.410 -1.106
c -2.377 -2.398 -0.193
c -2.315 -2.168 1.172
c -1.372 -3.109 1.641
c -0.372 -2.768 2.508
c 0.848 -3.146 1.872
c 1.920 -2.270 1.729
c 2.240 -2.202 0.358
c 2.683 -0.990 -0.234
c 2.334 -0.834 -1.580
c 1.298 -1.610 -2.192
c 0.737 -2.695 -1.550
c -0.694 -2.791 -1.630
c -1.399 -3.312 -0.564
c -0.805 -3.763 0.548
c 0.556 -3.693 0.664
c 1.337 -3.083 -0.320
c 1.551 1.103 2.505
c 0.517 0.467 3.156
c -0.837 0.698 2.845
c -1.162 1.787 2.057
c -2.158 1.610 1.015
c -2.132 2.569 -0.041
c -2.283 2.153 -1.355
c -1.322 2.751 -2.166
c -0.590 3.589 -1.395
c 0.807 3.463 -1.306
c 1.092 3.472 0.041
c 1.924 2.562 0.673
c 1.281 2.244 1.872
c -0.072 2.698 1.800
c -0.112 3.545 0.757
c -1.130 3.547 -0.114




