%chk=000243.chk
%mem=8GB
%Nproc=32
#p B3LYP/6-31G* opt pop=NPA

Template file

0 1
c -2.361 1.568 -0.270
c -1.350 2.472 0.201
c -0.338 2.879 -0.765
c 0.991 3.095 -0.291
c 2.125 2.543 -0.971
c 2.856 1.774 -0.016
c 3.134 0.379 -0.237
c 2.677 -0.587 0.799
c 2.019 -1.821 0.401
c 0.953 -2.398 1.210
c -0.096 -3.089 0.500
c -1.378 -3.134 0.984
c -2.263 -2.717 -0.018
c -3.126 -1.778 0.519
c -3.215 -0.557 -0.156
c -3.028 0.668 0.561
c -2.251 0.945 -1.531
c -2.618 -0.401 -1.414
c -1.795 -1.423 -2.018
c -1.571 -2.542 -1.178
c -0.240 -2.950 -0.888
c 0.763 -2.500 -1.628
c 1.959 -2.056 -1.001
c 2.541 -1.215 -1.905
c 3.092 0.004 -1.576
c 2.612 0.898 -2.567
c 2.024 2.109 -2.238
c 0.751 2.096 -2.813
c -0.403 2.363 -2.087
c -1.304 1.330 -2.423
c -0.634 0.366 -3.215
c -0.750 -1.023 -2.891
c 0.515 -1.710 -2.761
c 1.701 -1.065 -3.013
c 1.757 0.215 -3.414
c 0.596 0.926 -3.521
c 1.254 2.964 1.026
c 2.408 2.174 1.178
c 2.197 1.329 2.190
c 2.273 -0.053 2.042
c 1.199 -0.575 2.788
c 0.554 -1.770 2.461
c -0.823 -1.864 2.884
c -1.738 -2.564 2.135
c -2.866 -1.765 1.881
c -2.697 -0.606 2.553
c -2.745 0.637 1.924
c -1.680 1.400 2.408
c -1.010 2.373 1.617
c 0.333 2.605 1.973
c 1.012 1.663 2.783
c 0.429 0.562 3.258
c -0.927 0.516 3.273
c -1.516 -0.690 3.255




