%chk=000143.chk
%mem=8GB
%Nproc=32
#p B3LYP/6-31G* opt pop=NPA

Template file

0 1
c -1.854 -0.279 -3.089
c -0.553 0.131 -3.428
c 0.581 -0.552 -2.862
c 1.673 0.226 -2.289
c 2.485 -0.333 -1.221
c 2.983 0.584 -0.227
c 3.189 0.201 1.111
c 2.580 1.191 1.911
c 1.603 0.908 2.868
c 0.475 1.686 2.524
c -0.823 1.116 2.507
c -1.719 1.669 1.543
c -2.697 0.886 0.911
c -2.958 1.404 -0.366
c -3.174 0.516 -1.448
c -2.595 0.819 -2.667
c -2.102 -1.321 -2.268
c -2.977 -0.856 -1.240
c -2.822 -1.366 0.036
c -2.708 -0.486 1.139
c -1.870 -1.064 2.086
c -0.945 -0.288 2.859
c 0.206 -0.987 3.320
c 1.488 -0.378 3.280
c 2.381 -1.326 2.721
c 3.068 -1.078 1.508
c 2.641 -2.055 0.572
c 2.256 -1.684 -0.758
c 1.099 -2.344 -1.261
c 0.291 -1.785 -2.240
c -1.062 -2.162 -1.939
c -1.061 -2.835 -0.739
c -1.971 -2.435 0.277
c -1.516 -2.353 1.586
c -0.325 -2.922 1.945
c 0.421 -2.320 2.924
c 1.730 -2.461 2.586
c 1.845 -2.942 1.316
c 0.596 -3.321 0.907
c 0.250 -3.114 -0.398
c 2.508 1.909 -0.181
c 2.162 2.180 1.133
c 0.877 2.585 1.499
c 0.022 3.064 0.517
c -1.336 2.668 0.608
c -2.141 2.540 -0.548
c -1.601 2.815 -1.820
c -1.848 1.921 -2.856
c -0.621 1.509 -3.402
c 0.344 2.222 -2.828
c 1.473 1.656 -2.290
c 1.738 2.408 -1.144
c 0.562 3.154 -0.803
c -0.245 3.080 -1.885




