%chk=000100.chk
%mem=8GB
%Nproc=32
#p B3LYP/6-31G* opt pop=NPA

Template file

0 1
c -2.330 2.509 -0.363
c -2.363 1.487 -1.328
c -2.605 0.094 -0.880
c -2.154 -0.942 -1.714
c -1.746 -2.206 -1.209
c -0.639 -2.587 -1.986
c 0.526 -3.067 -1.440
c 1.553 -2.140 -1.804
c 2.413 -1.573 -0.789
c 2.605 -0.147 -0.795
c 2.521 0.593 0.476
c 2.158 1.962 0.422
c 1.305 2.549 1.391
c 0.580 3.562 0.738
c -0.781 3.661 0.859
c -1.347 3.536 -0.404
c -2.410 2.155 0.962
c -1.416 2.833 1.683
c -0.759 1.928 2.469
c 0.681 1.747 2.364
c 1.182 0.452 2.586
c 2.203 -0.117 1.679
c 2.341 -1.524 1.667
c 2.395 -2.236 0.432
c 1.569 -3.380 0.608
c 0.486 -3.600 -0.226
c -0.711 -3.465 0.572
c -1.763 -2.556 0.140
c -2.218 -1.531 1.054
c -2.655 -0.233 0.544
c -2.493 0.873 1.412
c -1.586 0.808 2.502
c -1.115 -0.348 2.898
c 0.272 -0.482 3.166
c 0.509 -1.799 3.166
c 1.584 -2.327 2.535
c 1.134 -3.411 1.852
c -0.256 -3.452 1.869
c -0.653 -2.479 2.704
c -1.589 -1.545 2.354
c -1.326 -0.652 -2.833
c -0.357 -1.636 -2.871
c 1.027 -1.354 -2.809
c 1.400 -0.065 -2.950
c 2.231 0.555 -1.983
c 1.870 1.906 -1.964
c 1.893 2.624 -0.806
c 0.878 3.547 -0.580
c -0.340 3.545 -1.328
c -0.429 2.689 -2.374
c -1.476 1.702 -2.439
c -0.955 0.623 -3.132
c 0.427 0.865 -3.305
c 0.730 2.049 -2.791




