%chk=000257.chk
%mem=8GB
%Nproc=32
#p B3LYP/6-31G* opt pop=NPA

Template file

0 1
c 1.237 0.227 -4.035
c 0.559 -0.928 -3.544
c -0.682 -0.815 -2.837
c -0.937 -1.687 -1.688
c -2.053 -1.458 -0.800
c -2.081 -2.057 0.483
c -2.705 -1.474 1.639
c -2.088 -2.005 2.768
c -1.663 -1.214 3.825
c -0.320 -1.471 4.002
c 0.405 -0.309 3.876
c 1.356 -0.468 2.874
c 1.674 0.566 1.944
c 2.337 0.201 0.754
c 2.568 1.142 -0.302
c 3.177 0.664 -1.516
c 2.843 1.207 -2.773
c 2.565 0.160 -3.653
c 0.794 1.441 -3.652
c 1.802 2.051 -2.838
c 1.201 2.572 -1.730
c 1.616 2.233 -0.391
c 0.678 2.437 0.678
c 0.790 1.718 1.907
c -0.352 1.665 2.793
c -0.485 0.708 3.761
c -1.785 0.140 3.701
c -2.439 0.717 2.649
c -3.029 -0.103 1.600
c -3.085 0.464 0.335
c -2.682 -0.212 -0.871
c -2.236 0.741 -1.801
c -1.265 0.503 -2.766
c -0.391 1.614 -3.048
c -0.165 2.566 -2.015
c -1.053 2.712 -1.046
c -0.666 2.787 0.296
c -1.775 2.370 1.048
c -1.643 1.831 2.260
c -2.650 1.759 0.156
c -2.193 1.935 -1.085
c -0.960 -2.753 0.963
c -1.001 -2.748 2.338
c 0.100 -2.356 3.077
c 1.176 -1.803 2.395
c 1.359 -2.036 1.057
c 2.240 -1.214 0.375
c 2.492 -1.541 -0.915
c 3.180 -0.724 -1.748
c 2.761 -0.969 -3.031
c 1.581 -1.685 -2.963
c 1.439 -2.153 -1.693
c 0.218 -2.353 -1.095
c 0.239 -2.598 0.282




