%chk=000537.chk
%mem=8GB
%Nproc=32
#p B3LYP/6-31G* opt pop=NPA

Template file

0 1
c 1.005 2.395 -0.955
c 1.703 2.768 0.255
c 2.928 2.218 0.576
c 2.821 1.556 1.826
c 3.204 0.238 1.679
c 2.242 -0.817 1.965
c 2.184 -1.934 1.022
c 0.896 -2.585 0.791
c 0.559 -2.981 -0.544
c -0.717 -2.721 -1.072
c -0.513 -1.932 -2.259
c -1.255 -0.792 -2.476
c -0.530 0.503 -2.474
c -1.201 1.596 -1.816
c -0.433 2.384 -0.884
c -1.079 2.643 0.427
c -0.282 2.574 1.548
c -0.498 1.548 2.535
c 0.763 0.995 2.815
c 1.008 -0.405 2.632
c 1.697 1.472 -1.845
c 0.907 0.484 -2.569
c 1.519 -0.810 -2.768
c 0.778 -1.946 -2.516
c 1.433 -2.726 -1.556
c 2.627 -2.224 -1.368
c 3.095 -1.884 -0.114
c 3.844 -0.748 -0.356
c 3.895 0.244 0.482
c 3.567 1.431 -0.236
c 3.063 1.089 -1.475
c 3.482 -0.218 -1.629
c 2.757 -1.108 -2.235
c -0.173 -1.150 2.453
c -0.228 -2.214 1.553
c -1.569 -2.281 1.064
c -1.827 -2.511 -0.318
c -2.864 -1.779 -0.911
c -2.540 -0.869 -2.009
c -3.269 0.255 -1.816
c -2.604 1.478 -1.591
c -3.182 1.941 -0.391
c -2.379 2.273 0.646
c -2.702 1.362 1.743
c -1.655 0.837 2.511
c -1.481 -0.577 2.504
c -2.369 -1.371 1.767
c -3.525 -0.826 1.192
c -3.809 -1.138 -0.152
c -4.157 0.023 -0.795
c -4.105 1.028 0.054
c -3.722 0.565 1.287
c 1.019 2.752 1.453
c 1.670 1.896 2.349




