%chk=000217.chk
%mem=8GB
%Nproc=32
#p B3LYP/6-31G* opt pop=NPA

Template file

0 1
c 2.677 1.526 0.848
c 1.525 2.203 1.280
c 0.555 1.458 2.074
c -0.879 1.757 1.927
c -1.837 0.727 2.180
c -2.798 0.449 1.131
c -3.101 -0.865 0.762
c -2.826 -0.956 -0.630
c -2.005 -2.007 -1.115
c -1.029 -1.613 -2.049
c 0.298 -2.058 -1.919
c 1.131 -1.136 -2.542
c 2.396 -0.928 -2.055
c 2.943 0.339 -2.144
c 3.573 0.584 -0.963
c 3.189 1.758 -0.454
c 2.842 0.135 1.086
c 3.356 -0.411 -0.096
c 2.712 -1.444 -0.754
c 1.844 -2.245 -0.054
c 0.696 -2.770 -0.757
c -0.293 -3.375 -0.006
c -1.676 -3.021 -0.196
c -2.257 -3.054 1.078
c -2.851 -1.897 1.608
c -2.142 -1.601 2.793
c -1.475 -0.371 2.930
c -0.089 -0.677 3.086
c 0.893 0.122 2.506
c 1.949 -0.595 1.815
c 1.697 -1.964 1.366
c 0.779 -2.698 2.058
c -0.116 -3.541 1.359
c -1.322 -3.475 1.971
c -1.251 -2.596 2.990
c 0.001 -2.069 3.043
c -2.807 1.208 -0.007
c -2.709 0.336 -1.130
c -1.867 0.686 -2.227
c -0.984 -0.327 -2.642
c 0.354 -0.033 -2.985
c 0.870 1.305 -2.978
c 2.196 1.460 -2.474
c 2.465 2.420 -1.417
c 1.495 3.243 -1.009
c 1.051 3.202 0.382
c -0.284 3.492 0.344
c -1.231 2.722 0.974
c -2.202 2.405 -0.040
c -1.717 2.880 -1.238
c -1.398 2.010 -2.295
c -0.046 2.316 -2.660
c 0.361 3.353 -1.784
c -0.654 3.636 -0.974




