%chk=000135.chk
%mem=8GB
%Nproc=32
#p B3LYP/6-31G* opt pop=NPA

Template file

0 1
c -1.495 -3.329 0.043
c -1.028 -3.010 1.337
c -1.597 -1.916 2.001
c -0.712 -1.061 2.727
c -0.925 0.353 2.803
c 0.295 1.010 2.779
c 0.475 2.236 2.023
c 1.754 2.371 1.416
c 1.871 2.779 0.068
c 2.672 1.812 -0.617
c 2.185 1.133 -1.802
c 2.220 -0.314 -1.829
c 1.078 -1.044 -2.373
c 0.890 -2.369 -1.934
c -0.386 -2.895 -1.836
c -0.445 -3.668 -0.707
c -2.272 -2.459 -0.700
c -1.526 -2.127 -1.893
c -1.467 -0.823 -2.376
c -0.126 -0.317 -2.762
c -0.006 1.054 -2.914
c 1.134 1.772 -2.427
c 0.631 2.977 -1.893
c 0.844 3.347 -0.564
c -0.430 3.435 0.066
c -0.659 2.801 1.327
c -1.898 2.108 1.435
c -2.015 0.925 2.193
c -2.884 0.079 1.528
c -2.669 -1.261 1.337
c -2.945 -1.492 -0.055
c -3.155 -0.262 -0.671
c -2.469 0.105 -1.869
c -2.236 1.469 -2.028
c -1.110 1.884 -2.695
c -0.672 3.028 -2.120
c -1.357 3.290 -0.981
c -2.399 2.409 -0.922
c -2.758 1.934 0.295
c -3.255 0.669 0.359
c 1.603 -2.902 -0.806
c 0.689 -3.592 -0.021
c 0.389 -3.199 1.302
c 1.258 -2.322 1.948
c 0.671 -1.270 2.728
c 1.290 0.002 2.849
c 2.518 0.222 2.276
c 2.713 1.405 1.590
c 3.284 1.107 0.352
c 3.452 -0.218 0.272
c 2.960 -0.960 -0.773
c 2.522 -2.155 -0.194
c 2.440 -1.967 1.234
c 3.056 -0.784 1.477




