%chk=000087.chk
%mem=8GB
%Nproc=32
#p B3LYP/6-31G* opt pop=NPA

Template file

0 1
c -0.995 2.574 -1.793
c -0.753 1.594 -2.704
c -1.527 0.430 -2.677
c -0.686 -0.591 -3.112
c -0.640 -1.843 -2.543
c 0.704 -2.117 -2.225
c 1.029 -2.745 -0.978
c 2.176 -2.196 -0.340
c 2.182 -1.902 1.045
c 2.755 -0.624 1.238
c 2.154 0.353 2.082
c 2.213 1.695 1.597
c 1.132 2.575 1.785
c 1.053 3.385 0.668
c -0.129 3.567 0.003
c 0.080 3.295 -1.320
c -1.884 2.335 -0.701
c -1.297 2.963 0.420
c -1.296 2.314 1.641
c -0.050 2.099 2.331
c -0.106 0.859 2.923
c 1.000 -0.062 2.830
c 0.628 -1.432 2.798
c 1.166 -2.318 1.824
c 0.124 -3.103 1.283
c -0.039 -3.219 -0.145
c -1.392 -3.022 -0.612
c -1.640 -2.197 -1.709
c -2.628 -1.211 -1.334
c -2.469 0.159 -1.651
c -2.617 1.127 -0.571
c -2.866 0.636 0.779
c -2.097 1.223 1.848
c -1.442 0.409 2.813
c -1.747 -0.912 2.916
c -0.684 -1.817 2.951
c -0.970 -2.868 2.104
c -2.217 -2.677 1.606
c -2.415 -2.749 0.284
c -3.076 -1.590 -0.118
c -3.189 -0.719 0.960
c -2.684 -1.444 2.052
c 2.766 2.011 0.305
c 2.004 3.009 -0.242
c 1.420 2.911 -1.518
c 1.712 1.812 -2.343
c 0.605 1.241 -3.029
c 0.574 -0.114 -3.282
c 1.466 -1.027 -2.758
c 2.545 -0.524 -2.085
c 2.906 -1.178 -0.933
c 3.270 -0.256 0.007
c 3.191 1.005 -0.521
c 2.679 0.877 -1.849




