%chk=000533.chk
%mem=8GB
%Nproc=32
#p B3LYP/6-31G* opt pop=NPA

Template file

0 1
c 0.265 0.276 2.833
c 1.598 -0.214 2.915
c 2.697 0.604 2.626
c 3.449 0.003 1.593
c 3.610 0.890 0.551
c 3.095 0.520 -0.771
c 2.399 1.547 -1.464
c 1.199 1.282 -2.185
c 0.264 2.301 -1.856
c -1.084 2.006 -1.701
c -1.615 2.387 -0.407
c -2.524 1.580 0.205
c -1.991 1.215 1.478
c -2.008 -0.148 1.883
c -0.780 -0.665 2.382
c -0.399 -1.995 1.860
c 0.978 -2.199 1.719
c 1.529 -2.531 0.447
c 2.600 -1.680 0.188
c 2.590 -0.816 -0.969
c 0.156 1.705 2.517
c -0.953 2.076 1.745
c -0.805 2.915 0.585
c 0.393 3.464 0.279
c 0.910 3.154 -0.993
c 2.214 2.791 -0.849
c 2.585 3.030 0.443
c 3.269 2.122 1.119
c 2.584 1.884 2.336
c 1.348 2.494 2.289
c 1.423 3.336 1.164
c 1.517 -1.080 -1.910
c 0.746 0.013 -2.494
c -0.678 -0.160 -2.795
c -1.623 0.862 -2.318
c -2.899 0.414 -1.850
c -3.265 0.726 -0.500
c -3.666 -0.443 0.106
c -2.904 -0.981 1.171
c -2.559 -2.289 0.747
c -1.240 -2.718 0.949
c -0.592 -3.263 -0.238
c 0.727 -2.930 -0.506
c 0.798 -2.281 -1.768
c -0.418 -2.483 -2.329
c -1.185 -1.481 -2.890
c -2.506 -1.804 -2.547
c -3.345 -0.870 -2.060
c -3.832 -1.357 -0.845
c -3.211 -2.501 -0.509
c -2.486 -2.873 -1.614
c -1.223 -3.235 -1.462
c 1.885 -1.402 2.294
c 2.960 -1.200 1.406




