%chk=000383.chk
%mem=8GB
%Nproc=32
#p B3LYP/6-31G* opt pop=NPA

Template file

0 1
c -3.755 -0.441 -0.689
c -3.794 -0.148 0.589
c -3.250 1.020 1.094
c -2.653 0.622 2.287
c -1.501 1.110 2.752
c -0.705 -0.015 3.123
c 0.615 0.087 3.141
c 1.402 -0.962 2.646
c 2.611 -0.384 2.388
c 3.370 -0.745 1.385
c 3.755 0.431 0.692
c 3.795 0.138 -0.587
c 3.110 0.880 -1.534
c 2.613 -0.077 -2.413
c 1.420 -0.007 -3.007
c 0.801 -1.279 -2.824
c -0.519 -1.381 -2.842
c -1.169 -2.206 -1.913
c -2.454 -1.748 -1.895
c -3.188 -1.735 -0.811
c -3.165 0.399 -1.619
c -2.505 -0.470 -2.482
c -1.320 -0.218 -3.044
c -0.736 1.033 -2.865
c 0.647 1.139 -2.846
c 1.028 2.086 -1.868
c 2.250 1.958 -1.124
c 2.206 2.282 0.291
c 3.025 1.502 1.180
c 2.465 1.015 2.356
c 1.239 1.320 2.789
c 0.493 2.272 2.100
c -0.891 2.166 2.081
c -1.367 2.527 0.800
c -2.536 1.919 0.227
c -2.491 1.595 -1.188
c -1.283 1.909 -1.899
c -0.177 2.538 -1.290
c -0.219 2.844 0.045
c 0.944 2.704 0.832
c 2.965 -1.713 0.485
c 3.436 -1.227 -0.721
c 2.742 -1.349 -1.824
c 1.543 -1.998 -1.877
c 0.921 -2.532 -0.673
c -0.505 -2.641 -0.692
c -1.275 -2.517 0.537
c -2.681 -2.146 0.408
c -3.253 -1.253 1.295
c -2.585 -0.783 2.318
c -1.310 -1.170 2.609
c -0.581 -2.084 1.741
c 0.845 -1.975 1.760
c 1.629 -2.294 0.576




