%chk=000463.chk
%mem=8GB
%Nproc=32
#p B3LYP/6-31G* opt pop=NPA

Template file

0 1
c -2.809 1.726 -1.891
c -3.645 1.951 -0.806
c -2.988 2.679 0.114
c -2.868 1.895 1.317
c -1.656 1.862 2.009
c -1.125 0.565 2.460
c 0.222 0.504 2.833
c 0.981 -0.683 2.738
c 2.288 -0.293 2.402
c 3.040 -0.944 1.465
c 3.294 0.009 0.420
c 3.039 -0.353 -0.941
c 2.123 0.524 -1.689
c 1.017 -0.062 -2.445
c -0.273 0.602 -2.507
c -1.472 -0.231 -2.361
c -2.696 0.352 -2.062
c -3.466 -0.212 -1.008
c -3.991 0.787 -0.274
c -3.502 0.695 1.012
c -1.681 2.491 -1.750
c -0.393 1.984 -2.118
c 0.706 2.523 -1.435
c 1.902 1.814 -1.193
c 2.334 2.169 0.117
c 2.922 1.242 0.918
c 2.311 1.021 2.174
c 1.104 1.582 2.538
c 0.656 2.663 1.845
c -0.690 2.832 1.590
c -0.786 3.404 0.276
c -1.862 3.184 -0.483
c 0.456 3.287 -0.283
c 1.352 2.976 0.654
c -2.837 -0.517 1.142
c -1.691 -0.673 1.925
c -0.842 -1.817 1.647
c 0.490 -1.877 2.194
c 1.455 -2.738 1.576
c 2.752 -2.213 1.170
c 3.004 -2.660 -0.101
c 3.023 -1.725 -1.197
c 2.094 -2.231 -2.099
c 1.029 -1.455 -2.538
c -0.151 -2.192 -2.192
c -1.279 -1.542 -1.866
c -1.880 -1.905 -0.574
c -2.889 -1.124 -0.155
c -1.073 -2.547 0.395
c -0.106 -3.410 -0.102
c 1.097 -3.595 0.568
c 2.111 -3.625 -0.379
c 1.591 -3.405 -1.580
c 0.254 -3.293 -1.473




