%chk=000092.chk
%mem=8GB
%Nproc=32
#p B3LYP/6-31G* opt pop=NPA

Template file

0 1
c 2.208 1.122 -2.286
c 1.019 1.721 -2.688
c 0.296 2.511 -1.782
c -1.125 2.325 -1.819
c -1.907 2.491 -0.666
c -2.822 1.447 -0.631
c -3.034 0.646 0.477
c -2.974 -0.698 -0.004
c -2.426 -1.707 0.788
c -1.623 -2.666 0.109
c -0.410 -3.136 0.704
c 0.511 -3.261 -0.286
c 1.774 -2.659 -0.252
c 1.999 -2.193 -1.551
c 2.683 -1.005 -1.738
c 2.267 -0.169 -2.754
c 2.663 1.164 -1.001
c 2.980 -0.193 -0.625
c 2.803 -0.639 0.701
c 2.160 -1.927 0.904
c 1.306 -2.063 2.041
c 0.006 -2.653 1.903
c -0.869 -1.899 2.638
c -2.026 -1.336 2.099
c -2.060 0.006 2.570
c -2.516 1.042 1.722
c -1.756 2.261 1.730
c -1.360 2.886 0.505
c 0.023 3.166 0.566
c 0.897 2.798 -0.498
c 2.126 2.069 -0.103
c 2.314 1.727 1.250
c 2.586 0.375 1.654
c 1.846 0.144 2.836
c 1.175 -1.046 2.991
c -0.189 -0.981 3.351
c -0.916 0.194 3.409
c -0.215 1.377 3.383
c -0.686 2.397 2.577
c 0.377 2.945 1.870
c 1.500 2.264 2.208
c 1.175 1.318 3.143
c -1.707 1.239 -2.549
c -2.678 0.693 -1.742
c -2.740 -0.652 -1.414
c -1.893 -1.560 -2.083
c -1.392 -2.605 -1.290
c -0.078 -3.043 -1.492
c 0.810 -2.447 -2.333
c 0.330 -1.498 -3.221
c 1.132 -0.408 -3.481
c 0.377 0.734 -3.469
c -0.937 0.398 -3.294
c -1.003 -1.015 -3.077




