%chk=000156.chk
%mem=8GB
%Nproc=16
#p B3LYP/6-31G* opt pop=NPA

Template file

0 1
 C            4.05043977       -2.39346641       -0.90379110
 C            4.71561750       -1.19819102       -0.40849821
 C            4.60732299       -1.19914667        1.04351550
 C            3.70293605       -3.21129845        0.24691164
 C            3.85681818       -2.38355535        1.42918187
 C            2.61488131       -4.06055366        0.16109680
 C            1.89523225       -4.13596400       -1.09361898
 C            3.16809961       -2.29242829       -1.97734637
 C            2.02637100       -3.09866702       -2.01526115
 C            3.24493673       -1.17639133       -2.80343319
 C            4.58681683       -0.00000000       -1.10376403
 C            3.97607562       -0.00000000       -2.35578003
 C            4.71561750        1.19819102       -0.40849821
 C            4.38795551       -0.00000000        1.71573991
 C            4.60732299        1.19914667        1.04351550
 C            3.60234792       -0.00000000        2.86754019
 C            2.80547801       -2.25795187        2.33246613
 C            2.81107737       -1.17559978        3.19953480
 C            1.61792764       -4.03008189        1.21760145
 C            1.62570007       -2.98058303        2.13339277
 C            0.57907168       -4.66164151       -0.78690211
 C            0.35757628       -4.45890373        0.63511212
 C           -0.45878245       -4.40883512       -1.66355818
 C            0.91412152       -2.69282081       -2.76013883
 C           -0.25177692       -3.44718987       -2.73377100
 C            2.05030537       -0.72418471       -3.49080434
 C            0.86194253       -1.40121415       -3.27289189
 C            3.24493673        1.17639133       -2.80343319
 C            2.05030537        0.72418471       -3.49080434
 C            4.05043977        2.39346641       -0.90379110
 C            3.16809961        2.29242829       -1.97734637
 C            3.85681818        2.38355535        1.42918187
 C            3.70293605        3.21129845        0.24691164
 C            2.81107737        1.17559978        3.19953480
 C            2.80547801        2.25795187        2.33246613
 C            1.56583926       -0.72513145        3.78544002
 C            1.56583926        0.72513145        3.78544002
 C            0.41044610       -2.50247720        2.63869820
 C            0.38419919       -1.38005091        3.47236771
 C           -0.82067645       -3.86100346        1.06669612
 C           -0.79325897       -3.08021814        2.21860076
 C           -1.78323848       -4.16834954       -1.12519050
 C           -1.92868604       -3.80638808        0.21286359
 C           -1.52034338       -2.78136125       -2.97588499
 C           -2.51173975       -3.43304497       -2.13783828
 C           -0.34580130       -0.69860510       -3.25953797
 C           -1.54745310       -1.39415798       -3.11837394
 C            0.86194253        1.40121415       -3.27289189
 C           -0.34580130        0.69860510       -3.25953797
 C            2.02637100        3.09866702       -2.01526115
 C            0.91412152        2.69282081       -2.76013883
 C            2.61488131        4.06055366        0.16109680
 C            1.89523225        4.13596400       -1.09361898
 C            1.62570007        2.98058303        2.13339277
 C            1.61792764        4.03008189        1.21760145
 C            0.38419919        1.38005091        3.47236771
 C            0.41044610        2.50247720        2.63869820
 C           -0.81506356       -0.69921122        3.66359218
 C           -0.81506356        0.69921122        3.66359218
 C           -1.99394761       -2.62765001        2.74895958
 C           -2.00451931       -1.40006549        3.52019188
 C           -3.08902056       -3.13719671        0.61520628
 C           -3.17832782       -2.63901590        1.91072642
 C           -3.62865869       -2.71598747       -1.75540510
 C           -3.98210287       -2.66203577       -0.34535091
 C           -2.72253498       -0.69777471       -2.83010499
 C           -3.81297020       -1.38137226       -2.29000094
 C           -1.54745310        1.39415798       -3.11837394
 C           -2.72253498        0.69777471       -2.83010499
 C           -0.25177692        3.44718987       -2.73377100
 C           -1.52034338        2.78136125       -2.97588499
 C            0.57907168        4.66164151       -0.78690211
 C            0.35757628        4.45890373        0.63511212
 C           -0.45878245        4.40883512       -1.66355818
 C           -0.79325897        3.08021814        2.21860076
 C           -0.82067645        3.86100346        1.06669612
 C           -2.00451931        1.40006549        3.52019188
 C           -1.99394761        2.62765001        2.74895958
 C           -3.23594424       -0.69130204        3.22187052
 C           -3.90642330       -1.40103728        2.14846419
 C           -3.23594424        0.69130204        3.22187052
 C           -4.66922700       -1.39830434       -0.11687645
 C           -4.71097549       -0.69039363       -1.38463636
 C           -4.43146586       -0.70037796        1.06485724
 C           -3.81297020        1.38137226       -2.29000094
 C           -4.71097549        0.69039363       -1.38463636
 C           -2.51173975        3.43304497       -2.13783828
 C           -1.78323848        4.16834954       -1.12519050
 C           -1.92868604        3.80638808        0.21286359
 C           -3.62865869        2.71598747       -1.75540510
 C           -3.17832782        2.63901590        1.91072642
 C           -3.90642330        1.40103728        2.14846419
 C           -4.43146586        0.70037796        1.06485724
 C           -4.66922700        1.39830434       -0.11687645
 C           -3.08902056        3.13719671        0.61520628
 C           -3.98210287        2.66203577       -0.34535091




