%chk=000062.chk
%mem=8GB
%Nproc=16
#p B3LYP/6-31G* opt pop=NPA

Template file

0 1
 C            4.64865761        0.00369722       -1.87296442
 C            4.49845495        1.32072328       -1.27910327
 C            4.79571196        1.21002737        0.13936987
 C            4.90685751       -0.94145310       -0.79663453
 C            4.86851649       -0.20664928        0.45542015
 C            4.35631597       -2.21293115       -0.84498014
 C            3.59643096       -2.62847070       -2.01349746
 C            3.82429335       -0.35623223       -2.92841842
 C            3.30704687       -1.71338103       -3.01414282
 C            2.76602366        0.55189687       -3.33487058
 C            3.46243809        2.15655039       -1.68386158
 C            2.48793283        1.67497309       -2.56173038
 C            3.17809911        3.25519509       -0.88837595
 C            4.16739565        2.07742391        1.03103525
 C            3.53010185        3.20917530        0.52439015
 C            3.81551771        1.60771115        2.29707634
 C            4.13276617       -0.69659742        1.52934545
 C            3.83745203        0.17670303        2.56276270
 C            3.67934040       -2.72905225        0.33317515
 C            3.38985995       -1.87123084        1.38528624
 C            2.55712890       -3.53261261       -1.56043526
 C            2.67150726       -3.66276635       -0.11593173
 C            1.28493338       -3.48598064       -2.12590922
 C            1.95511367       -1.64312163       -3.53976895
 C            1.67111680       -0.25022413       -3.83853184
 C            0.94696249       -2.43522073       -2.98714853
 C            0.37486895        0.20050916       -3.67477854
 C            1.17205679        2.15130124       -2.48754772
 C            0.14118491        1.46813035       -3.13904259
 C            1.88820426        3.90527320       -1.00424132
 C            0.88359478        3.30502877       -1.75780637
 C            2.42971273        3.80337294        1.26391347
 C            1.56564679        4.45692853        0.29967005
 C            2.65712489        2.16644146        2.97921536
 C            1.87087604        3.10214454        2.32684107
 C            2.74788736       -0.12989413        3.46400031
 C            2.02141555        1.10206266        3.72749485
 C            2.23636121       -2.07969464        2.15225978
 C            2.02283589       -1.30288576        3.29717846
 C            1.50896057       -3.83070732        0.62344167
 C            1.27476841       -3.02280403        1.74258424
 C            0.27740581       -4.17184993       -1.46086323
 C            0.42781646       -4.40396948       -0.03297093
 C           -1.10784824       -3.83015975       -1.70804991
 C           -0.38087985       -1.99595549       -3.08244032
 C           -0.64121413       -0.74202139       -3.64090979
 C           -1.40684514       -2.69516858       -2.43970241
 C           -1.94638280       -0.29342184       -3.75345498
 C           -1.17645721        1.91878775       -3.02569898
 C           -2.20486366        1.11636829       -3.52389796
 C           -0.44492475        3.66433382       -1.52419268
 C           -1.47509382        2.99577138       -2.18703153
 C            0.23544983        4.64568270        0.62088338
 C           -0.75247374        4.46287963       -0.42130816
 C            0.48257511        3.05638496        2.47228744
 C           -0.29398340        4.00214548        1.81336590
 C            0.63563963        1.04771513        3.80827843
 C           -0.12713852        1.92649335        3.03029474
 C            0.80897012       -1.38510555        3.96409632
 C            0.07991693       -0.15249197        4.22979727
 C            0.04444536       -3.11044992        2.40850242
 C           -0.15387059       -2.39210602        3.58008749
 C           -0.88631235       -4.34881864        0.56670774
 C           -1.85113932       -4.08957902       -0.49157915
 C           -1.05159506       -3.72474927        1.79399761
 C           -2.97061364       -3.31659019       -0.20345228
 C           -2.65806564       -2.10304326       -2.27992507
 C           -3.00519003       -1.04843703       -3.11563066
 C           -3.43027477       -2.39152906       -1.14667424
 C           -3.54798288        1.23265651       -2.98560775
 C           -4.03888522       -0.11083039       -2.71777677
 C           -2.79526465        3.23202948       -1.79585387
 C           -3.83177232        2.26193450       -2.10330238
 C           -2.01564189        4.27247894        0.25844851
 C           -1.69666855        3.72421163        1.56616201
 C           -3.05975193        3.71714495       -0.45321382
 C           -1.46433751        1.62331693        2.72157905
 C           -2.22042292        2.48828593        1.93038233
 C           -1.32169182       -0.41349921        3.99453434
 C           -1.46934147       -1.85185993        3.87069068
 C           -2.03239268        0.42116036        3.14167462
 C           -2.34513755       -3.36981346        2.16938460
 C           -3.34816442       -3.18199298        1.13202391
 C           -2.55765144       -2.34493702        3.17740138
 C           -3.18353767       -0.05821500        2.51475340
 C           -4.19671561       -2.07487741        1.54052694
 C           -3.52427866       -1.40585236        2.63832400
 C           -4.52320426       -1.58711534       -0.82542477
 C           -4.77375899       -0.36456012       -1.57047611
 C           -4.80458207       -1.30182106        0.56929799
 C           -4.54902805        1.98252121       -0.86687199
 C           -3.87776660        2.71120032        0.19318435
 C           -3.36807130        2.01514152        1.29009135
 C           -3.83402293        0.72791430        1.56291097
 C           -5.00210372        0.69998285       -0.60402181
 C           -4.77635026        0.14091923        0.71592345




