%chk=000103.chk
%mem=8GB
%Nproc=16
#p B3LYP/6-31G* opt pop=NPA

Template file

0 1
 C            5.03493408       -0.40474253        0.01526386
 C            4.64748362        0.11690284       -1.28205861
 C            3.99340345       -0.95498207       -2.01945084
 C            4.66107436       -1.80910296        0.06131070
 C            3.95881877       -2.12932278       -1.17087465
 C            4.21661695       -2.36516324        1.25205511
 C            3.94645254       -1.50816593        2.39692996
 C            4.87634700        0.38964878        1.13974735
 C            4.25634110       -0.15908160        2.33637451
 C            4.40008946        1.75107321        0.98353558
 C            4.15806447        1.41630883       -1.40349650
 C            4.08700598        2.25163058       -0.27901221
 C            3.43601452        1.72762540       -2.55372669
 C            2.89773425       -0.65226291       -2.81803860
 C            2.75535559        0.65979661       -3.26776023
 C            1.78697693       -1.50236923       -2.82360374
 C            2.80433878       -2.90250753       -1.11989624
 C            1.77309675       -2.66156040       -2.03425636
 C            3.17565392       -3.37560848        1.21001748
 C            2.57370941       -3.70650143       -0.00096245
 C            2.66369725       -1.90630286        2.95055558
 C            2.32949033       -3.19288814        2.37781927
 C            1.65776731       -0.95937898        3.11140095
 C            3.27693375        0.80421404        2.80655014
 C            3.50733045        2.04325242        2.09528454
 C            1.96912608        0.40005082        3.04223868
 C            2.44591320        2.91445259        1.88366361
 C            3.34822778        3.43228505       -0.33148550
 C            2.54988344        3.80700382        0.82671062
 C            2.58438331        2.90167856       -2.59342368
 C            2.59131275        3.77462875       -1.52254026
 C            1.44047506        1.14830135       -3.64535399
 C            1.31145759        2.51310325       -3.17790959
 C            0.61169161       -1.06852429       -3.43496368
 C            0.36192123        0.29188785       -3.53407028
 C           -0.44845062       -1.94213629       -3.58200739
 C            0.67161237       -3.52275257       -2.07746428
 C           -0.41678840       -3.21176959       -2.88513620
 C            1.41942509       -4.47517218        0.05461686
 C            0.48004991       -4.43506279       -1.04741695
 C            0.99539614       -3.56354189        2.28478119
 C            0.65014135       -4.47157312        1.28734391
 C            0.32376733       -1.36728360        3.05174732
 C            0.01515595       -2.70832184        2.79223959
 C           -0.69274342       -0.41362462        3.16462358
 C            0.94286662        1.33405289        2.94899232
 C            1.17581874        2.58739532        2.36556449
 C           -0.35445223        0.93707305        3.25385461
 C            0.10064439        3.44551546        2.11112456
 C            1.36297061        4.48786535        0.35207676
 C            1.34126075        4.37819418       -1.09680546
 C            0.16408649        4.34201224        1.03894475
 C            0.12539740        2.91901223       -2.57327461
 C            0.14616612        4.02182852       -1.71612767
 C           -0.88398041        0.78832497       -3.14974606
 C           -0.98758862        2.06729213       -2.59602452
 C           -1.79635514       -1.41080624       -3.49002236
 C           -1.97677124       -0.07968690       -3.11141801
 C           -1.76064802       -3.48129906       -2.39614604
 C           -2.63534829       -2.44657963       -2.91585674
 C           -0.85809246       -4.62008857       -0.50207387
 C           -0.74590512       -4.67510330        0.94521754
 C           -1.92732132       -3.95350259       -1.09613944
 C           -1.31522582       -3.10647726        2.72854614
 C           -1.71962789       -4.07254203        1.72097338
 C           -2.03011780       -0.78071166        2.99660550
 C           -2.36528595       -2.11321643        2.83396763
 C           -2.97182864        0.18666807        2.66256004
 C           -1.35770579        1.89459064        3.32295337
 C           -1.12173072        3.19844776        2.73157463
 C           -2.72341504        1.50428357        3.02629020
 C           -2.35686829        3.62881362        2.09640914
 C           -3.35417242        2.59046237        2.30041765
 C           -0.99885922        4.65506494        0.34089348
 C           -1.02974938        4.41467602       -1.09308644
 C           -2.29550675        4.29566758        0.88222559
 C           -2.20050723        2.48818755       -2.04993603
 C           -2.25922056        3.71011579       -1.38758064
 C           -3.12362815        3.85528368       -0.22982060
 C           -3.14453322        0.29905408       -2.44682781
 C           -3.25210843        1.58089466       -1.90637311
 C           -3.74719632       -2.07535193       -2.18588387
 C           -4.09044662       -0.66809954       -2.10217605
 C           -2.98732775       -3.48381144       -0.30968849
 C           -2.91637325       -3.56354339        1.07949188
 C           -3.40409057       -2.45198342        1.88042127
 C           -3.95616058       -2.65431841       -0.86917389
 C           -3.98175898       -0.11828767        1.74159760
 C           -4.87453952       -0.49814356       -0.89372736
 C           -4.10468845       -1.42472606        1.25671829
 C           -4.58054020       -1.63510973       -0.03730571
 C           -4.25854683        2.29233176        1.29220603
 C           -4.11102574        2.90738208       -0.01978382
 C           -4.28296228        1.85762692       -1.00612365
 C           -4.65425361        0.90924074        1.08216243
 C           -4.94943503        0.76188973       -0.33056858




