%chk=000163.chk
%mem=8GB
%Nproc=16
#p B3LYP/6-31G* opt pop=NPA

Template file

0 1
 C            3.94592982       -2.34974258        1.20768865
 C            4.69261808       -1.18927718        0.74661795
 C            4.69261808       -1.21210285       -0.70896070
 C            3.63256681       -3.16761452        0.04967296
 C            3.94592982       -2.38645465       -1.13341795
 C            2.48069961       -3.93220408        0.06166288
 C            1.61987266       -3.87649441        1.22944837
 C            3.00862225       -2.19213870        2.22433265
 C            1.77293567       -2.83878797        2.13871406
 C            3.16551928       -1.12622821        3.09418947
 C            4.55606692        0.02225358        1.41909738
 C            3.91510714        0.04166691        2.65707370
 C            4.69261808        1.21210285        0.70896070
 C            4.55606692       -0.02225358       -1.41909738
 C            4.69261808        1.18927718       -0.74661795
 C            3.91510714       -0.04166691       -2.65707370
 C            3.00862225       -2.26080544       -2.15450378
 C            3.16551928       -1.22269368       -3.05735484
 C            1.61987266       -3.91313806       -1.10729521
 C            1.77293567       -2.90445217       -2.04865141
 C            0.29338302       -4.24682334        0.79489398
 C            0.29338302       -4.26965933       -0.66134271
 C           -0.81556517       -3.72604016        1.44588528
 C            0.64636458       -2.30571702        2.78056366
 C           -0.64636458       -2.70690002        2.39176871
 C            2.03266818       -0.66669207        3.86698253
 C            0.81556517       -1.32834324        3.76954424
 C            3.16551928        1.22269368        3.05735484
 C            2.03266818        0.78761465        3.84417681
 C            3.94592982        2.38645465        1.13341795
 C            3.00862225        2.26080544        2.15450378
 C            3.94592982        2.34974258       -1.20768865
 C            3.63256681        3.16761452       -0.04967296
 C            3.16551928        1.12622821       -3.09418947
 C            3.00862225        2.19213870       -2.22433265
 C            2.03266818       -0.78761465       -3.84417681
 C            2.03266818        0.66669207       -3.86698253
 C            0.64636458       -2.39176871       -2.70690002
 C            0.81556517       -1.44588528       -3.72604016
 C           -0.81556517       -3.76954424       -1.32834324
 C           -0.64636458       -2.78056366       -2.30571702
 C           -2.03266818       -3.84417681        0.78761465
 C           -2.03266818       -3.86698253       -0.66669207
 C           -3.16551928       -3.05735484        1.22269368
 C           -1.77293567       -2.04865141        2.90445217
 C           -3.00862225       -2.15450378        2.26080544
 C           -0.29338302       -0.66134271        4.26965933
 C           -1.61987266       -1.10729521        3.91313806
 C            0.81556517        1.44588528        3.72604016
 C           -0.29338302        0.79489398        4.24682334
 C            1.77293567        2.90445217        2.04865141
 C            0.64636458        2.39176871        2.70690002
 C            2.48069961        3.93220408       -0.06166288
 C            1.61987266        3.91313806        1.10729521
 C            1.77293567        2.83878797       -2.13871406
 C            1.61987266        3.87649441       -1.22944837
 C            0.81556517        1.32834324       -3.76954424
 C            0.64636458        2.30571702       -2.78056366
 C           -0.29338302       -0.79489398       -4.24682334
 C           -0.29338302        0.66134271       -4.26965933
 C           -1.77293567       -2.13871406       -2.83878797
 C           -1.61987266       -1.22944837       -3.87649441
 C           -3.16551928       -3.09418947       -1.12622821
 C           -3.91510714       -2.65707370        0.04166691
 C           -3.00862225       -2.22433265       -2.19213870
 C           -4.55606692       -1.41909738        0.02225358
 C           -3.94592982       -1.13341795        2.38645465
 C           -4.69261808       -0.70896070        1.21210285
 C           -2.48069961        0.06166288        3.93220408
 C           -1.61987266        1.22944837        3.87649441
 C           -3.63256681        0.04967296        3.16761452
 C           -0.64636458        2.78056366        2.30571702
 C           -1.77293567        2.13871406        2.83878797
 C            0.29338302        4.26965933        0.66134271
 C            0.29338302        4.24682334       -0.79489398
 C           -0.81556517        3.76954424        1.32834324
 C           -0.64636458        2.70690002       -2.39176871
 C           -0.81556517        3.72604016       -1.44588528
 C           -1.61987266        1.10729521       -3.91313806
 C           -2.48069961       -0.06166288       -3.93220408
 C           -1.77293567        2.04865141       -2.90445217
 C           -3.94592982       -1.20768865       -2.34974258
 C           -4.69261808       -0.74661795       -1.18927718
 C           -3.63256681       -0.04967296       -3.16761452
 C           -3.00862225        2.15450378       -2.26080544
 C           -4.69261808        0.70896070       -1.21210285
 C           -3.94592982        1.13341795       -2.38645465
 C           -4.69261808        0.74661795        1.18927718
 C           -3.94592982        1.20768865        2.34974258
 C           -3.00862225        2.22433265        2.19213870
 C           -4.55606692        1.41909738       -0.02225358
 C           -2.03266818        3.86698253        0.66669207
 C           -2.03266818        3.84417681       -0.78761465
 C           -3.16551928        3.05735484       -1.22269368
 C           -3.16551928        3.09418947        1.12622821
 C           -3.91510714        2.65707370       -0.04166691




