%chk=000174.chk
%mem=8GB
%Nproc=16
#p B3LYP/6-31G* opt pop=NPA

Template file

0 1
 C            4.81283834        0.84434574        0.43426990
 C            4.22707212        1.90684928        1.23822300
 C            3.82603624        2.97197040        0.33701092
 C            4.70929932        1.24255269       -0.95848766
 C            3.88297806        2.43534397       -1.01024419
 C            4.53716180        0.27250620       -1.92588020
 C            4.46191722       -1.12206920       -1.52605656
 C            4.59174234       -0.48116554        0.80521246
 C            4.40086247       -1.46249837       -0.17624830
 C            4.23300695       -0.73551459        2.12789100
 C            3.41499893        1.56461726        2.31594148
 C            3.61553491        0.32672416        2.90825289
 C            2.19996610        2.22892559        2.50586066
 C            2.75540892        3.77452086        0.68264471
 C            1.99235643        3.45133802        1.87744240
 C            1.79483948        4.11694337       -0.34583217
 C            2.73528027        2.44956500       -1.80534071
 C            1.68230484        3.30318152       -1.47355653
 C            3.53374012        0.48413753       -2.95191190
 C            2.54339345        1.44814177       -2.75803055
 C            3.58032051       -1.79957229       -2.46574562
 C            3.17021674       -0.82409191       -3.46217628
 C            2.66221313       -2.73128917       -1.98361978
 C            3.84547493       -2.69507900        0.16320654
 C            2.91611249       -3.33122630       -0.75714176
 C            3.59005992       -1.98660430        2.48784414
 C            3.37044682       -2.93997032        1.51271902
 C            2.56186647       -0.25940439        3.70881884
 C            2.53330880       -1.68722378        3.43665990
 C            1.11975167        1.56361420        3.09829013
 C            1.35417325        0.41052515        3.85558077
 C           -0.19464695        1.99745722        2.85389982
 C            0.63566099        3.91897539        1.66138048
 C            0.59685140        4.54011597        0.34714193
 C           -0.43164297        3.12578527        2.06889880
 C           -0.59685140        4.54011597       -0.34714193
 C            0.43164297        3.12578527       -2.06889880
 C           -0.63566099        3.91897539       -1.66138048
 C            1.28192304        1.26258503       -3.32596309
 C            0.19464695        1.99745722       -2.85389982
 C            1.94388574       -0.97516040       -4.08018961
 C            1.06504021        0.17701753       -4.16472459
 C            1.37353534       -2.77973732       -2.52435529
 C            1.11707436       -2.10913830       -3.71379023
 C            0.29958064       -3.23399644       -1.75004464
 C            1.81161515       -3.85498569        0.01949145
 C            2.06444415       -3.56963016        1.42060941
 C            0.52111344       -3.71553515       -0.45766339
 C            1.29612000       -2.31820929        3.33611278
 C            1.01558709       -3.11610204        2.22185900
 C            0.27874841       -0.32987820        4.32742582
 C            0.24622295       -1.75965702        4.05162579
 C           -1.28192304        1.26258503        3.32596309
 C           -1.06504021        0.17701753        4.16472459
 C           -2.54339345        1.44814177        2.75803055
 C           -1.68230484        3.30318152        1.47355653
 C           -1.79483948        4.11694337        0.34583217
 C           -2.73528027        2.44956500        1.80534071
 C           -1.99235643        3.45133802       -1.87744240
 C           -2.75540892        3.77452086       -0.68264471
 C           -1.11975167        1.56361420       -3.09829013
 C           -2.19996610        2.22892559       -2.50586066
 C           -0.27874841       -0.32987820       -4.32742582
 C           -0.24622295       -1.75965702       -4.05162579
 C           -1.35417325        0.41052515       -3.85558077
 C           -1.01558709       -3.11610204       -2.22185900
 C           -1.29612000       -2.31820929       -3.33611278
 C           -2.06444415       -3.56963016       -1.42060941
 C           -0.52111344       -3.71553515        0.45766339
 C           -0.29958064       -3.23399644        1.75004464
 C           -1.81161515       -3.85498569       -0.01949145
 C           -1.11707436       -2.10913830        3.71379023
 C           -1.94388574       -0.97516040        4.08018961
 C           -1.37353534       -2.77973732        2.52435529
 C           -3.53374012        0.48413753        2.95191190
 C           -3.17021674       -0.82409191        3.46217628
 C           -4.53716180        0.27250620        1.92588020
 C           -3.88297806        2.43534397        1.01024419
 C           -3.82603624        2.97197040       -0.33701092
 C           -4.70929932        1.24255269        0.95848766
 C           -3.41499893        1.56461726       -2.31594148
 C           -4.22707212        1.90684928       -1.23822300
 C           -4.81283834        0.84434574       -0.43426990
 C           -2.56186647       -0.25940439       -3.70881884
 C           -2.53330880       -1.68722378       -3.43665990
 C           -3.61553491        0.32672416       -2.90825289
 C           -3.37044682       -2.93997032       -1.51271902
 C           -4.59174234       -0.48116554       -0.80521246
 C           -3.59005992       -1.98660430       -2.48784414
 C           -4.23300695       -0.73551459       -2.12789100
 C           -2.91611249       -3.33122630        0.75714176
 C           -2.66221313       -2.73128917        1.98361978
 C           -3.58032051       -1.79957229        2.46574562
 C           -4.46191722       -1.12206920        1.52605656
 C           -3.84547493       -2.69507900       -0.16320654
 C           -4.40086247       -1.46249837        0.17624830




