%chk=000143.chk
%mem=8GB
%Nproc=16
#p B3LYP/6-31G* opt pop=NPA

Template file

0 1
 C            4.67601455       -0.29804121        1.73982213
 C            4.62810345        0.97019069        1.03401627
 C            4.93939415        0.69934479       -0.35707580
 C            4.76311185       -1.35467620        0.74190977
 C            4.76173861       -0.72562571       -0.56692474
 C            4.06137831       -2.53617552        0.92201954
 C            3.28606655       -2.74347469        2.13479289
 C            3.88610765       -0.47238724        2.86544571
 C            3.20711873       -1.73904288        3.08713743
 C            2.98209416        0.59140638        3.26384758
 C            3.63906315        1.90410712        1.34134704
 C            2.78728990        1.68613254        2.43124112
 C            3.34563407        2.91048387        0.41654850
 C            4.48082189        1.57721091       -1.32307623
 C            3.74028533        2.75810357       -0.91209698
 C            3.83707427        1.04793278       -2.51346981
 C            3.87885782       -1.16644995       -1.55257823
 C            3.57076953       -0.31533075       -2.62060888
 C            3.30411621       -3.08458985       -0.18852143
 C            3.15950686       -2.35563087       -1.36571512
 C            2.08505653       -3.47544511        1.77518041
 C            2.14274250       -3.76360881        0.35544336
 C            0.86075297       -3.12594558        2.32901506
 C            1.92863225       -1.45344157        3.71328148
 C            1.82798834       -0.01872430        3.89500099
 C            0.78667661       -2.14837113        3.32842731
 C            0.58001668        0.57269900        3.74678210
 C            1.60368807        2.41060038        2.54610369
 C            0.47087802        1.81023046        3.10452405
 C            2.33726563        3.82620152        0.69872075
 C            1.47403556        3.59773631        1.84125098
 C            1.50022722        4.29961836       -0.39100961
 C            2.79634138        3.08175821       -1.97032282
 C            2.81435825        1.99532657       -2.92960824
 C            1.58728367        3.66794339       -1.62801663
 C            1.61709199        1.50571120       -3.43779096
 C            2.63966510       -0.71591230       -3.57145030
 C            1.63558705        0.24222817       -4.01422592
 C            2.09990222       -2.67027068       -2.21522800
 C            1.98330991       -1.99674048       -3.42342860
 C            0.96510687       -3.75505547       -0.38209637
 C            1.02842424       -3.43039480       -1.73423095
 C           -0.30055761       -3.51299309        1.66424418
 C           -0.26716320       -3.71176583        0.28040068
 C           -1.51613984       -3.33733832        2.30716302
 C           -0.45578798       -1.60200982        3.65051586
 C           -0.55289446       -0.22571464        3.88480436
 C           -1.59635509       -2.34259780        3.35843802
 C           -1.79553292        0.39334495        3.92931347
 C           -0.79373159        2.36683001        2.88444762
 C           -1.91732996        1.74135936        3.40676366
 C            0.14740873        4.08490857        1.50656390
 C            0.19979754        4.62895605        0.16093493
 C           -0.95991518        3.34729717        1.90956101
 C           -0.91642987        4.51733598       -0.64807383
 C            0.41954292        3.24463384       -2.26464650
 C            0.40999423        2.03847335       -2.97384300
 C           -0.78381639        3.85872699       -1.93856472
 C           -0.78764008        1.32145608       -3.12697424
 C            0.39369931       -0.47593801       -4.20627332
 C            0.68714511       -1.89097160       -4.06610028
 C           -0.77790031        0.03380674       -3.66084635
 C           -0.10735838       -3.60202415       -2.51475526
 C           -0.32747260       -2.73850588       -3.66332809
 C           -1.45501463       -3.72210805       -0.46291361
 C           -1.38814573       -3.78799214       -1.85353576
 C           -2.73437388       -3.26544802        1.52716752
 C           -2.67457225       -3.41379589        0.14830460
 C           -2.88930159       -1.68848023        3.26154149
 C           -2.99019732       -0.34223462        3.55676260
 C           -3.56576637       -2.21114981        2.08887653
 C           -3.16954808        1.82959182        2.68004716
 C           -3.79165549        0.51407129        2.70210754
 C           -2.14632269        3.40331749        1.16801496
 C           -2.16129354        4.06307389       -0.05997294
 C           -3.22817058        2.58812318        1.51567083
 C           -2.02947455        3.16541568       -2.20444648
 C           -1.99108633        1.85446209       -2.66714651
 C           -2.95528044        3.52067007       -1.14259583
 C           -3.07896875        1.00965366       -2.43712998
 C           -1.85045510       -0.82480776       -3.41645443
 C           -1.66831866       -2.20288346       -3.53775031
 C           -2.38622683       -3.09465097       -2.64911139
 C           -2.99279763       -0.34121514       -2.77793925
 C           -3.71855742       -2.89071568       -0.61198561
 C           -3.52527790       -2.62210112       -2.02605392
 C           -3.92012602       -1.24477975       -2.25571267
 C           -4.24671605       -1.35302559        1.22730451
 C           -4.35767744        0.00968511        1.53315878
 C           -4.51626074       -1.80319812       -0.06351059
 C           -4.75420162       -0.85172677       -1.13500803
 C           -4.18019258        2.25502572        0.55237731
 C           -3.97855533        2.64432611       -0.83473693
 C           -4.13623400        1.44879174       -1.63974398
 C           -4.75322506        0.91638743        0.55214362
 C           -4.86714585        0.49081676       -0.83185689




