%chk=000057.chk
%mem=8GB
%Nproc=16
#p B3LYP/6-31G* opt pop=NPA

Template file

0 1
 C                  4.92303718   -0.02133284   -1.03657382
 C                  4.60383712    1.36772115   -0.75953605
 C                  4.60130737    1.55072575    0.68315834
 C                  5.00202269   -0.72127330    0.23692529
 C                  4.68317134    0.23106885    1.28632731
 C                  4.52956506   -2.02029996    0.34307360
 C                  4.03496264   -2.70915243   -0.83866195
 C                  4.34330538   -0.64051733   -2.13363357
 C                  3.90326974   -2.02371396   -2.03708985
 C                  3.47207424    0.05032931   -3.06663468
 C                  3.65052264    2.03346834   -1.52243933
 C                  2.91669758    1.33445175   -2.48655459
 C                  3.15799258    3.23048190   -1.02594440
 C                  3.75767031    2.50785528    1.24615969
 C                  3.16584411    3.45474875    0.41215690
 C                  3.19264707    2.25955048    2.49680275
 C                  3.77876839   -0.10955997    2.28660939
 C                  3.24502877    0.91510807    3.05144416
 C                  3.65761546   -2.36066093    1.45493120
 C                  3.13308157   -1.34799061    2.24695461
 C                  2.97121205   -3.59827314   -0.41331813
 C                  2.79694487   -3.43974336    1.02194298
 C                  1.83770259   -3.76777525   -1.20353538
 C                  2.67141329   -2.15522485   -2.79563891
 C                  2.39649088   -0.87044378   -3.41522891
 C                  1.61123704   -2.90141457   -2.27862052
 C                  1.07839353   -0.47887194   -3.56030788
 C                  1.63551003    1.76897535   -2.85069142
 C                  0.73726566    0.86992155   -3.44732918
 C                  1.92423052    3.77000918   -1.55492841
 C                  1.22914471    3.06770873   -2.53044889
 C                  1.87802576    4.02625766    0.77530725
 C                  1.17891642    4.35202816   -0.44985934
 C                  1.88977145    2.82173622    2.82304837
 C                  1.17290680    3.48714181    1.84165220
 C                  2.02264598    0.68912047    3.79204334
 C                  1.20987667    1.89178534    3.69623331
 C                  1.86149384   -1.50097356    2.81173351
 C                  1.39312429   -0.54751089    3.72314452
 C                  1.51557624   -3.55230615    1.54513487
 C                  1.03099915   -2.55930687    2.40482341
 C                  0.75858092   -4.41302321   -0.61641938
 C                  0.60974233   -4.32931493    0.82933516
 C                 -0.55975979   -4.27916624   -1.19968368
 C                  0.30212783   -2.56505469   -2.64972598
 C                  0.08642117   -1.44291759   -3.45223805
 C                 -0.78474141   -3.29313197   -2.15183316
 C                 -1.19674765   -1.11021628   -3.84608892
 C                 -0.57049157    1.26470247   -3.74990885
 C                 -1.54584750    0.29328105   -3.96482072
 C                 -0.07862168    3.46072728   -2.78126810
 C                 -0.99358746    2.54639667   -3.42878896
 C                 -0.20612001    4.28730346   -0.48226979
 C                 -0.80810569    4.15044684   -1.72926147
 C                 -0.20299190    3.27384668    1.71765395
 C                 -0.89631191    3.87297112    0.65927748
 C                 -0.16797670    1.75293099    3.61658376
 C                 -0.87641850    2.43112484    2.61889257
 C                  0.08135524   -0.61378544    4.17550915
 C                 -0.71508612    0.60357468    4.16967125
 C                 -0.31799422   -2.57009629    2.77148018
 C                 -0.77081179   -1.70182403    3.74744257
 C                 -0.80672299   -4.23417359    1.11967345
 C                 -1.51752610   -4.45995115   -0.12517939
 C                 -1.24972366   -3.24815734    1.99047369
 C                 -2.78497445   -3.92756194   -0.26964071
 C                 -2.09350229   -2.85526662   -2.38074992
 C                 -2.32290971   -1.80562623   -3.26038598
 C                 -3.10293379   -3.18655046   -1.47836446
 C                 -2.86389698    0.47679392   -3.37601125
 C                 -3.33803584   -0.81614704   -2.93046167
 C                 -2.30811162    2.72513544   -2.82887047
 C                 -2.20472661    3.76866787   -1.82337584
 C                 -3.10170406    1.60288080   -2.59994515
 C                 -2.28378165    3.80567037    0.61971683
 C                 -2.95281928    3.66606980   -0.66464788
 C                 -2.24899436    2.19603773    2.46836467
 C                 -2.98249938    2.96412966    1.57119303
 C                 -2.08104411    0.24232049    3.86333657
 C                 -2.12843288   -1.19787651    3.66218292
 C                 -2.83641864    1.06105780    3.03638975
 C                 -2.56316778   -2.77492498    1.89403500
 C                 -3.37342052   -3.20636397    0.84491395
 C                 -2.98855196   -1.71276623    2.69784952
 C                 -4.09502183   -2.18053957   -1.12994828
 C                 -4.01597106   -0.92218296   -1.72394850
 C                 -4.36456536   -2.30273636    0.29268812
 C                 -3.80429126    1.47887530   -1.39656198
 C                 -3.90200179    2.57820191   -0.54236930
 C                 -4.11170883    2.36802896    0.87657296
 C                 -4.25791045    0.22564025   -0.96221916
 C                 -3.98474296    0.51820328    2.46657921
 C                 -4.06307366   -0.92316071    2.28847615
 C                 -4.70922270   -1.17283607    1.01027333
 C                 -4.58520046    1.14122381    1.30034442
 C                 -4.80402850    0.09735657    0.31505020

