%chk=000078.chk
%mem=8GB
%Nproc=16
#p B3LYP/6-31G* opt pop=NPA

Template file

0 1
 C            4.86743589       -1.46036643        0.25081364
 C            4.11575666       -2.47350990       -0.46941492
 C            3.33140941       -3.21524744        0.50483571
 C            4.44129900       -1.50271744        1.64183988
 C            3.36226448       -2.46912772        1.74616828
 C            4.36069531       -0.33160604        2.37627550
 C            4.63578245        0.94865573        1.73773444
 C            5.11677568       -0.24112787       -0.36185150
 C            4.98789739        0.99365557        0.39852149
 C            4.57596862        0.00170379       -1.68763526
 C            3.54910220       -2.17952270       -1.70959702
 C            3.63085239       -0.87774172       -2.21418311
 C            2.56688345       -3.03739681       -2.19519521
 C            2.13595380       -3.78381667        0.09611287
 C            1.93245001       -3.95970336       -1.26949246
 C            1.02968059       -3.71138470        0.94183078
 C            2.15942715       -2.10518064        2.34789021
 C            0.98137504       -2.73254368        1.94128531
 C            3.22682951       -0.13939340        3.26226552
 C            2.10042094       -0.95675497        3.13976031
 C            3.65655068        1.89815286        2.23376384
 C            3.05081142        1.29316780        3.40412292
 C            2.85256035        2.59782128        1.33189648
 C            4.34692882        1.97268308       -0.46125422
 C            4.37136210        1.43369556       -1.80843041
 C            3.21212894        2.65465662       -0.01567591
 C            3.44406152        1.90117798       -2.71940433
 C            2.62001672       -0.38791306       -3.04913838
 C            2.62963253        0.94220748       -3.44624119
 C            1.52548079       -2.50595461       -3.05442033
 C            1.46759667       -1.13824443       -3.25443773
 C            0.59601718       -4.23127894       -1.76594376
 C            0.30397712       -3.23991217       -2.78773930
 C           -0.13697552       -4.35810676        0.55864270
 C           -0.39631487       -4.56017968       -0.85711884
 C           -1.39039219       -4.00563025        1.19338048
 C           -0.24852147       -2.30174264        2.44969238
 C           -1.41137754       -3.03110272        2.18047314
 C            0.86706639       -0.48627146        3.59441830
 C           -0.31095345       -1.13279313        3.21649323
 C            1.82241478        1.76126723        3.82226884
 C            0.79121102        0.79270979        4.13857940
 C            1.58010319        3.01336550        1.72971165
 C            1.18036436        2.80444886        3.04350712
 C            0.63292689        3.36663062        0.76754689
 C            2.31675276        3.17541455       -0.95110587
 C            2.55768378        2.97100024       -2.30991464
 C            1.05711912        3.61501761       -0.53796290
 C            1.36466368        1.58936739       -3.75186416
 C            1.44221698        2.94489486       -3.23239022
 C            0.22842555       -0.49828896       -3.34555428
 C            0.17607063        0.87200174       -3.61224541
 C           -0.90738852       -2.55978680       -2.74327592
 C           -0.94987607       -1.19749616       -3.06420766
 C           -1.75291959       -4.11542822       -1.11493657
 C           -2.42209642       -3.98797837        0.16727202
 C           -1.98921491       -3.15703491       -2.09377910
 C           -3.48513367       -3.09643390        0.29162577
 C           -2.64753534       -2.50237930        2.52411745
 C           -3.71357952       -2.50344978        1.53181407
 C           -1.54885048       -0.55685758        3.52873433
 C           -2.71765698       -1.25503400        3.25529038
 C           -0.46506813        1.50692373        4.08568653
 C           -0.23095782        2.74243666        3.35069108
 C           -1.63176449        0.80362963        3.83247501
 C           -0.73539285        3.40323995        1.09078116
 C           -1.16104240        3.12932232        2.39542967
 C           -1.68835877        3.63058402        0.08989396
 C            0.13991231        4.04348141       -1.49208952
 C            0.27159111        3.57522578       -2.86223226
 C           -1.27540629        4.04032005       -1.17206355
 C           -1.02065484        1.56765553       -3.43155651
 C           -0.98478987        2.94432266       -3.20448629
 C           -1.98127771        3.54683945       -2.34394729
 C           -2.17230835       -0.52462534       -3.07264985
 C           -2.19978290        0.86686717       -3.17758183
 C           -3.21562901       -2.51292002       -2.08754637
 C           -3.99887671       -2.49649590       -0.85874968
 C           -3.32869293       -1.20678149       -2.70371081
 C           -4.64884517       -1.19763655       -0.77102982
 C           -4.39118736       -0.49696763       -2.01610344
 C           -4.38530663       -1.21593829        1.60568504
 C           -3.88631076       -0.53118587        2.78354793
 C           -4.63104893       -0.50362455        0.43516074
 C           -2.72593406        1.53480739        3.38124302
 C           -2.47819395        2.74160636        2.60986988
 C           -3.86746843        0.85158196        2.79965585
 C           -3.00724976        3.20272570        0.26515202
 C           -4.59235477        0.89615001        0.44007458
 C           -3.42412867        2.77075325        1.51476202
 C           -4.25900569        1.58152946        1.60709523
 C           -3.18047372        2.88283165       -2.16962945
 C           -3.33404794        1.56840667       -2.76473952
 C           -4.37408065        0.88393539       -2.01835770
 C           -3.76013951        2.81718626       -0.84071033
 C           -4.54934174        1.59655636       -0.76429424




