%chk=000106.chk
%mem=8GB
%Nproc=16
#p B3LYP/6-31G* opt pop=NPA

Template file

0 1
 C            5.01557036       -0.22986268        0.59804325
 C            4.69262127        1.18257550        0.52331856
 C            3.98785872        1.54604247        1.74392373
 C            4.51698960       -0.72827672        1.87032337
 C            3.72444537        0.32675707        2.47716719
 C            4.07299220       -2.03680385        1.97282573
 C            4.00716679       -2.87609181        0.78378507
 C            4.90582177       -1.01042133       -0.54154112
 C            4.33894907       -2.34707714       -0.45366387
 C            4.43016235       -0.40593260       -1.77206102
 C            4.28735029        1.75460615       -0.68140711
 C            4.11308990        0.95068210       -1.81738047
 C            3.69484951        3.01460147       -0.62014492
 C            3.00828742        2.52866052        1.67734671
 C            3.08573352        3.43765131        0.63234125
 C            1.77396844        2.31931896        2.29835687
 C            2.42678545        0.05949879        2.89478467
 C            1.48872541        1.08971901        2.90963113
 C            2.88093530       -2.30724050        2.75552090
 C            2.00760329       -1.26390387        3.06294121
 C            2.81472724       -3.69842641        0.90023213
 C            2.34244848       -3.55957830        2.26492690
 C            1.88305216       -3.72839962       -0.13918737
 C            3.41114122       -2.51247350       -1.55823768
 C            3.54581150       -1.35941416       -2.42653011
 C            2.14563369       -3.03782519       -1.32340430
 C            2.43166197       -0.88569770       -3.10926396
 C            3.31591776        1.39135108       -2.87202048
 C            2.42890369        0.44413845       -3.52698405
 C            2.85441401        3.48740915       -1.70585112
 C            2.62328562        2.66372796       -2.79050023
 C            1.93599274        4.25909784        0.31714610
 C            1.74142036        4.21432904       -1.12237149
 C            0.76816317        3.28551560        2.17870796
 C            0.81283991        4.21442382        1.13314124
 C           -0.40140129        3.13924035        2.92132586
 C            0.19462188        0.80857116        3.33340866
 C           -0.71167330        1.84354251        3.49459194
 C            0.65289104       -1.54208844        3.26631762
 C           -0.27054657       -0.49949563        3.26019533
 C            1.02022808       -3.85699353        2.53038699
 C            0.19925572       -2.85550108        3.19036154
 C            0.58037547       -4.15152572        0.13505361
 C            0.21360468       -4.40179959        1.45833261
 C           -0.41618082       -4.01315970       -0.83467753
 C            1.09065278       -2.67026126       -2.15317956
 C            1.21775505       -1.57222176       -3.01411052
 C           -0.14646889       -3.29377777       -2.00168130
 C            0.07222424       -0.98286311       -3.54522236
 C            1.16229383        1.11520741       -3.76896064
 C            1.25701051        2.46178761       -3.24447170
 C           -0.00864044        0.40113562       -3.59122121
 C            0.45080847        4.02883501       -1.61115725
 C            0.20149342        2.98072777       -2.50074133
 C           -0.37683177        4.68680718        0.58594404
 C           -0.59230958        4.52606155       -0.84348982
 C           -1.64431596        3.71960812        2.44018590
 C           -1.63866197        4.44471644        1.25828713
 C           -2.12013207        1.57562641        3.27213026
 C           -2.71440832        2.76953067        2.70034853
 C           -1.60998660       -0.74487627        2.93514455
 C           -2.49996817        0.31851724        2.80878600
 C           -1.17769608       -3.10457730        2.79912868
 C           -1.16514493       -4.21561759        1.86153870
 C           -2.01941645       -2.02208902        2.56321601
 C           -1.73370079       -4.33366597       -0.50051823
 C           -2.14517556       -4.27430586        0.89064260
 C           -2.83589471       -3.81528537       -1.29312843
 C           -1.17782765       -2.96348425       -2.87671238
 C           -1.10174778       -1.71149379       -3.60242342
 C           -2.56099882       -3.15713286       -2.48107291
 C           -2.35507150       -1.00781153       -3.40404850
 C           -3.29734522       -1.95175183       -2.83220121
 C           -1.13571202        1.03535005       -3.06639192
 C           -1.01072443        2.27924221       -2.44088612
 C           -2.32516690        0.31257367       -2.95242150
 C           -1.92546342        3.99323383       -1.02505342
 C           -2.63137108        4.16731698        0.23194936
 C           -2.09631662        2.81782874       -1.74964748
 C           -3.75389179        2.63403968        1.79315307
 C           -3.69511257        3.32709744        0.51277169
 C           -3.62842108        0.17796013        1.99678905
 C           -4.30419440        1.31226425        1.54393886
 C           -3.11507069       -2.16912042        1.71187189
 C           -3.24947058       -3.33779968        0.96094003
 C           -3.82068655       -3.26827653       -0.37051971
 C           -3.89320392       -1.05395858        1.39109693
 C           -4.29329792       -1.47953392       -1.99334185
 C           -4.54499583       -2.14036487       -0.72000583
 C           -4.73007967       -1.09886065        0.27410463
 C           -3.36583985        0.80166658       -2.15917282
 C           -3.24030766        2.04574822       -1.53895334
 C           -4.11560093        2.38144060       -0.50391974
 C           -4.82675806        1.32779471        0.19036428
 C           -4.40308383       -0.04840349       -1.76882311
 C           -5.00221968        0.12194430       -0.45806588




