%chk=000167.chk
%mem=8GB
%Nproc=16
#p B3LYP/6-31G* opt pop=NPA

Template file

0 1
 C            4.84465516       -0.12555546       -0.12324004
 C            4.62254873        1.21395756       -0.64546353
 C            4.07517364        1.07813272       -1.98846594
 C            4.60677161       -1.06330360       -1.20479874
 C            3.96448143       -0.33626696       -2.28558204
 C            4.16554799       -2.33866193       -0.90407121
 C            3.86505066       -2.67968697        0.47539884
 C            4.43154970       -0.43114735        1.17023819
 C            3.94830966       -1.71076040        1.47264071
 C            4.25273758        0.61620849        2.06916798
 C            4.13515175        2.21339754        0.19660549
 C            4.02893369        1.96217388        1.56284391
 C            3.39388845        3.25665120       -0.35392099
 C            3.07031711        1.94209724       -2.39646219
 C            2.95025479        3.15930857       -1.73349180
 C            1.99137236        1.44439615       -3.13142510
 C            2.78710896       -0.83097696       -2.83594890
 C            1.78539724        0.06257102       -3.23143074
 C            3.14699782       -2.94782649       -1.74034121
 C            2.50712234       -2.19534456       -2.72308538
 C            2.73271696       -3.59541291        0.47436068
 C            2.35130298       -3.83075186       -0.90332982
 C            1.74810389       -3.45402307        1.44514519
 C            3.24268762       -1.93057504        2.65360970
 C            2.09513747       -2.82613051        2.63519811
 C            3.41189048        0.43815937        3.23830648
 C            2.92932497       -0.82246870        3.53703550
 C            2.91978520        2.53816287        2.30936505
 C            2.51312230        1.57545823        3.31596764
 C            2.30362728        3.84169311        0.41354710
 C            1.95171062        3.27175991        1.62857213
 C            1.73217583        3.93714356       -1.85916032
 C            1.26814054        4.24596095       -0.51657791
 C            0.97477842        2.31471209       -3.52200099
 C            0.80361601        3.57503574       -2.81927098
 C           -0.34756336        1.78198551       -3.80302282
 C            0.55308359       -0.41940453       -3.67979002
 C           -0.55308359        0.41940453       -3.67979002
 C            1.32838241       -2.69823281       -3.25852969
 C            0.34756336       -1.78198551       -3.80302282
 C            1.01322356       -4.01462032       -1.21814232
 C            0.60822057       -3.71907401       -2.51680738
 C            0.40156222       -3.55277008        1.07832021
 C            0.06588559       -4.03102760       -0.19310522
 C           -0.60064131       -3.09630320        1.94850946
 C            1.06171561       -2.24350038        3.46524112
 C            1.54892780       -0.97180235        3.96259845
 C           -0.26010595       -2.32409841        3.06080837
 C            1.15825447        1.37341839        3.53485875
 C            0.68704509        0.12018534        3.93912621
 C            0.60064131        3.09630320        1.94850946
 C            0.26010595        2.32409841        3.06080837
 C           -0.06588559        4.03102760       -0.19310522
 C           -0.40156222        3.55277008        1.07832021
 C           -0.60822057        3.71907401       -2.51680738
 C           -1.32838241        2.69823281       -3.25852969
 C           -1.01322356        4.01462032       -1.21814232
 C           -2.50712234        2.19534456       -2.72308538
 C           -1.78539724       -0.06257102       -3.23143074
 C           -2.78710896        0.83097696       -2.83594890
 C           -0.97477842       -2.31471209       -3.52200099
 C           -0.80361601       -3.57503574       -2.81927098
 C           -1.99137236       -1.44439615       -3.13142510
 C           -1.26814054       -4.24596095       -0.51657791
 C           -1.73217583       -3.93714356       -1.85916032
 C           -1.95171062       -3.27175991        1.62857213
 C           -2.30362728       -3.84169311        0.41354710
 C           -2.91978520       -2.53816287        2.30936505
 C           -1.15825447       -1.37341839        3.53485875
 C           -0.68704509       -0.12018534        3.93912621
 C           -2.51312230       -1.57545823        3.31596764
 C           -1.06171561        2.24350038        3.46524112
 C           -1.54892780        0.97180235        3.96259845
 C           -1.74810389        3.45402307        1.44514519
 C           -2.09513747        2.82613051        2.63519811
 C           -2.35130298        3.83075186       -0.90332982
 C           -3.14699782        2.94782649       -1.74034121
 C           -2.73271696        3.59541291        0.47436068
 C           -4.16554799        2.33866193       -0.90407121
 C           -3.86505066        2.67968697        0.47539884
 C           -3.96448143        0.33626696       -2.28558204
 C           -4.60677161        1.06330360       -1.20479874
 C           -3.07031711       -1.94209724       -2.39646219
 C           -2.95025479       -3.15930857       -1.73349180
 C           -3.39388845       -3.25665120       -0.35392099
 C           -4.07517364       -1.07813272       -1.98846594
 C           -4.02893369       -1.96217388        1.56284391
 C           -4.84465516        0.12555546       -0.12324004
 C           -4.13515175       -2.21339754        0.19660549
 C           -4.62254873       -1.21395756       -0.64546353
 C           -3.41189048       -0.43815937        3.23830648
 C           -2.92932497        0.82246870        3.53703550
 C           -3.24268762        1.93057504        2.65360970
 C           -3.94830966        1.71076040        1.47264071
 C           -4.25273758       -0.61620849        2.06916798
 C           -4.43154970        0.43114735        1.17023819




