%chk=000146.chk
%mem=8GB
%Nproc=16
#p B3LYP/6-31G* opt pop=NPA

Template file

0 1
 C            4.87012142        0.68112968       -0.72787665
 C            4.59491539       -0.67577253       -1.16732954
 C            4.68830310       -1.53250018       -0.00000000
 C            4.87012142        0.68112968        0.72787665
 C            4.59491539       -0.67577253        1.16732954
 C            4.30450582        1.74095271        1.41974621
 C            3.78078992        2.88667712        0.69301642
 C            4.30450582        1.74095271       -1.41974621
 C            3.78078992        2.88667712       -0.69301642
 C            3.39880714        1.46146157       -2.51897217
 C            3.59520314       -0.91506579       -2.10933133
 C            2.97240913        0.16107463       -2.75441738
 C            3.05778166       -2.20184025       -2.21758369
 C            4.00113858       -2.73394559       -0.00000000
 C            3.22737410       -3.10752815       -1.17174341
 C            3.22737410       -3.10752815        1.17174341
 C            3.59520314       -0.91506579        2.10933133
 C            3.05778166       -2.20184025        2.21758369
 C            3.39880714        1.46146157        2.51897217
 C            2.97240913        0.16107463        2.75441738
 C            2.60807818        3.36484838        1.40286307
 C            2.42488827        2.53349085        2.57732085
 C            1.47812403        3.77308416        0.70055682
 C            2.60807818        3.36484838       -1.40286307
 C            2.42488827        2.53349085       -2.57732085
 C            1.47812403        3.77308416       -0.70055682
 C            1.12740464        2.24999797       -2.98457314
 C            1.77874094       -0.03580879       -3.44280722
 C            0.81517217        0.97716671       -3.47415184
 C            2.02760376       -2.43862117       -3.12064841
 C            1.43900975       -1.32000470       -3.82970631
 C            0.94468106       -3.32614545       -2.72576058
 C            2.08314718       -3.88697594       -0.72311432
 C            2.08314718       -3.88697594        0.72311432
 C            0.88466309       -3.76757278       -1.41088842
 C            0.88466309       -3.76757278        1.41088842
 C            2.02760376       -2.43862117        3.12064841
 C            0.94468106       -3.32614545        2.72576058
 C            1.77874094       -0.03580879        3.44280722
 C            1.43900975       -1.32000470        3.82970631
 C            1.12740464        2.24999797        2.98457314
 C            0.81517217        0.97716671        3.47415184
 C            0.26327938        3.83306842        1.38455827
 C            0.10116755        3.08764062        2.55742476
 C           -0.84924284        4.34447642        0.72494693
 C            0.26327938        3.83306842       -1.38455827
 C            0.10116755        3.08764062       -2.55742476
 C           -0.84924284        4.34447642       -0.72494693
 C           -1.15898185        2.93234922       -3.11913969
 C           -0.49351984        0.69613635       -3.89024009
 C           -1.45896690        1.69988886       -3.82758789
 C            0.05139877       -1.64090798       -4.09098680
 C           -0.26164153       -2.87262484       -3.38249740
 C           -0.89504402       -0.62474345       -4.11388459
 C           -1.47860802       -2.97322815       -2.72369488
 C           -0.31425884       -3.63991926       -0.70282404
 C           -0.31425884       -3.63991926        0.70282404
 C           -1.50857137       -3.44003169       -1.40601798
 C           -1.50857137       -3.44003169        1.40601798
 C           -0.26164153       -2.87262484        3.38249740
 C            0.05139877       -1.64090798        4.09098680
 C           -1.47860802       -2.97322815        2.72369488
 C           -0.49351984        0.69613635        3.89024009
 C           -0.89504402       -0.62474345        4.11388459
 C           -1.15898185        2.93234922        3.11913969
 C           -1.45896690        1.69988886        3.82758789
 C           -2.18566580        3.98241017        1.16563001
 C           -2.34017431        3.30184593        2.35827488
 C           -2.18566580        3.98241017       -1.16563001
 C           -2.34017431        3.30184593       -2.35827488
 C           -2.91366287        3.51739636        0.00000000
 C           -2.83585284        1.34994968       -3.52223781
 C           -3.24666103        2.17106933       -2.40013231
 C           -2.23004362       -0.98107698       -3.93178160
 C           -2.53408347       -2.20424257       -3.20602992
 C           -3.20623593        0.01897604       -3.53697417
 C           -3.69006286       -1.94506401       -2.36670998
 C           -3.93840274       -0.51469728       -2.40219911
 C           -2.72006866       -3.47314362       -0.72530747
 C           -2.72006866       -3.47314362        0.72530747
 C           -3.80616121       -2.60979064       -1.16064646
 C           -3.80616121       -2.60979064        1.16064646
 C           -4.24723755       -1.86309229        0.00000000
 C           -2.53408347       -2.20424257        3.20602992
 C           -2.23004362       -0.98107698        3.93178160
 C           -3.69006286       -1.94506401        2.36670998
 C           -2.83585284        1.34994968        3.52223781
 C           -3.24666103        2.17106933        2.40013231
 C           -3.20623593        0.01897604        3.53697417
 C           -3.93840274       -0.51469728        2.40219911
 C           -3.47269867        2.23813965        0.00000000
 C           -3.64361865        1.56146819       -1.20887915
 C           -3.98529085        0.20777607       -1.20875413
 C           -4.15206120       -0.47026404        0.00000000
 C           -3.64361865        1.56146819        1.20887915
 C           -3.98529085        0.20777607        1.20875413




