%chk=000168.chk
%mem=8GB
%Nproc=16
#p B3LYP/6-31G* opt pop=NPA

Template file

0 1
 C            4.60423655       -1.31971131        0.76299814
 C            4.01448029       -2.60697886        0.42662508
 C            3.14977089       -2.99558255        1.53345053
 C            4.21045295       -1.00292592        2.12407768
 C            3.13369350       -1.90537404        2.48693464
 C            4.12122267        0.32066239        2.50633598
 C            4.37945287        1.36020690        1.52448113
 C            4.65133679       -0.31547060       -0.19947041
 C            4.55384588        1.02820258        0.18216811
 C            4.52673179       -0.67439373       -1.53854614
 C            3.61342557       -2.86765992       -0.88430718
 C            3.90308750       -1.94155026       -1.88418674
 C            2.58467244       -3.78073266       -1.10445447
 C            1.96791333       -3.66386380        1.26116105
 C            1.84406712       -4.29970526        0.03115425
 C            0.81720074       -3.32833727        1.97477847
 C            1.91063141       -1.38765064        2.90835264
 C            0.74070687       -2.09706694        2.63578408
 C            2.97646734        0.74241558        3.29186844
 C            1.83760298       -0.06371837        3.34311469
 C            3.54117560        2.50006986        1.86511100
 C            2.83114237        2.17109946        3.08863769
 C            2.88666113        3.18567492        0.84414332
 C            4.29847710        2.00964959       -0.77423477
 C            3.42369753        3.12207938       -0.43135382
 C            4.09242418        0.30504214       -2.51692598
 C            4.02889596        1.63759285       -2.15146419
 C            2.90639327       -1.67587770       -2.91199263
 C            2.98389166       -0.27257404       -3.25812515
 C            1.61926627       -3.51548783       -2.16073079
 C            1.66833985       -2.29580265       -2.81983062
 C            0.52912634       -4.68566530       -0.44695352
 C            0.34186220       -4.05575286       -1.74286335
 C           -0.34186220       -4.05575286        1.74286335
 C           -0.52912634       -4.68566530        0.44695352
 C           -1.61926627       -3.51548783        2.16073079
 C           -0.50327714       -1.53020205        2.93472226
 C           -1.66833985       -2.29580265        2.81983062
 C            0.59534501        0.52136463        3.59327784
 C           -0.57662664       -0.19260326        3.34008501
 C            1.59651145        2.74575916        3.31794338
 C            0.52004007        1.89732636        3.79085681
 C            1.55611601        3.57638134        1.01379053
 C            1.03131187        3.61174983        2.29821853
 C            0.69831760        3.67191136       -0.09152020
 C            2.57823349        3.39858883       -1.57272417
 C            2.91413816        2.44381279       -2.61619391
 C            1.24056842        3.72618081       -1.38143552
 C            1.81404638        0.45933841       -3.41069755
 C            1.87707797        1.85177800       -3.32971873
 C            0.50327714       -1.53020205       -2.93472226
 C            0.57662664       -0.19260326       -3.34008501
 C           -0.81720074       -3.32833727       -1.97477847
 C           -0.74070687       -2.09706694       -2.63578408
 C           -1.84406712       -4.29970526       -0.03115425
 C           -2.58467244       -3.78073266        1.10445447
 C           -1.96791333       -3.66386380       -1.26116105
 C           -3.61342557       -2.86765992        0.88430718
 C           -2.90639327       -1.67587770        2.91199263
 C           -3.90308750       -1.94155026        1.88418674
 C           -1.81404638        0.45933841        3.41069755
 C           -2.98389166       -0.27257404        3.25812515
 C           -0.71224897        2.58692521        3.47947284
 C           -0.40257050        3.60087545        2.48116107
 C           -1.87707797        1.85177800        3.32971873
 C           -0.69831760        3.67191136        0.09152020
 C           -1.24056842        3.72618081        1.38143552
 C           -1.55611601        3.57638134       -1.01379053
 C            0.40257050        3.60087545       -2.48116107
 C            0.71224897        2.58692521       -3.47947284
 C           -1.03131187        3.61174983       -2.29821853
 C           -0.59534501        0.52136463       -3.59327784
 C           -0.52004007        1.89732636       -3.79085681
 C           -1.59651145        2.74575916       -3.31794338
 C           -1.91063141       -1.38765064       -2.90835264
 C           -1.83760298       -0.06371837       -3.34311469
 C           -3.14977089       -2.99558255       -1.53345053
 C           -4.01448029       -2.60697886       -0.42662508
 C           -3.13369350       -1.90537404       -2.48693464
 C           -4.60423655       -1.31971131       -0.76299814
 C           -4.21045295       -1.00292592       -2.12407768
 C           -4.52673179       -0.67439373        1.53854614
 C           -4.09242418        0.30504214        2.51692598
 C           -4.65133679       -0.31547060        0.19947041
 C           -2.91413816        2.44381279        2.61619391
 C           -2.57823349        3.39858883        1.57272417
 C           -4.02889596        1.63759285        2.15146419
 C           -2.88666113        3.18567492       -0.84414332
 C           -4.55384588        1.02820258       -0.18216811
 C           -3.42369753        3.12207938        0.43135382
 C           -4.29847710        2.00964959        0.77423477
 C           -2.83114237        2.17109946       -3.08863769
 C           -2.97646734        0.74241558       -3.29186844
 C           -4.12122267        0.32066239       -2.50633598
 C           -3.54117560        2.50006986       -1.86511100
 C           -4.37945287        1.36020690       -1.52448113




