%chk=000039.chk
%mem=8GB
%Nproc=16
#p B3LYP/6-31G* opt pop=NPA

Template file

0 1
 C            5.13423083       -0.38349759        0.31709869
 C            4.71213838       -1.76554971        0.47048096
 C            3.89067532       -1.85362711        1.66819570
 C            4.71747223        0.33507928        1.51046490
 C            3.80892049       -0.52617128        2.24646516
 C            4.43749892        1.69027532        1.43527537
 C            4.48045522        2.36574843        0.14637762
 C            5.04354651        0.23096584       -0.92807133
 C            4.63922493        1.62355826       -1.01547355
 C            4.42246171       -0.47291609       -2.03823321
 C            4.34750292       -2.49950971       -0.64874935
 C            4.13212377       -1.82235082       -1.91994076
 C            3.31589954       -3.51156344       -0.51614933
 C            2.75462724       -2.65679932        1.65971333
 C            2.63120149       -3.65204366        0.68786348
 C            1.63005232       -2.25768690        2.38879874
 C            2.56795033       -0.04058052        2.64545579
 C            1.51762807       -0.93331806        2.83359468
 C            3.28921035        2.20699798        2.15947259
 C            2.30613179        1.33112660        2.60604145
 C            3.47636257        3.41311841        0.17346996
 C            2.88821713        3.43258261        1.50240242
 C            2.63534163        3.59099281       -0.92057613
 C            3.63408537        1.73291730       -2.06228360
 C            3.41971660        0.40754240       -2.61077011
 C            2.54214635        2.57121533       -1.86934306
 C            2.11835810       -0.05410752       -2.78493934
 C            2.88380089       -2.31865507       -2.47214882
 C            2.55273199       -3.53029746       -1.75267043
 C            1.86326416       -1.42683571       -2.78981195
 C            1.22656825       -3.93261062       -1.69665825
 C            1.49241141       -4.44691682        0.67993144
 C            0.82419818       -4.67547724       -0.58969288
 C            0.55674959       -3.14005530        2.53220094
 C            0.46467134       -4.23394691        1.68072651
 C           -0.59535810       -2.72341708        3.18906396
 C            0.29759121       -0.44891781        3.29249958
 C           -0.70762728       -1.34602576        3.62629044
 C            0.99228393        1.78925001        2.72552534
 C           -0.01328028        0.90022426        3.11764650
 C            1.57561404        3.86735801        1.62482302
 C            0.67894903        3.11128480        2.38385162
 C            1.55327722        4.44189339       -0.74932769
 C            1.07988192        4.67520338        0.60493085
 C            0.38152728        4.26608967       -1.58122399
 C            1.28491049        2.17554339       -2.33822934
 C            1.05638893        0.84326593       -2.69434689
 C            0.21407551        3.06662742       -2.26729743
 C           -0.24279946        0.39609411       -2.91679504
 C            0.54500467       -1.88329813       -2.78392399
 C            0.27033399       -3.20172428       -2.40145004
 C           -0.50025046       -0.97760320       -2.98540531
 C           -1.04382757       -3.65044046       -2.39115858
 C           -0.59119436       -4.86462766       -0.32294233
 C           -0.82145440       -4.55540878        1.07766855
 C           -1.51091912       -4.44270492       -1.26602164
 C           -1.89057257       -3.13063215        2.66515120
 C           -1.94508070       -3.82468421        1.45850668
 C           -2.09146576       -0.93910353        3.47190832
 C           -2.83675622       -2.06621235        2.94120122
 C           -1.35096675        1.30364974        3.12947111
 C           -2.35294995        0.34506512        3.01480550
 C           -0.62975581        3.56280571        2.52000987
 C           -1.67610819        2.62535520        2.87344986
 C           -0.34161999        4.96393242        0.53452034
 C           -0.74000252        4.84105432       -0.85952880
 C           -1.17390202        4.48324760        1.53505348
 C           -2.01801107        4.41080966       -1.17532915
 C           -1.07433549        2.63533759       -2.58827254
 C           -1.28118369        1.32149859       -3.00937854
 C           -2.17089769        3.41676118       -2.21946965
 C           -2.57883770        0.87663413       -3.23300592
 C           -1.80661362       -1.44752512       -3.14908067
 C           -2.11035185       -2.74572094       -2.76655895
 C           -2.85679723       -0.54356730       -3.20370551
 C           -2.76626105       -3.87073276       -0.81825930
 C           -2.93644258       -3.51813295        0.51698376
 C           -3.22484852       -2.96351153       -1.85676193
 C           -3.87154495       -1.83390143        2.05414177
 C           -3.94925700       -2.61724152        0.83446648
 C           -3.43785903        0.58684265        2.16582260
 C           -4.23170358       -0.46550750        1.72870345
 C           -2.82939706        2.89495408        2.03552231
 C           -2.52066662        4.04410122        1.20537283
 C           -2.95063393        4.06231729       -0.11231555
 C           -3.52943917        1.81268101        1.50825120
 C           -3.45744007        2.78470556       -2.00294269
 C           -3.68383676        1.54461824       -2.56906480
 C           -3.78424917        2.97667920       -0.60149663
 C           -4.02135111        1.85763045        0.19647280
 C           -4.00679884       -0.75539871       -2.33526887
 C           -4.03721472       -1.88363988       -1.51933564
 C           -4.50141381       -1.76405843       -0.20927842
 C           -4.72065315       -0.44279554        0.36536411
 C           -4.38056113        0.53739909       -1.78907256
 C           -4.49292206        0.68801580       -0.40974797




