%chk=000182.chk
%mem=8GB
%Nproc=16
#p B3LYP/6-31G* opt pop=NPA

Template file

0 1
 C            4.12843046       -1.89076083        1.19688972
 C            3.34653561       -3.04392268        0.77768807
 C            2.39776988       -3.34723922        1.82755142
 C            3.73594204       -1.55350545        2.55407130
 C            2.61416965       -2.40274760        2.91221596
 C            3.72967615       -0.22722843        2.94434397
 C            4.16200293        0.78192142        1.99581949
 C            4.39521059       -0.88398617        0.27014804
 C            4.25989892        0.45666761        0.64272985
 C            4.39603170       -1.22651095       -1.07546655
 C            2.94985314       -3.13438912       -0.54713286
 C            3.68529788       -2.42507858       -1.49329313
 C            1.64965488       -3.54570345       -0.84926585
 C            1.09302721       -3.69563620        1.50034123
 C            0.68465132       -3.64233635        0.16234149
 C            0.14582780       -3.60734914        2.51135086
 C            1.50394967       -1.86445943        3.55668061
 C            0.34809270       -2.63174819        3.57367088
 C            2.56570377        0.29600599        3.63998894
 C            1.40998850       -0.47991925        3.72759550
 C            3.54070642        2.03017542        2.39411796
 C            2.45368425        1.70313104        3.30061995
 C            3.34950756        3.01373827        1.44191455
 C            4.04506853        1.44677898       -0.32634554
 C            3.74956154        2.75051827        0.07202607
 C            4.16892875       -0.20411944       -2.07593584
 C            3.95254841        1.10812904       -1.67958222
 C            3.13144902       -2.18116280       -2.81298240
 C            3.32090310       -0.77283503       -3.11286426
 C            1.26120433       -3.61508638       -2.18038082
 C            1.93967049       -2.78871880       -3.16366343
 C           -0.14582780       -3.60734914       -2.51135086
 C           -0.68465132       -3.64233635       -0.16234149
 C           -1.09302721       -3.69563620       -1.50034123
 C           -1.26120433       -3.61508638        2.18038082
 C           -1.64965488       -3.54570345        0.84926585
 C           -0.92576048       -1.99750010        3.83564377
 C           -1.93967049       -2.78871880        3.16366343
 C            0.15701579        0.14974108        3.71170987
 C           -1.01487248       -0.61060320        3.81040870
 C            1.19076765        2.23559730        3.08494620
 C            0.08372827        1.53774605        3.55791668
 C            2.08047833        3.71972631        1.39799805
 C            1.01054662        3.27685078        2.16825499
 C            2.93155716        3.59192031       -0.78223450
 C            1.82925075        4.09359752        0.01974397
 C            3.27522574        1.94990678       -2.55976587
 C            2.68980184        3.18973043       -2.08260219
 C            2.26366205       -0.01435619       -3.61203360
 C            2.35889242        1.36760842       -3.52765086
 C            0.92576048       -1.99750010       -3.83564377
 C           -0.34809270       -2.63174819       -3.57367088
 C            1.01487248       -0.61060320       -3.81040870
 C           -1.50394967       -1.86445943       -3.55668061
 C           -2.39776988       -3.34723922       -1.82755142
 C           -2.61416965       -2.40274760       -2.91221596
 C           -2.94985314       -3.13438912        0.54713286
 C           -3.34653561       -3.04392268       -0.77768807
 C           -3.13144902       -2.18116280        2.81298240
 C           -3.68529788       -2.42507858        1.49329313
 C           -2.26366205       -0.01435619        3.61203360
 C           -3.32090310       -0.77283503        3.11286426
 C           -1.15134633        2.16671811        3.53222830
 C           -2.35889242        1.36760842        3.52765086
 C           -0.28272219        3.63247105        1.78405303
 C           -1.34072041        3.27346672        2.61328181
 C            0.52537153        4.01475613       -0.45930883
 C           -0.52537153        4.01475613        0.45930883
 C            1.34072041        3.27346672       -2.61328181
 C            1.15134633        2.16671811       -3.53222830
 C            0.28272219        3.63247105       -1.78405303
 C           -0.15701579        0.14974108       -3.71170987
 C           -1.40998850       -0.47991925       -3.72759550
 C           -0.08372827        1.53774605       -3.55791668
 C           -2.56570377        0.29600599       -3.63998894
 C           -3.73594204       -1.55350545       -2.55407130
 C           -4.12843046       -1.89076083       -1.19688972
 C           -3.72967615       -0.22722843       -2.94434397
 C           -4.39603170       -1.22651095        1.07546655
 C           -4.16892875       -0.20411944        2.07593584
 C           -4.39521059       -0.88398617       -0.27014804
 C           -3.27522574        1.94990678        2.55976587
 C           -2.68980184        3.18973043        2.08260219
 C           -3.95254841        1.10812904        1.67958222
 C           -1.82925075        4.09359752       -0.01974397
 C           -2.93155716        3.59192031        0.78223450
 C           -1.01054662        3.27685078       -2.16825499
 C           -1.19076765        2.23559730       -3.08494620
 C           -2.45368425        1.70313104       -3.30061995
 C           -2.08047833        3.71972631       -1.39799805
 C           -4.16200293        0.78192142       -1.99581949
 C           -4.25989892        0.45666761       -0.64272985
 C           -4.04506853        1.44677898        0.32634554
 C           -3.74956154        2.75051827       -0.07202607
 C           -3.54070642        2.03017542       -2.39411796
 C           -3.34950756        3.01373827       -1.44191455




