%chk=000145.chk
%mem=8GB
%Nproc=16
#p B3LYP/6-31G* opt pop=NPA

Template file

0 1
 C            4.69797130       -1.36022247       -0.94047906
 C            4.48138343       -1.66516219        0.46273734
 C            4.78387409       -0.46216625        1.21569378
 C            4.87856502        0.07978858       -1.05610079
 C            4.77861420        0.64554314        0.27766808
 C            4.31729268        0.76427299       -2.12256573
 C            3.59489190        0.03692984       -3.15412936
 C            3.96780785       -2.04565486       -1.89897638
 C            3.43525679       -1.33640093       -3.05128476
 C            2.96810959       -3.00668192       -1.46952966
 C            3.39847774       -2.45554847        0.84643559
 C            2.62303716       -3.09754346       -0.12767609
 C            2.95509828       -2.40330733        2.17180940
 C            4.19528582       -0.28814200        2.45590627
 C            3.31297474       -1.32043553        2.97307846
 C            3.60613990        0.99790068        2.78658752
 C            3.94214900        1.73641402        0.51339577
 C            3.52083014        1.99970971        1.82207229
 C            3.60495051        2.00391284       -1.87108972
 C            3.36692194        2.42335639       -0.56524842
 C            2.46702744        0.85251163       -3.56672422
 C            2.52890109        2.10512725       -2.83921636
 C            1.22407835        0.27075449       -3.77753592
 C            2.15112228       -1.92843338       -3.38156506
 C            1.91121073       -3.02278454       -2.46121651
 C            1.07577007       -1.12081888       -3.73768868
 C            0.60413750       -3.26151168       -2.05611679
 C            1.37947946       -3.62603088        0.20781663
 C            0.34264106       -3.62415775       -0.73071308
 C            1.84738710       -3.15273567        2.55205231
 C            1.09938564       -3.87166377        1.54008771
 C            0.88554667       -2.55799196        3.46703747
 C            2.28808462       -0.67258500        3.77743613
 C            2.46135379        0.75844399        3.65214441
 C            1.01068798       -1.21381239        3.78911037
 C            1.34870424        1.57770203        3.52782892
 C            2.64727000        3.05353228        2.06318760
 C            1.54190751        2.84597235        2.98795313
 C            2.33818887        3.33656668       -0.33951369
 C            2.14153939        3.82194143        0.94588134
 C            1.34448414        2.71826058       -2.44929483
 C            1.35524642        3.52687068       -1.31656412
 C            0.09369233        1.08264953       -3.71755271
 C            0.12406747        2.25104045       -2.94999020
 C           -1.12275470        0.55078018       -4.11592522
 C           -0.20689789       -1.66498558       -3.66951256
 C           -0.43299208       -2.77318261       -2.84567819
 C           -1.27700415       -0.89109511       -4.10593990
 C           -1.72858365       -3.18593304       -2.56492672
 C           -0.97782153       -3.86692462       -0.32743505
 C           -2.00437482       -3.77514203       -1.26658648
 C           -0.27981315       -3.94315421        1.97559455
 C           -0.41884343       -3.09794294        3.15153964
 C           -1.29861724       -3.94388714        1.03159996
 C           -1.54110727       -2.28906177        3.26215642
 C           -0.09943208       -0.37582315        3.65208503
 C            0.07055452        1.01040607        3.50409023
 C           -1.38141330       -0.93548311        3.57620181
 C           -1.02904678        1.82039439        3.21112037
 C            0.40377208        3.59839703        2.49503315
 C            0.84307703        4.34421756        1.32970593
 C           -0.84889947        2.99923147        2.49426681
 C            0.23155094        4.29285799       -1.03487187
 C           -0.07841220        4.63880847        0.34200505
 C           -1.06939021        2.87428510       -2.56136046
 C           -1.01798992        3.96982232       -1.70122899
 C           -2.35348973        1.13748486       -3.62629415
 C           -2.30075545        2.26318434       -2.81585012
 C           -2.62673095       -1.19536109       -3.66451005
 C           -2.85271130       -2.33460334       -2.91399800
 C           -3.25064892        0.05237693       -3.26136205
 C           -3.31886154       -3.31615536       -0.85055765
 C           -3.71027131       -2.24549925       -1.74766094
 C           -2.57452196       -3.58359540        1.46119199
 C           -2.70089493       -2.71668762        2.62133315
 C           -3.58638510       -3.18585136        0.49872071
 C           -3.78122112       -1.78206180        2.36314894
 C           -4.19255843       -1.95709084        0.98108191
 C           -2.49351596       -0.09973022        3.58330393
 C           -2.31071420        1.32193344        3.36633038
 C           -3.70008716       -0.50211425        2.88048185
 C           -3.35023866        1.77869456        2.46206594
 C           -4.12460394        0.61665485        2.05903980
 C           -1.81960563        3.41381296        1.57654611
 C           -1.47345535        4.30869262        0.56515583
 C           -2.08855983        4.17600269       -0.74042846
 C           -3.04717171        2.74847840        1.51145217
 C           -3.38273803        2.50952969       -1.97323810
 C           -3.24389554        3.42464009       -0.85520029
 C           -3.77753136        2.76137394        0.32330573
 C           -3.95233906        0.13085593       -2.05954002
 C           -4.03867220       -0.99197136       -1.23148363
 C           -4.27224154       -0.84538332        0.14289785
 C           -4.40621436        0.42591097        0.70778313
 C           -4.20474264        1.39168148       -1.53616910
 C           -4.44172904        1.54280195       -0.11462875




