%chk=000140.chk
%mem=8GB
%Nproc=16
#p B3LYP/6-31G* opt pop=NPA

Template file

0 1
 C            4.83252186       -1.35205548       -0.46096585
 C            4.83748545       -0.26648851        0.50459595
 C            4.90128643        0.96848687       -0.25125819
 C            4.56923768       -0.76998507       -1.76970681
 C            4.42587321        0.66382820       -1.58777390
 C            3.72887224       -1.42029870       -2.65950641
 C            3.18670043       -2.72849198       -2.32410200
 C            4.24571354       -2.55794948       -0.11050143
 C            3.46277423       -3.29513355       -1.08961021
 C            3.56581189       -2.65995990        1.16832577
 C            4.01526602       -0.33270036        1.62877921
 C            3.31771413       -1.51341850        1.90832869
 C            3.69310461        0.84669339        2.30773110
 C            4.47025458        2.13543283        0.35097819
 C            3.94897188        2.07953035        1.70771945
 C            3.60573407        3.02630815       -0.39973729
 C            3.29334448        1.31833618       -2.07480049
 C            2.92187435        2.54411893       -1.51705633
 C            2.68182335       -0.66165484       -3.31838147
 C            2.40271113        0.63998313       -2.91031659
 C            1.83365994       -2.79929392       -2.84836238
 C            1.58001250       -1.56704440       -3.57348470
 C            0.81224295       -3.35362382       -2.07507032
 C            2.40500543       -3.98655319       -0.37663196
 C            2.51235694       -3.64574461        1.03309172
 C            1.13477948       -4.09917681       -0.93523398
 C            1.33918422       -3.51045516        1.77066810
 C            2.21830938       -1.48983260        2.76014617
 C            1.14495622       -2.35930039        2.54429071
 C            2.78539734        0.80352098        3.36137700
 C            2.08291101       -0.43404868        3.64169794
 C            1.83782301        1.89638456        3.52036053
 C            2.96868336        3.14722044        1.84283411
 C            2.90139903        3.84421358        0.57068104
 C            1.80471463        2.90281613        2.56673376
 C            1.71180186        4.43697592        0.19357089
 C            1.71835327        3.14368072       -1.89177770
 C            1.24751375        4.23733195       -1.16387649
 C            1.12680091        1.15911114       -3.12432924
 C            0.85819006        2.47770709       -2.76554288
 C            0.29249025       -1.06266192       -3.58033426
 C            0.09315451        0.31717934       -3.55654889
 C           -0.50564937       -2.92711222       -2.29162721
 C           -0.74800076       -1.90075161       -3.20756934
 C           -1.55283033       -3.43720030       -1.51578594
 C            0.11695104       -4.51919303       -0.09032469
 C            0.23639937       -4.23061787        1.33189972
 C           -1.26286892       -4.29933191       -0.46607402
 C           -1.08162941       -3.89854062        1.82627109
 C           -2.02498385       -4.20008926        0.76445330
 C           -0.13703039       -2.02475107        3.01502402
 C           -1.25659952       -2.74785172        2.58364718
 C            0.76976394       -0.09708130        4.14565456
 C            0.59754269        1.34136259        4.01367401
 C           -0.31115494       -0.92142224        3.85970777
 C           -0.61167976        1.82337452        3.53216811
 C            0.57299727        3.34789336        2.07516224
 C            0.55215448        4.29497171        1.05769096
 C           -0.61101784        2.68935999        2.43288995
 C           -0.16972387        4.53707779       -1.15840101
 C           -0.62439098        4.41148354        0.21785318
 C           -0.38228034        3.03005776       -3.06429568
 C           -0.95849741        4.01855617       -2.16905805
 C           -1.20224788        0.81482780       -3.72453806
 C           -1.45551042        2.16310960       -3.51216154
 C           -2.04399518       -1.47746821       -3.44655942
 C           -2.27887850       -0.06840437       -3.71029461
 C           -2.83081859       -2.87637565       -1.59981034
 C           -3.11711927       -1.96510697       -2.60630686
 C           -3.23453652       -3.53007723        0.74156916
 C           -3.69180547       -2.94693286       -0.50753750
 C           -2.53653147       -2.19848909        2.69251882
 C           -3.53244052       -2.58049367        1.79896370
 C           -1.57811809       -0.36872180        4.00215753
 C           -1.73913763        1.06375888        3.80593446
 C           -2.72214833       -1.03122386        3.41472580
 C           -2.95105326        1.27821396        3.04874621
 C           -3.61440399       -0.00732303        2.89226431
 C           -1.76755277        2.83912015        1.64660826
 C           -1.73852743        3.62830941        0.49093893
 C           -2.94703537        2.16962773        1.98803777
 C           -2.30311482        3.57904272       -1.84876886
 C           -2.66941980        2.55359961       -2.80959997
 C           -2.67942468        3.42118607       -0.51954339
 C           -3.50512767        0.31761164       -3.02937336
 C           -4.01176250       -0.85128651       -2.32652029
 C           -3.59034932        1.57579636       -2.44069788
 C           -4.52297517       -1.79815333       -0.18269438
 C           -4.41896553       -1.56571068        1.25051651
 C           -4.34931228       -0.26191308        1.73569686
 C           -4.56040087       -0.71502270       -1.05467108
 C           -3.97269943        2.07063907        1.05680264
 C           -3.81506162        2.67447195       -0.24981796
 C           -4.29255861        1.72687217       -1.24664725
 C           -4.65460009        0.79676601        0.88432096
 C           -4.79665361        0.55656764       -0.54421990




