%chk=000047.chk
%mem=8GB
%Nproc=16
#p B3LYP/6-31G* opt pop=NPA

Template file

0 1
 C            4.99864680       -1.01461535        0.89589587
 C            4.52557788       -2.22145400        0.23619676
 C            3.50957991       -2.82847468        1.08049659
 C            4.36460339       -0.94512619        2.20189959
 C            3.41578817       -2.04049676        2.29575478
 C            4.03209907        0.28644505        2.74621864
 C            4.25972937        1.50442097        1.98415189
 C            5.19585422        0.14775724        0.15798308
 C            4.79114574        1.43298952        0.70589747
 C            4.90540739        0.16091760       -1.26686418
 C            4.35350397       -2.23375583       -1.13975541
 C            4.50658282       -1.00461923       -1.90319048
 C            3.23460231       -2.96555372       -1.70387846
 C            2.34232943       -3.33198992        0.50552655
 C            2.31314337       -3.59163170       -0.86852789
 C            1.15023660       -3.30621513        1.24419261
 C            2.16157871       -1.82923882        2.85080066
 C            1.13286366       -2.69796823        2.50395432
 C            2.76970371        0.43275514        3.44842157
 C            1.84708787       -0.60442344        3.44884344
 C            3.14846899        2.40322310        2.24093530
 C            2.29055936        1.78319175        3.23185821
 C            2.55227054        3.10079777        1.19479729
 C            4.17594104        2.20221193       -0.36141328
 C            4.21822228        1.40414675       -1.57078398
 C            3.03450059        2.95720432       -0.11211200
 C            3.09987302        1.40161254       -2.39874498
 C            3.42629852       -0.94522818       -2.87218139
 C            2.73843615       -2.21985569       -2.84968305
 C            2.67513186        0.21283155       -3.00196906
 C            1.37600003       -2.27408188       -3.13182551
 C            1.13317413       -4.03287415       -1.45065282
 C            0.68526784       -3.38773197       -2.67509889
 C           -0.03839150       -3.78099083        0.67900680
 C           -0.03293985       -4.25416573       -0.62122435
 C           -1.26128097       -3.51672520        1.29313094
 C           -0.05465748       -2.61994168        3.21764123
 C           -1.27311260       -3.13464047        2.62828112
 C            0.51487610       -0.30737857        3.72782619
 C           -0.37498082       -1.36413896        3.87090200
 C            0.92233765        2.00836960        3.14809351
 C            0.02844089        0.97790198        3.46164513
 C            1.27621163        3.62875921        1.39594799
 C            0.47273279        3.10343317        2.41444678
 C            0.70547917        4.39068045        0.38111191
 C            2.20753275        3.28496845       -1.18726582
 C            2.22345984        2.48419640       -2.33526089
 C            1.17117792        4.18770388       -0.97639010
 C            1.16318038        2.52867315       -3.23445751
 C            1.37936585        0.11624570       -3.50329333
 C            0.67420476       -1.08677319       -3.38004891
 C            0.70409965        1.28448711       -3.82238856
 C           -0.73155278       -1.07887876       -3.36806959
 C           -0.75890945       -3.38196415       -2.66919752
 C           -1.20241962       -4.03774936       -1.44836369
 C           -1.44316298       -2.25820191       -3.10943542
 C           -2.42962637       -3.41391538        0.52655511
 C           -2.38400244       -3.60582871       -0.85854962
 C           -3.59569494       -2.91835075        1.11073972
 C           -2.37066933       -2.33548135        3.13953310
 C           -1.79553705       -1.12899799        3.70513654
 C           -3.52730236       -2.23499130        2.39039643
 C           -1.34856045        1.19617324        3.33255461
 C           -2.22351147        0.11427386        3.25678445
 C           -0.86973795        3.44871295        2.49703125
 C           -1.81076105        2.46078960        2.99392236
 C           -0.73332800        4.58221226        0.33384187
 C           -1.50431174        4.16319733        1.40360327
 C            0.00987586        4.18133996       -1.84917470
 C           -0.00210830        3.34612502       -2.95049345
 C           -1.17421395        4.26861396       -1.01331792
 C           -0.74343920        1.29229981       -3.81003969
 C           -1.42510072        0.13156407       -3.47928599
 C           -1.18071624        2.54291555       -3.21729917
 C           -2.70930516        0.24226970       -2.95424681
 C           -2.80193514       -2.19000323       -2.81313802
 C           -3.30004126       -2.94419287       -1.67336248
 C           -3.47330080       -0.90636243       -2.81610373
 C           -4.56078726       -2.20521873        0.29239366
 C           -4.39884952       -2.19816331       -1.08526475
 C           -4.53673951       -0.95514863       -1.82795102
 C           -4.13887992       -0.92965197        2.21732851
 C           -3.41648605        0.22138892        2.53140786
 C           -4.91113507       -0.97579616        0.98903286
 C           -3.03208120        2.57867592        2.22112027
 C           -2.78304029        3.52550986        1.14591388
 C           -3.77800465        1.43863604        1.94602228
 C           -2.22669388        3.37284343       -1.19614710
 C           -2.22979860        2.51395184       -2.30332772
 C           -3.10651497        1.43223032       -2.33633456
 C           -3.14125163        3.17846264       -0.15508746
 C           -4.89594317        0.21017875       -1.16811849
 C           -5.10043181        0.19670310        0.27220984
 C           -4.57589337        1.44340240        0.80327584
 C           -4.22157240        1.45104494       -1.50924102
 C           -4.18846875        2.27954670       -0.32210122




