%chk=000085.chk
%mem=8GB
%Nproc=16
#p B3LYP/6-31G* opt pop=NPA

Template file

0 1
 C            4.86132346        0.95306564       -0.79690855
 C            4.14707865        0.91653310       -2.06064872
 C            3.86297143       -0.47528070       -2.37602330
 C            4.96188189       -0.41184584       -0.30588205
 C            4.26419373       -1.27964188       -1.24174636
 C            4.85644345       -0.66556144        1.05373678
 C            4.51168324        0.41087640        1.97040613
 C            4.61823226        1.99259265        0.08888709
 C            4.42125514        1.71146771        1.50470945
 C            3.67119340        3.02747549       -0.28538530
 C            3.18623843        1.88288599       -2.35526224
 C            2.84064736        2.83392426       -1.38914183
 C            2.30460012        1.61748427       -3.39700565
 C            2.68815279       -0.77542456       -3.05185311
 C            2.11485171        0.23624667       -3.81084600
 C            1.88764512       -1.83750025       -2.61862106
 C            3.39997688       -2.25384919       -0.75910403
 C            2.27336933       -2.61128317       -1.50974196
 C            4.15143518       -1.85426988        1.49429941
 C            3.52904096       -2.68284114        0.56442318
 C            3.47884006       -0.08317987        2.86445328
 C            3.43811534       -1.52263589        2.71693205
 C            2.28348741        0.61914752        2.99633310
 C            3.32194408        2.54013098        1.96373717
 C            3.11179601        3.55246776        0.94751112
 C            2.21619154        1.94997126        2.58086813
 C            1.88709744        4.18792666        0.90208626
 C            1.57279810        3.42705627       -1.40665505
 C            1.19436269        4.26933302       -0.37045051
 C            1.00578181        2.26322912       -3.41301485
 C            0.60448656        2.98212240       -2.30263142
 C            0.75231356        0.09682077       -4.27459619
 C            0.06925503        1.36158108       -4.04808888
 C            0.66296259       -2.07812379       -3.25397074
 C            0.06453437       -1.08315073       -4.03316835
 C           -0.06425704       -3.21649863       -2.93104282
 C            1.50120959       -3.70690362       -1.10924522
 C            0.31514846       -3.99341253       -1.77197099
 C            2.65377563       -3.64002964        1.05516182
 C            1.64058347       -4.19611046        0.18304729
 C            2.25622209       -2.19393281        2.99020067
 C            2.04633844       -3.41658867        2.35672500
 C            1.11134277       -0.08064933        3.28574371
 C            1.15659337       -1.47096098        3.45302871
 C           -0.11096429        0.60009401        3.33202141
 C            0.98645378        2.60972024        2.55118382
 C            0.89074001        3.83302774        1.89422728
 C           -0.18366449        1.92323407        2.87930213
 C           -0.21569179        4.43118568       -0.07678147
 C           -0.38725922        4.24560705        1.35685380
 C           -0.74960201        3.02517517       -1.95464936
 C           -1.16776443        3.88635440       -0.93362575
 C           -1.25601655        1.33766499       -3.63031588
 C           -1.65881481        2.13718716       -2.55501771
 C           -1.32103485       -1.04994439       -4.16267534
 C           -2.00765752        0.21647491       -3.96027803
 C           -1.51552010       -3.17205197       -2.96353908
 C           -2.13626947       -2.10267610       -3.58254734
 C           -0.88592720       -4.23249092       -0.98317609
 C           -1.99509726       -3.59836612       -1.66088156
 C            0.44221374       -4.42439787        0.97613105
 C            0.71918212       -4.00665368        2.33960149
 C           -0.79888453       -4.16399821        0.39942290
 C           -0.00581367       -2.16299823        3.76296208
 C           -0.28794209       -3.41362680        3.07935522
 C           -1.26285700       -0.05770249        3.77821349
 C           -1.25374874       -1.44272770        3.87950929
 C           -2.50218468        0.54688349        3.61232751
 C           -1.42664262        2.53620101        2.67547096
 C           -1.54013173        3.61898622        1.80040342
 C           -2.58190751        1.90195749        3.11111127
 C           -2.46800426        3.79792939       -0.45247838
 C           -2.66374621        3.71825698        0.98598631
 C           -2.95394698        1.99963976       -2.04080747
 C           -3.40628316        2.88964900       -1.07599430
 C           -3.24182641       -0.05433971       -3.25343604
 C           -3.27101879       -1.47201090       -2.93175476
 C           -3.69901694        0.84758898       -2.30505285
 C           -2.85347824       -2.77075003       -0.94574293
 C           -3.64645399       -1.85998704       -1.64701619
 C           -1.75890679       -3.44132104        1.11543875
 C           -1.60806409       -3.29450399        2.48991724
 C           -2.27060283       -2.19831731        3.16284086
 C           -2.70375976       -2.65450611        0.44299222
 C           -3.56451902       -0.22344894        2.98568937
 C           -3.26484773       -1.49430193        2.50216323
 C           -3.55244885       -1.80772174        1.17050706
 C           -3.79910640        2.01352158        2.32259290
 C           -3.82091146        2.88073763        1.23951546
 C           -4.32334346        2.42521008       -0.04702396
 C           -4.37726323        0.68458968        2.19877457
 C           -4.59001520        0.37111629       -1.34665038
 C           -4.50583542       -1.02473793       -0.94820772
 C           -4.52297513       -1.07153627        0.49910318
 C           -4.87766098        1.15888284       -0.16306796
 C           -4.87629569        0.25557759        0.97781713




