%chk=000132.chk
%mem=8GB
%Nproc=16
#p B3LYP/6-31G* opt pop=NPA

Template file

0 1
 C            3.69537092        2.10728385        2.42190836
 C            2.64982686        1.73384801        3.35619192
 C            2.73056192        0.29789892        3.57339373
 C            4.42060345        0.89827775        2.06387547
 C            3.73270225       -0.22817924        2.66910933
 C            4.94358220        0.75727980        0.78790514
 C            4.69557889        1.78202877       -0.21598006
 C            3.42879407        3.06676997        1.45773626
 C            3.92815917        2.89180360        0.10251729
 C            2.09353704        3.63312306        1.37308598
 C            1.39104137        2.32530796        3.27983368
 C            1.07270671        3.13928287        2.18642944
 C            0.36833160        1.72304146        4.00058257
 C            1.54775203       -0.40642813        3.77890619
 C            0.47808943        0.30438973        4.30333161
 C            1.30164100       -1.56972189        3.03848007
 C            3.41997866       -1.33947878        1.90047680
 C            2.32893142       -2.12133577        2.26650152
 C            4.85258113       -0.53379192        0.12834976
 C            4.03395825       -1.53079162        0.65777186
 C            4.47317701        1.11007586       -1.48456667
 C            4.83081450       -0.28430028       -1.30031017
 C            3.35890658        1.43103469       -2.25903046
 C            2.88423874        3.31324198       -0.81291377
 C            1.81419872        3.89481446       -0.02800383
 C            2.55296456        2.52151161       -1.90561392
 C            0.50784633        3.76671637       -0.47257604
 C           -0.25292987        3.24476744        1.74378082
 C           -0.50784633        3.76671637        0.47257604
 C           -1.01059513        1.99335824        3.65208960
 C           -1.29394181        2.67357869        2.48176457
 C           -0.84921565       -0.26333945        4.25926129
 C           -1.78625407        0.81331002        3.97605501
 C            0.00612330       -2.11222178        2.97596617
 C           -1.04835404       -1.49959125        3.66199829
 C           -0.24534630       -3.24414660        2.18885763
 C            2.14126532       -3.33769995        1.63453221
 C            0.81466078       -3.91978481        1.59483373
 C            3.62664667       -2.58461094       -0.16473442
 C            2.76705306       -3.55363578        0.34322805
 C            4.26077797       -1.23297220       -2.13094940
 C            3.72436845       -2.45241146       -1.54971009
 C            2.92608988        0.52605263       -3.23400484
 C            3.34198201       -0.80277749       -3.17137399
 C            1.78625407        0.81331002       -3.97605501
 C            1.29394181        2.67357869       -2.48176457
 C            0.25292987        3.24476744       -1.74378082
 C            1.01059513        1.99335824       -3.65208960
 C           -1.07270671        3.13928287       -2.18642944
 C           -1.81419872        3.89481446        0.02800383
 C           -2.09353704        3.63312306       -1.37308598
 C           -2.55296456        2.52151161        1.90561392
 C           -2.88423874        3.31324198        0.81291377
 C           -2.92608988        0.52605263        3.23400484
 C           -3.35890658        1.43103469        2.25903046
 C           -2.35699449       -1.85656977        3.36282032
 C           -3.34198201       -0.80277749        3.17137399
 C           -1.54794630       -3.54140138        1.78196791
 C           -2.61436210       -2.89059520        2.38180162
 C           -1.76224709       -4.12538506        0.53662157
 C            0.63181327       -4.51762698        0.28219911
 C            1.76224709       -4.12538506       -0.53662157
 C           -0.63181327       -4.51762698       -0.28219911
 C            2.61436210       -2.89059520       -2.38180162
 C            2.35699449       -1.85656977       -3.36282032
 C            1.54794630       -3.54140138       -1.78196791
 C            0.84921565       -0.26333945       -4.25926129
 C            1.04835404       -1.49959125       -3.66199829
 C           -0.36833160        1.72304146       -4.00058257
 C           -1.39104137        2.32530796       -3.27983368
 C           -0.47808943        0.30438973       -4.30333161
 C           -2.64982686        1.73384801       -3.35619192
 C           -3.42879407        3.06676997       -1.45773626
 C           -3.92815917        2.89180360       -0.10251729
 C           -3.69537092        2.10728385       -2.42190836
 C           -4.47317701        1.11007586        1.48456667
 C           -4.69557889        1.78202877        0.21598006
 C           -4.26077797       -1.23297220        2.13094940
 C           -3.72436845       -2.45241146        1.54971009
 C           -4.83081450       -0.28430028        1.30031017
 C           -2.76705306       -3.55363578       -0.34322805
 C           -3.62664667       -2.58461094        0.16473442
 C           -0.81466078       -3.91978481       -1.59483373
 C            0.24534630       -3.24414660       -2.18885763
 C           -0.00612330       -2.11222178       -2.97596617
 C           -2.14126532       -3.33769995       -1.63453221
 C           -1.54775203       -0.40642813       -3.77890619
 C           -2.73056192        0.29789892       -3.57339373
 C           -1.30164100       -1.56972189       -3.03848007
 C           -2.32893142       -2.12133577       -2.26650152
 C           -4.42060345        0.89827775       -2.06387547
 C           -4.94358220        0.75727980       -0.78790514
 C           -4.85258113       -0.53379192       -0.12834976
 C           -4.03395825       -1.53079162       -0.65777186
 C           -3.73270225       -0.22817924       -2.66910933
 C           -3.41997866       -1.33947878       -1.90047680




