%chk=000118.chk
%mem=8GB
%Nproc=16
#p B3LYP/6-31G* opt pop=NPA

Template file

0 1
 C            4.56005831       -1.87492376        0.27378411
 C            4.58946355       -0.65617926        1.05951267
 C            4.67276312        0.46835125        0.14132618
 C            4.54528809       -1.49264656       -1.13028719
 C            4.46327554       -0.04307749       -1.19764033
 C            3.82661169       -2.24788801       -2.04446718
 C            3.05023241       -3.39180827       -1.59225189
 C            3.78639659       -2.93946742        0.71185994
 C            3.04000545       -3.73601292       -0.24872995
 C            2.95644521       -2.76974983        1.89355752
 C            3.79141437       -0.53420103        2.19423498
 C            2.82901990       -1.51027920        2.46954302
 C            3.64811001        0.73459316        2.73526192
 C            4.08320987        1.66847152        0.51310210
 C            3.86533486        1.88408816        1.87181834
 C            3.32662996        2.37731260       -0.42266832
 C            3.50711537        0.55234450       -2.01302886
 C            2.91164987        1.75308978       -1.60646816
 C            3.05671551       -1.56814093       -3.07092999
 C            2.96887959       -0.17817740       -3.07667352
 C            1.80326844       -3.40821838       -2.33697985
 C            1.85287827       -2.34460675       -3.32121316
 C            0.60577499       -3.64896678       -1.68123061
 C            1.78719914       -4.12055788        0.37491120
 C            1.77847540       -3.59515682        1.72639945
 C            0.60126041       -4.08607815       -0.35219038
 C            0.56969137       -3.16576055        2.24919952
 C            1.63518878       -1.16432347        3.11763933
 C            0.52556493       -2.02557309        3.05679426
 C            2.51344500        1.02590063        3.58525944
 C            1.54636389        0.05371725        3.79984838
 C            2.97689268        2.94615826        2.30729795
 C            2.08570562        2.39003362        3.31232593
 C            2.73912381        3.58129571       -0.03982301
 C            2.46984025        3.82575788        1.36797661
 C            1.61135595        4.09872872       -0.79403467
 C            1.92193868        2.34670060       -2.39579124
 C            1.13319089        3.36702113       -1.87322430
 C            1.98507007        0.39593288       -3.86860023
 C            1.52571754        1.73677023       -3.57332364
 C            0.68449595       -1.66789638       -3.66549317
 C            0.82244498       -0.40402953       -4.22220633
 C           -0.56969137       -3.16576055       -2.24919952
 C           -0.52556493       -2.02557309       -3.05679426
 C           -1.77847540       -3.59515682       -1.72639945
 C           -0.60126041       -4.08607815        0.35219038
 C           -0.60577499       -3.64896678        1.68123061
 C           -1.78719914       -4.12055788       -0.37491120
 C           -1.80326844       -3.40821838        2.33697985
 C           -0.68449595       -1.66789638        3.66549317
 C           -1.85287827       -2.34460675        3.32121316
 C            0.31940513        0.47839615        4.28796874
 C           -0.82244498       -0.40402953        4.22220633
 C            0.72073718        2.67212166        3.27572125
 C           -0.13489667        1.82446019        3.97124477
 C            1.08398666        4.23575592        1.47632961
 C            0.67327055        4.67195011        0.15592837
 C            0.20775446        3.48476793        2.25863741
 C           -0.67327055        4.67195011       -0.15592837
 C           -0.20775446        3.48476793       -2.25863741
 C           -1.08398666        4.23575592       -1.47632961
 C            0.13489667        1.82446019       -3.97124477
 C           -0.31940513        0.47839615       -4.28796874
 C           -0.72073718        2.67212166       -3.27572125
 C           -1.63518878       -1.16432347       -3.11763933
 C           -1.54636389        0.05371725       -3.79984838
 C           -2.95644521       -2.76974983       -1.89355752
 C           -2.82901990       -1.51027920       -2.46954302
 C           -3.04000545       -3.73601292        0.24872995
 C           -3.05023241       -3.39180827        1.59225189
 C           -3.78639659       -2.93946742       -0.71185994
 C           -3.05671551       -1.56814093        3.07092999
 C           -3.82661169       -2.24788801        2.04446718
 C           -1.98507007        0.39593288        3.86860023
 C           -1.52571754        1.73677023        3.57332364
 C           -2.96887959       -0.17817740        3.07667352
 C           -1.13319089        3.36702113        1.87322430
 C           -1.61135595        4.09872872        0.79403467
 C           -1.92193868        2.34670060        2.39579124
 C           -2.46984025        3.82575788       -1.36797661
 C           -2.73912381        3.58129571        0.03982301
 C           -2.08570562        2.39003362       -3.31232593
 C           -2.51344500        1.02590063       -3.58525944
 C           -2.97689268        2.94615826       -2.30729795
 C           -3.79141437       -0.53420103       -2.19423498
 C           -3.64811001        0.73459316       -2.73526192
 C           -3.86533486        1.88408816       -1.87181834
 C           -4.56005831       -1.87492376       -0.27378411
 C           -4.54528809       -1.49264656        1.13028719
 C           -4.58946355       -0.65617926       -1.05951267
 C           -3.50711537        0.55234450        2.01302886
 C           -2.91164987        1.75308978        1.60646816
 C           -3.32662996        2.37731260        0.42266832
 C           -4.08320987        1.66847152       -0.51310210
 C           -4.46327554       -0.04307749        1.19764033
 C           -4.67276312        0.46835125       -0.14132618




