%chk=000099.chk
%mem=8GB
%Nproc=16
#p B3LYP/6-31G* opt pop=NPA

Template file

0 1
 C            5.06588143       -0.47554943        0.50552178
 C            4.82731477        0.95531443        0.53999841
 C            4.19372785        1.26836393        1.81191553
 C            4.55886359       -1.03517702        1.74934698
 C            3.82878904        0.01417935        2.43700407
 C            4.04355076       -2.31997097        1.76826115
 C            3.91968739       -3.07054425        0.52565774
 C            4.88877026       -1.16248895       -0.68463829
 C            4.25477788       -2.47154376       -0.67874172
 C            4.41683863       -0.44471967       -1.85446173
 C            4.40974623        1.63269480       -0.60511344
 C            4.16399472        0.92478820       -1.78988504
 C            3.89162484        2.91632970       -0.43833214
 C            3.30306149        2.32878783        1.86525847
 C            3.38995445        3.29940478        0.87162301
 C            2.10087662        2.16729759        2.55458478
 C            2.50377809       -0.19841344        2.81141491
 C            1.61971645        0.88093439        2.81950575
 C            2.84105192       -2.57082639        2.54046632
 C            2.01342320       -1.50298939        2.89307378
 C            2.69106522       -3.84222715        0.60967036
 C            2.24963873       -3.77263360        1.99007230
 C            1.74065752       -3.75430086       -0.40940294
 C            3.29798080       -2.50923215       -1.77009239
 C            3.47471468       -1.30416493       -2.55640853
 C            2.01212348       -2.98589786       -1.54293997
 C            2.37394127       -0.72829894       -3.17917871
 C            3.36308279        1.48238170       -2.78455973
 C            2.43134062        0.62572147       -3.50046508
 C            2.99684762        3.48429797       -1.43206532
 C            2.71469057        2.76420880       -2.57545724
 C            2.28853536        4.22354283        0.67166659
 C            1.91124407        4.14547793       -0.72769293
 C            1.23980906        3.25149702        2.65126037
 C            1.28482745        4.27864197        1.62153986
 C           -0.15628386        3.02599543        2.97836335
 C            0.24449603        0.65233757        2.93248923
 C           -0.64290471        1.72303944        3.04455560
 C            0.64290471       -1.72303944        3.04455560
 C           -0.24449603       -0.65233757        2.93248923
 C            0.92167041       -4.03084939        2.26166202
 C            0.15628386       -3.02599543        2.97836335
 C            0.42474336       -4.13577295       -0.13639431
 C            0.07790284       -4.47505962        1.17234052
 C           -0.58540052       -3.86466721       -1.06339638
 C            0.95955042       -2.50177511       -2.31389835
 C            1.12888624       -1.35784499       -3.10503924
 C           -0.30328553       -3.07429408       -2.17937065
 C            0.00849747       -0.69407162       -3.60248265
 C            1.19720960        1.36965606       -3.68889332
 C            1.33426492        2.64169008       -3.00834274
 C           -0.00849747        0.69407162       -3.60248265
 C            0.58540052        3.86466721       -1.06339638
 C            0.30328553        3.07429408       -2.17937065
 C           -0.07790284        4.47505962        1.17234052
 C           -0.92167041        4.03084939        2.26166202
 C           -0.42474336        4.13577295       -0.13639431
 C           -2.24963873        3.77263360        1.99007230
 C           -2.01342320        1.50298939        2.89307378
 C           -2.84105192        2.57082639        2.54046632
 C           -1.61971645       -0.88093439        2.81950575
 C           -2.50377809        0.19841344        2.81141491
 C           -1.23980906       -3.25149702        2.65126037
 C           -1.28482745       -4.27864197        1.62153986
 C           -2.10087662       -2.16729759        2.55458478
 C           -1.91124407       -4.14547793       -0.72769293
 C           -2.28853536       -4.22354283        0.67166659
 C           -2.99684762       -3.48429797       -1.43206532
 C           -1.33426492       -2.64169008       -3.00834274
 C           -1.19720960       -1.36965606       -3.68889332
 C           -2.71469057       -2.76420880       -2.57545724
 C           -2.43134062       -0.62572147       -3.50046508
 C           -3.36308279       -1.48238170       -2.78455973
 C           -1.12888624        1.35784499       -3.10503924
 C           -0.95955042        2.50177511       -2.31389835
 C           -2.37394127        0.72829894       -3.17917871
 C           -1.74065752        3.75430086       -0.40940294
 C           -2.69106522        3.84222715        0.60967036
 C           -2.01212348        2.98589786       -1.54293997
 C           -4.04355076        2.31997097        1.76826115
 C           -3.91968739        3.07054425        0.52565774
 C           -3.82878904       -0.01417935        2.43700407
 C           -4.55886359        1.03517702        1.74934698
 C           -3.30306149       -2.32878783        1.86525847
 C           -3.38995445       -3.29940478        0.87162301
 C           -3.89162484       -2.91632970       -0.43833214
 C           -4.19372785       -1.26836393        1.81191553
 C           -4.16399472       -0.92478820       -1.78988504
 C           -5.06588143        0.47554943        0.50552178
 C           -4.40974623       -1.63269480       -0.60511344
 C           -4.82731477       -0.95531443        0.53999841
 C           -3.47471468        1.30416493       -2.55640853
 C           -3.29798080        2.50923215       -1.77009239
 C           -4.25477788        2.47154376       -0.67874172
 C           -4.41683863        0.44471967       -1.85446173
 C           -4.88877026        1.16248895       -0.68463829




