%chk=000148.chk
%mem=8GB
%Nproc=16
#p B3LYP/6-31G* opt pop=NPA

Template file

0 1
 C            2.73259111       -4.23369283        0.72900530
 C            1.36697435       -4.49102244        1.15079127
 C            0.68990802       -5.05205430       -0.00000001
 C            2.73259112       -4.23369282       -0.72900531
 C            1.36697433       -4.49102247       -1.15079124
 C            3.46486125       -3.27805818       -1.41388782
 C            4.41546989       -2.44738180       -0.69248940
 C            3.46486126       -3.27805816        1.41388784
 C            4.41546989       -2.44738181        0.69248940
 C            2.77050798       -2.42839300        2.36539720
 C            0.69612108       -3.54631238        1.92990205
 C            1.38187803       -2.41828868        2.37926160
 C           -0.69612107       -3.54631217        1.92990217
 C           -0.68990802       -5.05205430        0.00000001
 C           -1.36697435       -4.49102251        1.15079120
 C           -1.36697433       -4.49102248       -1.15079123
 C            0.69612112       -3.54631229       -1.92990210
 C           -0.69612112       -3.54631226       -1.92990212
 C            2.77050799       -2.42839297       -2.36539722
 C            1.38187800       -2.41828876       -2.37926157
 C            4.50701661       -1.18375815       -1.39660718
 C            3.48976844       -1.17841270       -2.43808764
 C            4.75007441        0.00000001       -0.70250969
 C            4.50701661       -1.18375814        1.39660718
 C            3.48976843       -1.17841270        2.43808764
 C            4.75007441       -0.00000001        0.70250969
 C            2.79875228       -0.00000002        2.67855207
 C            0.69767960       -1.21101507        2.54937206
 C            1.39879082        0.00000002        2.61683097
 C           -1.38187806       -2.41828889        2.37926154
 C           -0.69767956       -1.21101488        2.54937208
 C           -2.77050796       -2.42839291        2.36539724
 C           -2.73259111       -4.23369281        0.72900533
 C           -2.73259112       -4.23369281       -0.72900532
 C           -3.46486125       -3.27805819        1.41388780
 C           -3.46486125       -3.27805818       -1.41388782
 C           -1.38187800       -2.41828880       -2.37926156
 C           -2.77050798       -2.42839296       -2.36539722
 C            0.69767962       -1.21101500       -2.54937207
 C           -0.69767961       -1.21101497       -2.54937207
 C            2.79875225       -0.00000005       -2.67855207
 C            1.39879085        0.00000004       -2.61683097
 C            4.50701661        1.18375813       -1.39660718
 C            3.48976847        1.17841274       -2.43808762
 C            4.41546989        2.44738181       -0.69248941
 C            4.50701661        1.18375814        1.39660718
 C            3.48976845        1.17841271        2.43808763
 C            4.41546989        2.44738181        0.69248941
 C            2.77050789        2.42839300        2.36539722
 C            3.46486128        3.27805816        1.41388782
 C            0.69767942        1.21101505        2.54937206
 C            1.38187826        2.41828869        2.37926160
 C           -1.39879089        0.00000002        2.61683097
 C           -0.69767938        1.21101486        2.54937208
 C           -3.48976846       -1.17841273        2.43808763
 C           -2.79875221       -0.00000002        2.67855207
 C           -4.41546989       -2.44738180        0.69248941
 C           -4.41546989       -2.44738180       -0.69248941
 C           -4.50701661       -1.18375814        1.39660719
 C           -3.48976845       -1.17841270       -2.43808763
 C           -4.50701661       -1.18375815       -1.39660718
 C           -1.39879086        0.00000004       -2.61683097
 C           -2.79875224       -0.00000005       -2.67855207
 C            0.69767937        1.21101496       -2.54937207
 C           -0.69767936        1.21101493       -2.54937207
 C            2.77050787        2.42839296       -2.36539724
 C            3.46486129        3.27805817       -1.41388781
 C            1.38187832        2.41828879       -2.37926157
 C            2.73259108        4.23369285        0.72900531
 C            2.73259108        4.23369284       -0.72900532
 C            0.69612082        3.54631239        1.92990206
 C            1.36697447        4.49102243        1.15079126
 C           -1.38187829        2.41828891        2.37926154
 C           -0.69612081        3.54631217        1.92990218
 C           -3.48976848        1.17841274        2.43808762
 C           -2.77050787        2.42839291        2.36539726
 C           -4.75007441       -0.00000001        0.70250968
 C           -4.75007441        0.00000001       -0.70250968
 C           -4.50701660        1.18375814        1.39660719
 C           -3.48976847        1.17841274       -2.43808762
 C           -4.50701661        1.18375812       -1.39660718
 C           -1.38187832        2.41828882       -2.37926156
 C           -2.77050786        2.42839294       -2.36539724
 C            0.69612077        3.54631230       -1.92990211
 C            1.36697449        4.49102246       -1.15079122
 C            0.68990790        5.05205430       -0.00000001
 C           -0.69612077        3.54631226       -1.92990213
 C           -1.36697447        4.49102250        1.15079119
 C           -0.68990790        5.05205430        0.00000001
 C           -1.36697449        4.49102247       -1.15079122
 C           -3.46486128        3.27805819        1.41388779
 C           -4.41546989        2.44738180        0.69248942
 C           -4.41546988        2.44738181       -0.69248941
 C           -3.46486129        3.27805817       -1.41388780
 C           -2.73259109        4.23369282        0.72900535
 C           -2.73259107        4.23369284       -0.72900534




