%chk=000139.chk
%mem=8GB
%Nproc=16
#p B3LYP/6-31G* opt pop=NPA

Template file

0 1
 C            4.55425620       -1.35086688        1.46033862
 C            4.79776316       -0.66968312        0.20094392
 C            4.89851125        0.74647536        0.49878936
 C            4.24343807       -0.33475477        2.45656621
 C            4.26172991        0.95216842        1.78567400
 C            3.26861063       -0.57690826        3.41100872
 C            2.61319407       -1.87405255        3.46537561
 C            3.85812094       -2.54911472        1.45389009
 C            2.88324331       -2.82799978        2.49604844
 C            3.32457286       -3.04941398        0.19976208
 C            4.13043796       -1.07709367       -0.95410267
 C            3.38807602       -2.26679789       -0.94980077
 C            4.03149329       -0.18786316       -2.03086560
 C            4.65098649        1.65641473       -0.51130210
 C            4.29925740        1.16585785       -1.83386345
 C            3.78923849        2.79061995       -0.23189617
 C            3.15503276        1.79826186        1.87380288
 C            2.95435761        2.76548352        0.88679598
 C            2.25982330        0.43854128        3.65618132
 C            2.13351398        1.51431138        2.78310657
 C            1.24015899       -1.65645137        3.88329672
 C            1.06344215       -0.23626610        4.11572443
 C            0.20155760       -2.35832782        3.27944036
 C            1.78226794       -3.55640238        1.89202808
 C            2.09293760       -3.75991002        0.49021929
 C            0.47210878       -3.25894747        2.24227543
 C            1.06386444       -3.71255640       -0.44276609
 C            2.49857131       -2.53804581       -1.98853660
 C            1.36055616       -3.31379941       -1.74318217
 C            3.29190374       -0.54564484       -3.15265544
 C            2.60302510       -1.81821472       -3.17095300
 C            2.40447009        0.44139443       -3.75350739
 C            3.41981182        2.14968534       -2.44662787
 C            3.26261777        3.24508082       -1.50595325
 C            2.32602077        1.70307285       -3.18378766
 C            2.08500826        3.96837295       -1.51208266
 C            1.77985463        3.51984903        0.88023870
 C            1.47540736        4.29472437       -0.23948521
 C            0.89675273        2.14435412        2.65200282
 C            0.78620994        3.25993985        1.82508766
 C           -0.17339007        0.32072665        3.83171192
 C           -0.24215896        1.59013915        3.25482395
 C           -1.09605848       -1.86884909        3.42995256
 C           -1.27903731       -0.52053494        3.75482711
 C           -2.14627533       -2.60307484        2.88836421
 C           -0.54545296       -3.61194860        1.35906215
 C           -0.26643303       -3.71339339       -0.00730320
 C           -1.85875337       -3.50323063        1.78919156
 C           -1.30574088       -3.67714739       -0.94655089
 C            0.37969274       -3.43484719       -2.71908768
 C           -0.99725201       -3.64670505       -2.30513706
 C            1.43887502       -1.66272480       -4.02272900
 C            1.18662674       -0.23835265       -4.14161238
 C            0.36167636       -2.50742114       -3.83835070
 C           -0.04184988        0.27341881       -3.73381844
 C            1.07279233        2.28653386       -2.97985137
 C            1.00869155        3.54380842       -2.39106300
 C           -0.09002132        1.51270300       -3.09153899
 C            0.09409519        4.62417747       -0.52501187
 C           -0.23411989        3.99231313       -1.79316481
 C           -0.41875790        3.95045539        1.76071867
 C           -0.82597214        4.55766341        0.50542962
 C           -1.49144612        2.20127309        3.10486360
 C           -1.60058451        3.37581078        2.37363779
 C           -2.54043986        0.05388198        3.67879454
 C           -2.64775395        1.45637662        3.31986425
 C           -3.42466512       -1.96576614        2.62465761
 C           -3.62464287       -0.65875457        3.02786385
 C           -2.92206704       -3.37464765        0.81376359
 C           -2.61598465       -3.40720831       -0.53969498
 C           -3.85998845       -2.37474650        1.30193399
 C           -3.50804127       -2.81051642       -1.42847396
 C           -1.83908816       -2.88182459       -3.20914492
 C           -0.97196654       -1.94478240       -3.89453283
 C           -1.14904591       -0.57485646       -3.69299624
 C           -3.06362086       -2.42956725       -2.75724693
 C           -2.35983125       -0.11262737       -3.17994377
 C           -3.38544369       -1.02502852       -2.92558816
 C           -1.30318806        1.97312216       -2.56534607
 C           -1.36195026        3.18594721       -1.86873385
 C           -2.45196465        1.18764953       -2.68198820
 C           -2.16540411        4.08266930        0.21326358
 C           -2.70788156        3.52669846        1.43998732
 C           -2.41747566        3.43256409       -0.98980921
 C           -3.76304886        1.59766605        2.39550614
 C           -4.28759264        0.26700844        2.12764699
 C           -3.67686185        2.52874347        1.36289446
 C           -4.37740591       -1.43667782        0.41039932
 C           -4.39164776       -1.75952343       -0.94488055
 C           -4.40717052       -0.70617747       -1.94612133
 C           -4.56165300       -0.10919878        0.81599453
 C           -3.62648377        1.59910454       -2.05682884
 C           -3.57580528        2.68036990       -1.09444096
 C           -4.23749964        2.22676255        0.12187557
 C           -4.55077438        0.60607046       -1.54083379
 C           -4.75496318        0.89098245       -0.13243409




