%chk=000002.chk
%mem=8GB
%Nproc=16
#p B3LYP/6-31G* opt pop=NPA

Template file

0 1
 C            5.32818087       -0.47033608       -1.34280806
 C            5.32641163        0.95513824       -1.05465529
 C            4.47329030        1.60542995       -2.03796933
 C            4.47955713       -0.68847706       -2.50382275
 C            3.83006388        0.56984214       -2.82598597
 C            3.75312537       -1.86246833       -2.61613282
 C            3.74093992       -2.82059968       -1.51892962
 C            5.32641163       -1.39092739       -0.29984633
 C            4.47329030       -2.56764819       -0.37135845
 C            5.32818087       -0.92773785        1.07872703
 C            5.32818087        1.39807393        0.26408103
 C            5.32641163        0.43578915        1.35450162
 C            4.47955713        2.51261264        0.65567275
 C            3.74093992        2.72573147       -1.68324617
 C            3.75312537        3.19687165       -0.30487848
 C            2.38396519        2.86442384       -2.18236675
 C            2.44809283        0.60461187       -3.02744041
 C            1.73247194        1.77282634       -2.75130933
 C            2.40853612       -1.80585213       -3.15818154
 C            1.76483965       -0.57682340       -3.32158589
 C            2.38396519       -3.32219697       -1.38948044
 C            1.66537865       -2.90480611       -2.57296538
 C            1.73247194       -3.26911694       -0.15965798
 C            3.83006387       -2.73229671        0.91949522
 C            4.47955713       -1.82413558        1.84815000
 C            2.44809283       -2.92414624        0.99011097
 C            3.75312537       -1.33440331        2.92101130
 C            4.47329030        0.96221824        2.40932779
 C            3.83006387        2.16245457        1.90649075
 C            3.74093992        0.09486821        3.20217579
 C            2.44809283        2.31953437        2.03732944
 C            2.40853612        3.63799151        0.01517695
 C            1.66537865        3.68065644       -1.22915320
 C            1.76483965        3.16498946        1.16124923
 C            0.29314541        3.55312960       -1.15314942
 C            0.33582107        1.74889750       -2.74838757
 C           -0.37118906        2.75454803       -2.08271863
 C            0.37118906       -0.57197292       -3.40559814
 C           -0.33582107        0.61617724       -3.19884390
 C            0.29314541       -2.77522149       -2.50052579
 C           -0.29314541       -1.79083787       -3.27832019
 C            0.33582107       -3.25462220       -0.14039588
 C           -0.37118906       -3.18096126       -1.34414925
 C           -0.33582107       -3.07836870        1.06579680
 C            1.76483965       -2.58816606        2.16033666
 C            2.40853612       -1.83213938        3.14300459
 C            0.37118906       -2.66334805        2.19814215
 C            2.38396519        0.45777312        3.57184719
 C            1.73247194        1.49629060        2.91096731
 C            1.66537865       -0.77585033        3.80211858
 C            0.33582107        1.50572470        2.88878344
 C            0.37118906        3.23532097        1.20745600
 C           -0.29314541        3.73452751        0.08824901
 C           -0.33582107        2.46219146        2.13304709
 C           -1.66537865        3.87846981        0.12458467
 C           -1.76483965        2.70037870       -2.01831933
 C           -2.40853612        3.48153863       -1.05551000
 C           -1.73247194        0.60078995       -3.21740077
 C           -2.44809283        1.63959358       -2.61585241
 C           -1.66537865       -1.83134142       -3.42114572
 C           -2.38396519       -0.58340832       -3.55348889
 C           -1.76483965       -3.09810516       -1.32943689
 C           -2.40853612       -2.65486779       -2.48734589
 C           -1.73247194       -3.08674577        1.08840103
 C           -2.44809283       -3.08519143       -0.11200349
 C           -2.38396519       -2.78570749        2.28199087
 C           -0.29314541       -1.94368963        3.19007119
 C            0.29314541       -0.77790811        3.65367521
 C           -0.37118906        0.42641323        3.42686788
 C           -1.66537865       -2.04712839        3.29656105
 C           -1.76483965        0.39772646        3.34775622
 C           -2.40853612       -0.82667084        3.54285589
 C           -1.73247194        2.48595582        2.12899974
 C           -2.38396519        3.36911581        1.27149802
 C           -2.44809283        1.44559784        2.72785590
 C           -3.75312537        3.15044271       -0.62261544
 C           -3.74093992        3.09340503        0.83293162
 C           -3.83006387        1.52651947       -2.44553779
 C           -4.47955713        2.21994343       -1.34721200
 C           -3.74093992       -0.82536257       -3.09543315
 C           -3.75312537       -2.11442214       -2.41705570
 C           -4.47329030        0.23258613       -2.58391719
 C           -3.83006388       -2.88115759       -0.09923574
 C           -4.47955713       -2.27669153       -1.24892141
 C           -3.74093992       -2.26804246        2.26250153
 C           -3.75312537       -1.03602056        3.03967114
 C           -4.47329030       -2.35403099        1.09053309
 C           -3.83006388        1.35463812        2.54477353
 C           -4.47329030        2.12144486        1.49338409
 C           -4.47955713        0.05674810        2.59613341
 C           -5.32818087        1.26405463       -0.65308147
 C           -5.32641163        0.02999373       -1.42256361
 C           -5.32818087       -1.19761246       -0.76816269
 C           -5.32641163       -1.24697309        0.68530647
 C           -5.32641163        1.21697936        0.73725714
 C           -5.32818087       -0.06644217        1.42124415




