%chk=000158.chk
%mem=8GB
%Nproc=16
#p B3LYP/6-31G* opt pop=NPA

Template file

0 1
 C            4.85623673       -0.25776606        0.52511682
 C            4.73951774       -0.95375248       -0.74891345
 C            4.24912270       -2.29737724       -0.48059753
 C            4.48229594       -1.18495309        1.57834353
 C            4.01239509       -2.40562505        0.95032546
 C            3.82603148       -0.70863174        2.69739692
 C            3.59019352        0.71747423        2.82597514
 C            4.48453436        1.08139928        0.60553561
 C            3.89140867        1.57896251        1.77314466
 C            4.44006512        1.82064077       -0.57356847
 C            4.29156162       -0.26213713       -1.87122386
 C            4.25047033        1.12969873       -1.83836892
 C            3.54886880       -0.93530246       -2.83668219
 C            3.35845250       -2.90337672       -1.36315699
 C            3.07903150       -2.28894859       -2.58076888
 C            2.47638531       -3.86343657       -0.87226446
 C            2.84545278       -3.01907880        1.39530181
 C            2.25951694       -3.96005711        0.56323172
 C            2.63893739       -1.40132447        3.16896993
 C            2.08105321       -2.41823461        2.40057428
 C            2.34194178        0.89757009        3.54988292
 C            1.76614432       -0.41663568        3.77456435
 C            1.51086917        1.96299241        3.20946764
 C            3.29438895        2.83767372        1.77218348
 C            2.07224105        3.03952380        2.53808311
 C            3.68766099        3.05926169       -0.63235950
 C            3.17839005        3.59269489        0.53711598
 C            3.20768988        1.83192247       -2.57251397
 C            2.83985222        3.01002672       -1.81217449
 C            2.49871583       -0.22616824       -3.55085059
 C            2.22254588        1.09728896       -3.21741023
 C            1.75111822       -2.42021386       -3.16428165
 C            1.40196157       -1.15223600       -3.76990138
 C            1.19035628       -4.05423279       -1.52415658
 C            0.77767695       -3.14618136       -2.48846275
 C            0.88303501       -4.34875329        0.78170595
 C            0.24926219       -4.50224558       -0.51811028
 C            0.70517508       -2.66956805        2.48857384
 C            0.15743650       -3.76233516        1.81037835
 C            0.39732077       -0.56876233        3.65321214
 C           -0.12654813       -1.76911238        3.17341652
 C            0.12654813        1.76911238        3.17341652
 C           -0.39732077        0.56876233        3.65321214
 C           -0.70517508        2.66956805        2.48857384
 C            1.21972874        3.93956226        1.79206908
 C            1.86461779        4.20889278        0.51741924
 C           -0.15743650        3.76233516        1.81037835
 C            1.49996462        3.36472222       -1.70642543
 C            1.09208238        4.16887306       -0.63970836
 C            0.89452754        1.53182128       -3.17916926
 C            0.54767613        2.70039469       -2.48681669
 C            0.10601048       -0.68533566       -3.65410258
 C           -0.10601048        0.68533566       -3.65410258
 C           -0.54767613       -2.70039469       -2.48681669
 C           -0.89452754       -1.53182128       -3.17916926
 C           -1.09208238       -4.16887306       -0.63970836
 C           -1.49996462       -3.36472222       -1.70642543
 C           -1.21972874       -3.93956226        1.79206908
 C           -1.86461779       -4.20889278        0.51741924
 C           -1.51086917       -1.96299241        3.20946764
 C           -2.07224105       -3.03952380        2.53808311
 C           -1.76614432        0.41663568        3.77456435
 C           -2.34194178       -0.89757009        3.54988292
 C           -2.08105321        2.41823461        2.40057428
 C           -2.63893739        1.40132447        3.16896993
 C           -2.84545278        3.01907880        1.39530181
 C           -0.88303501        4.34875329        0.78170595
 C           -0.24926219        4.50224558       -0.51811028
 C           -2.25951694        3.96005711        0.56323172
 C           -0.77767695        3.14618136       -2.48846275
 C           -1.19035628        4.05423279       -1.52415658
 C           -2.47638531        3.86343657       -0.87226446
 C           -1.40196157        1.15223600       -3.76990138
 C           -1.75111822        2.42021386       -3.16428165
 C           -2.22254588       -1.09728896       -3.21741023
 C           -2.49871583        0.22616824       -3.55085059
 C           -2.83985222       -3.01002672       -1.81217449
 C           -3.20768988       -1.83192247       -2.57251397
 C           -3.17839005       -3.59269489        0.53711598
 C           -3.29438895       -2.83767372        1.77218348
 C           -3.68766099       -3.05926169       -0.63235950
 C           -3.59019352       -0.71747423        2.82597514
 C           -3.82603148        0.70863174        2.69739692
 C           -3.89140867       -1.57896251        1.77314466
 C           -4.01239509        2.40562505        0.95032546
 C           -4.48229594        1.18495309        1.57834353
 C           -3.35845250        2.90337672       -1.36315699
 C           -3.07903150        2.28894859       -2.58076888
 C           -3.54886880        0.93530246       -2.83668219
 C           -4.24912270        2.29737724       -0.48059753
 C           -4.25047033       -1.12969873       -1.83836892
 C           -4.44006512       -1.82064077       -0.57356847
 C           -4.48453436       -1.08139928        0.60553561
 C           -4.85623673        0.25776606        0.52511682
 C           -4.29156162        0.26213713       -1.87122386
 C           -4.73951774        0.95375248       -0.74891345




