%chk=000002.chk
%mem=8GB
%Nproc=32
#p B3LYP/6-31G* opt pop=NPA

Template file

0 1
 C            3.03636049       -0.72011243        0.09795499
 C            3.03636049        0.72011243       -0.09795499
 C            2.39197928        1.32273307        1.05699838
 C            2.21929746       -1.01048218        1.26660384
 C            1.85907035        0.25219825        1.88424192
 C            1.15577179       -1.91559551        0.85986696
 C            2.39197928       -1.32273307       -1.05699838
 C            1.26264942       -2.10012849       -0.57996938
 C            2.21929746        1.01048218       -1.26660384
 C            1.85907035       -0.25219825       -1.88424192
 C            1.26264942        2.10012849        0.57996938
 C            1.15577179        1.91559551       -0.85986696
 C            0.45167254        0.53048697        2.12007230
 C            0.11592761        1.76324362        1.40882236
 C           -0.11592761       -1.76324362        1.40882236
 C           -0.45167254       -0.53048697        2.12007230
 C           -1.26264942       -2.10012849        0.57996938
 C            0.11592761       -1.76324362       -1.40882236
 C            0.45167254       -0.53048697       -2.12007230
 C           -1.15577179       -1.91559551       -0.85986696
 C           -0.11592761        1.76324362       -1.40882236
 C           -0.45167254        0.53048697       -2.12007230
 C           -1.15577179        1.91559551        0.85986696
 C           -1.26264942        2.10012849       -0.57996938
 C           -1.85907035       -0.25219825        1.88424192
 C           -2.39197928       -1.32273307        1.05699838
 C           -2.21929746        1.01048218        1.26660384
 C           -2.21929746       -1.01048218       -1.26660384
 C           -1.85907035        0.25219825       -1.88424192
 C           -2.39197928        1.32273307       -1.05699838
 C           -3.03636049       -0.72011243       -0.09795499
 C           -3.03636049        0.72011243        0.09795499




