%chk=000001.chk
%mem=8GB
%Nproc=32
#p B3LYP/6-31G* opt pop=NPA

Template file

0 1
 C            2.94478606        0.08993233       -0.72226254
 C            2.74858380       -1.24043619       -0.17015263
 C            2.38548483       -1.09349898        1.22960773
 C            2.63900351        1.05716173        0.31963333
 C            2.20840111        0.32437149        1.49880384
 C            1.74775155        2.04780258       -0.25604344
 C            1.97486430        0.28145794       -1.78883833
 C            1.32924147        1.56157258       -1.56537560
 C            1.61937895       -1.84631060       -0.85628193
 C            1.15398856       -0.91535593       -1.87418806
 C            1.09909497       -1.74180368        1.42373969
 C            0.67901579       -2.31332674        0.15309385
 C            0.85674809        0.51715668        2.00901756
 C            0.21693972       -0.79452721        2.08496994
 C            0.54966021        2.42797922        0.47417414
 C            0.12136863        1.63782475        1.62016958
 C           -0.12136863        1.63782475       -1.62016958
 C           -0.54966021        2.42797922       -0.47417414
 C           -0.21693972       -0.79452721       -2.08496994
 C           -0.85674809        0.51715668       -2.00901756
 C           -0.67901579       -2.31332674       -0.15309385
 C           -1.09909497       -1.74180368       -1.42373969
 C           -1.15398856       -0.91535593        1.87418806
 C           -1.61937895       -1.84631060        0.85628193
 C           -1.32924147        1.56157258        1.56537560
 C           -1.74775155        2.04780258        0.25604344
 C           -1.97486430        0.28145794        1.78883833
 C           -2.20840111        0.32437149       -1.49880384
 C           -2.38548483       -1.09349898       -1.22960773
 C           -2.74858380       -1.24043619        0.17015263
 C           -2.63900351        1.05716173       -0.31963333
 C           -2.94478606        0.08993233        0.72226254




