%chk=000012.chk
%mem=8GB
%Nproc=32
#p B3LYP/6-31G* opt pop=NPA

Template file

0 1
 C            2.25659630        1.33552117        1.49859603
 C            2.77419949        0.10073010        0.93299384
 C            2.94352286        0.31233955       -0.49377671
 C            1.83092763        2.18181063        0.39545163
 C            2.28552117        1.56499217       -0.83736648
 C            0.41350628        2.45566451        0.56027714
 C            1.07982535        1.00768956        2.28475066
 C           -0.02775782        1.80776517        1.79252636
 C            1.93591366       -0.99463847        1.40123953
 C            0.93849040       -0.43792849        2.31058325
 C            1.60113472       -2.03594325        0.53503834
 C            2.47749681       -0.70678883       -1.41644461
 C            1.89568052       -1.92938466       -0.88740599
 C            1.31740805        1.28874396       -1.88639396
 C            1.49720371       -0.09625654       -2.30139207
 C           -0.41350628        2.45566451       -0.56027714
 C            0.02775782        1.80776517       -1.79252636
 C           -1.83092763        2.18181063       -0.39545163
 C           -1.31740805        1.28874396        1.88639396
 C           -2.28552117        1.56499217        0.83736648
 C           -0.34205115       -0.98263730        2.37134636
 C           -1.49720371       -0.09625654        2.30139207
 C            0.31141778       -2.69248662        0.65839218
 C           -0.65800020       -2.17919267        1.60931154
 C            0.65800020       -2.17919267       -1.60931154
 C            0.34205115       -0.98263730       -2.37134636
 C           -0.31141778       -2.69248662       -0.65839218
 C           -1.07982535        1.00768956       -2.28475066
 C           -2.25659630        1.33552117       -1.49859603
 C           -0.93849040       -0.43792849       -2.31058325
 C           -2.94352286        0.31233955        0.49377671
 C           -2.47749681       -0.70678883        1.41644461
 C           -1.89568052       -1.92938466        0.88740599
 C           -1.60113472       -2.03594325       -0.53503834
 C           -2.77419949        0.10073010       -0.93299384
 C           -1.93591366       -0.99463847       -1.40123953




