%chk=000003.chk
%mem=8GB
%Nproc=32
#p B3LYP/6-31G* opt pop=NPA

Template file

0 1
 C            2.96837337       -1.11716381        0.70999810
 C            3.25802890        0.30608687        0.69002077
 C            3.10833751        0.76978212       -0.67907143
 C            2.52714863       -1.50510501       -0.61965848
 C            2.57142911       -0.32745046       -1.46749977
 C            1.26342630       -2.20812876       -0.47672622
 C            1.84984255       -1.32939951        1.61069588
 C            0.91449480       -2.21231735        0.94357318
 C            2.25052130        0.97735597        1.49640249
 C            1.36459329       -0.03254866        2.05257476
 C            2.11762399        1.83132936       -0.67788853
 C            1.67172112        2.03819735        0.69376964
 C            1.33971104        0.13063802       -2.09477062
 C            1.12350692        1.51603018       -1.69412013
 C            0.26455761       -1.98909363       -1.42400295
 C            0.25556222       -0.74036105       -2.18097731
 C           -1.11074601       -2.30506840       -1.07555718
 C           -0.42338439       -2.11933177        1.30699407
 C           -1.43541523       -2.47060804        0.32723357
 C           -0.01193410        0.20032313        2.04881906
 C           -0.87410227       -0.90245554        1.97172823
 C            0.33735335        2.36166665        0.90138443
 C           -0.47451734        1.48653674        1.73892321
 C           -0.17315472        1.98751490       -1.50847213
 C           -0.47275914        2.67341446       -0.26262806
 C           -1.09803291       -0.21042949       -2.14421561
 C           -1.96303819       -1.25169765       -1.60547252
 C           -1.30922595        1.12658364       -1.81009562
 C           -2.62290301       -1.68161867        0.60950926
 C           -2.28285467       -0.72675448        1.65179157
 C           -2.94727824       -0.92211736       -0.58702428
 C           -1.86318749        1.70691159        1.35619673
 C           -1.85824880        2.40836836        0.08244518
 C           -2.39615221        1.49649565       -0.91154914
 C           -2.75195562        0.57151826        1.21777306
 C           -3.11734172        0.46289638       -0.19010322




