%chk=000039.chk
%mem=8GB
%Nproc=32
#p B3LYP/6-31G* opt pop=NPA

Template file

0 1
 C            3.84363844       -0.00000000       -0.14250696
 C            3.26372171        1.17493640       -0.77090606
 C            2.73709338        2.02076320        0.28278481
 C            3.43739172        0.00000000        1.25457843
 C            2.74541092        1.24511347        1.51560868
 C            2.74541092       -1.24511347        1.51560868
 C            3.26372171       -1.17493640       -0.77090606
 C            2.73709338       -2.02076320        0.28278481
 C            2.36603267        0.72839005       -1.82251971
 C            2.36603267       -0.72839005       -1.82251971
 C            1.17429117        1.41643633       -2.03672992
 C            1.40267567        2.57848433        0.13168745
 C            0.72765898        2.42129074       -1.07643435
 C            1.37815468        1.21400604        2.01182677
 C            0.69316893        2.32290168        1.37561505
 C            1.37815468       -1.21400604        2.01182677
 C            0.70050389        0.00000000        2.16808300
 C            1.40267567       -2.57848433        0.13168745
 C            0.69316893       -2.32290168        1.37561505
 C            1.17429117       -1.41643633       -2.03672992
 C            0.72765898       -2.42129074       -1.07643435
 C            0.00000000        0.69549347       -2.50201992
 C            0.00000000       -0.69549347       -2.50201992
 C           -0.72765898        2.42129074       -1.07643435
 C           -1.17429117        1.41643633       -2.03672992
 C           -0.69316893        2.32290168        1.37561505
 C           -1.40267567        2.57848433        0.13168745
 C           -0.70050389        0.00000000        2.16808300
 C           -1.37815468        1.21400604        2.01182677
 C           -0.69316893       -2.32290168        1.37561505
 C           -1.37815468       -1.21400604        2.01182677
 C           -0.72765898       -2.42129074       -1.07643435
 C           -1.17429117       -1.41643633       -2.03672992
 C           -1.40267567       -2.57848433        0.13168745
 C           -2.36603267        0.72839005       -1.82251971
 C           -2.36603267       -0.72839005       -1.82251971
 C           -2.73709338        2.02076320        0.28278481
 C           -2.74541092        1.24511347        1.51560868
 C           -3.26372171        1.17493640       -0.77090606
 C           -2.74541092       -1.24511347        1.51560868
 C           -2.73709338       -2.02076320        0.28278481
 C           -3.26372171       -1.17493640       -0.77090606
 C           -3.43739172        0.00000000        1.25457843
 C           -3.84363844       -0.00000000       -0.14250696




