%chk=000082.chk
%mem=8GB
%Nproc=32
#p B3LYP/6-31G* opt pop=NPA

Template file

0 1
 C            3.33108095       -0.71327342        0.13836414
 C            2.92770792       -1.39127905       -1.07686515
 C            2.50441841       -0.37466286       -2.02972877
 C            3.33108095        0.71327342       -0.13836414
 C            2.55735797        0.91162085       -1.35328564
 C            2.92770792        1.39127905        1.07686515
 C            2.55735797       -0.91162085        1.35328564
 C            2.50441841        0.37466286        2.02972877
 C            1.41655898       -1.71795613        1.34291604
 C            1.87813052       -2.38501145       -0.99667848
 C            1.14026860       -2.54254549        0.24689594
 C            1.24906175       -0.80734244       -2.62176640
 C            0.90843962       -2.09405465       -2.04210858
 C            0.24044828        0.12825516       -2.80776440
 C            1.41655898        1.71795613       -1.34291604
 C            0.41804396        1.47572131       -2.28579084
 C            1.87813052        2.38501145        0.99667848
 C            1.14026860        2.54254549       -0.24689594
 C            1.24906175        0.80734244        2.62176640
 C            0.90843962        2.09405465        2.04210858
 C            0.41804396       -1.47572131        2.28579084
 C            0.24044828       -0.12825516        2.80776440
 C           -0.90843962       -2.04210858        2.09405465
 C           -0.24044828       -2.80776440       -0.12825516
 C           -0.41804396       -2.28579084       -1.47572131
 C           -1.24906175       -2.62176640        0.80734244
 C           -1.14026860       -0.24689594       -2.54254549
 C           -1.41655898       -1.34291604       -1.71795613
 C           -0.90843962        2.04210858       -2.09405465
 C           -1.87813052        0.99667848       -2.38501145
 C           -0.24044828        2.80776440        0.12825516
 C           -0.41804396        2.28579084        1.47572131
 C           -1.24906175        2.62176640       -0.80734244
 C           -1.14026860        0.24689594        2.54254549
 C           -1.87813052       -0.99667848        2.38501145
 C           -1.41655898        1.34291604        1.71795613
 C           -2.50441841       -2.02972877        0.37466286
 C           -2.55735797       -1.35328564       -0.91162085
 C           -2.92770792       -1.07686515        1.39127905
 C           -2.92770792        1.07686515       -1.39127905
 C           -2.50441841        2.02972877       -0.37466286
 C           -2.55735797        1.35328564        0.91162085
 C           -3.33108095       -0.13836414       -0.71327342
 C           -3.33108095        0.13836414        0.71327342




