%chk=000032.chk
%mem=8GB
%Nproc=32
#p B3LYP/6-31G* opt pop=NPA

Template file

0 1
 C            3.68009910        0.57425933        0.44461604
 C            3.68009910       -0.57425933       -0.44461604
 C            2.96194029       -1.64735695        0.21668508
 C            2.92103520        0.22313501        1.63251069
 C            2.42935381       -1.13495828        1.46925884
 C            1.96200673        1.28545539        1.87329043
 C            2.96194029        1.64735695       -0.21668508
 C            2.02989564        2.20841214        0.74454212
 C            2.92103520       -0.22313501       -1.63251069
 C            2.42935381        1.13495828       -1.46925884
 C            2.02989564       -2.20841214       -0.74454212
 C            1.96200673       -1.28545539       -1.87329043
 C            0.85569917       -2.76337330       -0.25269030
 C            1.10443310       -1.42654500        1.79495494
 C            0.47879384       -2.47832784        1.12393484
 C            0.72339375        0.94345803        2.40326730
 C            0.33046243       -0.46009199        2.44774997
 C           -0.45316368        1.72350026        2.04871024
 C            0.85569917        2.76337330        0.25269030
 C           -0.36025472        2.68007909        1.04201336
 C            1.10443310        1.42654500       -1.79495494
 C            0.47879384        2.47832784       -1.12393484
 C            0.72339375       -0.94345803       -2.40326730
 C            0.33046243        0.46009199       -2.44774997
 C           -0.36025472       -2.68007909       -1.04201336
 C           -0.45316368       -1.72350026       -2.04871024
 C           -0.95968831       -2.65668723        1.22380775
 C           -1.46875587       -2.87521015       -0.12320235
 C           -1.12586461       -0.51070312        2.39132024
 C           -1.61100977        0.83926071        2.12410604
 C           -1.76183079       -1.61502492        1.83409181
 C           -2.71567593        1.04685165        1.29904182
 C           -1.46875587        2.87521015        0.12320235
 C           -0.95968831        2.65668723       -1.22380775
 C           -2.67069181        2.07701006        0.27659669
 C           -1.12586461        0.51070312       -2.39132024
 C           -1.61100977       -0.83926071       -2.12410604
 C           -1.76183079        1.61502492       -1.83409181
 C           -2.93742368        1.43235571       -1.00023861
 C           -2.67069181       -2.07701006       -0.27659669
 C           -2.93742368       -1.43235571        1.00023861
 C           -3.41275389       -0.08919366        0.72252632
 C           -2.71567593       -1.04685165       -1.29904182
 C           -3.41275389        0.08919366       -0.72252632




