%chk=000007.chk
%mem=8GB
%Nproc=32
#p B3LYP/6-31G* opt pop=NPA

Template file

0 1
 C            3.88172952       -0.65458328       -0.12118063
 C            3.83091870        0.58866461       -0.86854319
 C            3.46408076        1.64004242        0.06159618
 C            3.34922029       -0.40198418        1.20979493
 C            3.10568211        1.01535171        1.32654204
 C            2.23511089       -1.31034765        1.41534394
 C            2.98289854       -1.59092368       -0.76916897
 C            2.19685069       -2.21779063        0.27257418
 C            2.76248574        0.47406665       -1.84990895
 C            2.26465603       -0.88839787       -1.81959799
 C            2.26894417        2.28380908       -0.45401991
 C            1.81893190        1.55146946       -1.61866380
 C            1.76576407        1.45243047        1.66277018
 C            1.33687257        2.40345489        0.64642191
 C            1.02728536       -0.84265101        1.95294183
 C            0.82151362        0.53928040        2.14375412
 C           -0.06481759       -1.71469856        1.91763907
 C            0.96792314       -2.74241059       -0.09302251
 C           -0.07452697       -2.76142718        0.91183856
 C            0.89004374       -1.09700589       -1.91928710
 C            0.35539922       -2.23801855       -1.31654405
 C            0.46037037        1.27014255       -1.70107273
 C            0.05335949        0.00319595       -2.13600123
 C           -0.02135748        2.43303386        0.35585959
 C           -0.42211819        2.03394365       -0.92875789
 C           -0.47865039        1.03301609        2.28129533
 C           -0.86087896        2.14053502        1.42293606
 C           -1.42172085       -1.20795389        2.03005847
 C           -1.61319021        0.12926789        2.33813987
 C           -1.34902834       -2.70420548        0.22080065
 C           -1.08610238       -2.36193471       -1.16910639
 C           -2.23332863       -1.85306306        0.99812586
 C           -1.30753223       -0.22009915       -2.33433552
 C           -1.90885829       -1.43133395       -1.79113284
 C           -1.78193639        1.96325385       -1.23243396
 C           -2.22905240        0.87711929       -2.08599454
 C           -2.28905098        2.07305024        1.20180417
 C           -2.76706827        0.83626468        1.80235459
 C           -2.75975707        2.11409555       -0.16559444
 C           -3.21461108       -1.13044153        0.32565366
 C           -3.14411943       -1.04603425       -1.12582377
 C           -3.44305420        0.31940484       -1.51498566
 C           -3.61249997        0.17259543        0.82727541
 C           -3.75678064        1.06781649       -0.31034452




