%chk=000088.chk
%mem=8GB
%Nproc=32
#p B3LYP/6-31G* opt pop=NPA

Template file

0 1
 C            3.39181374        0.05547384        0.76902089
 C            2.97935081       -1.33129231        0.63771012
 C            2.06208531       -1.62097083        1.72714918
 C            2.59873840        0.65640771        1.83113316
 C            1.68679919       -0.35764455        2.33780914
 C            2.05341954        1.90858357        1.33539882
 C            3.32359890        0.92735808       -0.38795557
 C            2.50470053        2.07738954       -0.03526711
 C            2.82915964        0.39779794       -1.64712425
 C            2.35474642       -1.78975260       -0.59469834
 C            2.26713968       -0.94398071       -1.69942290
 C            1.01319068       -2.48061562        1.21395289
 C            1.21641000       -2.61678620       -0.22601975
 C           -0.27247799       -2.31608602        1.71373541
 C            0.33485456       -0.04615250        2.48505378
 C           -0.61989682       -1.06356737        2.37431633
 C            0.74007195        2.23186380        1.64664081
 C           -0.05806679        1.29080953        2.41774921
 C           -0.12908434        2.74356265        0.59996793
 C            1.51518363        2.26380380       -1.08566561
 C            1.81959987        1.31667178       -2.14586440
 C            0.18282027        2.48460811       -0.73870656
 C            1.02968206       -0.87358763       -2.46303153
 C            0.73598620        0.53162189       -2.71092041
 C            0.11922982       -2.69945930       -1.08035489
 C           -0.00708655       -1.75998589       -2.18542063
 C           -1.40433754       -2.72444201        0.90147225
 C           -1.20647897       -2.91289251       -0.52315110
 C           -2.00416343       -0.75194615        2.03712227
 C           -2.46568008       -1.74807892        1.08373175
 C           -1.45243579        1.62817605        2.18110075
 C           -1.49046473        2.59323653        1.09089012
 C           -2.39553218        0.57055117        1.87471056
 C           -2.53900667        2.19436764        0.17550461
 C           -3.12055878        0.95690638        0.67286986
 C           -0.81509830        2.09751585       -1.63929723
 C           -0.56370146        0.99776221       -2.55901479
 C           -2.20401958        2.00183959       -1.21967365
 C           -1.38717119       -1.29809938       -2.22586453
 C           -2.13601590       -2.04132604       -1.22468593
 C           -2.91605696       -1.31910316       -0.23089267
 C           -3.21368570        0.02347330       -0.44045166
 C           -1.66017202        0.05197832       -2.41931145
 C           -2.69738942        0.69401039       -1.62424485




