%chk=000080.chk
%mem=8GB
%Nproc=32
#p B3LYP/6-31G* opt pop=NPA

Template file

0 1
 C            3.29557020        0.48419136        0.21307384
 C            2.85707995        1.31696611       -0.89217713
 C            2.37144761        0.43954067       -1.94767803
 C            3.20608479       -0.90346252       -0.21307384
 C            2.52660953       -0.93288311       -1.49888329
 C            2.66426519       -1.67302019        0.89217713
 C            2.62550157        0.60063976        1.49888329
 C            2.29535131       -0.74048776        1.94767803
 C            1.70572224        1.62380163        1.70654104
 C            1.84136695        2.32778771       -0.65292127
 C            1.44047709        2.59504405        0.65292127
 C            1.05403061        0.90877704       -2.34618751
 C            0.84281971        2.19906231       -1.70654104
 C           -0.00000000       -0.00000000       -2.44243705
 C            1.48303397       -1.82943443       -1.70654104
 C            0.26000870       -1.36720580       -2.34618751
 C            1.52713553       -2.54501178        0.65292127
 C            1.09523981       -2.75856442       -0.65292127
 C            0.92857751       -1.03662917        2.34618751
 C            0.55339234       -2.28909961        1.70654104
 C            0.43345844        1.32248630        2.34618751
 C            0.00000000       -0.00000000        2.44243705
 C            0.11674539        3.14383143        0.89217713
 C           -0.50639444        2.35807643        1.94767803
 C           -0.45540430        2.65454959       -1.49888329
 C           -0.82062090        3.22828213       -0.21307384
 C           -1.31403931        0.45842876       -2.34618751
 C           -1.56637719        1.83396354       -1.94767803
 C           -2.32585368       -0.36962788       -1.70654104
 C           -0.80507042       -2.27350421       -1.94767803
 C           -0.28801386       -3.13278687       -0.89217713
 C           -2.07120524       -1.72166649       -1.49888329
 C           -0.79258149       -2.57407094        1.49888329
 C           -1.22846308       -3.09614319        0.21307384
 C           -2.38546389       -2.32481961       -0.21307384
 C           -1.36203595       -0.28585713        2.34618751
 C           -1.78895687       -1.61758866        1.94767803
 C           -2.78101058       -1.47081124        0.89217713
 C           -1.83292008        1.97343118        1.49888329
 C           -2.06710712        2.61195183        0.21307384
 C           -2.56906608        1.81582076       -0.89217713
 C           -2.93660677        0.43077671       -0.65292127
 C           -2.25911458        0.66529798        1.70654104
 C           -2.96761262       -0.05003228        0.65292127




