%chk=000044.chk
%mem=8GB
%Nproc=32
#p B3LYP/6-31G* opt pop=NPA

Template file

0 1
 C            3.58446893       -1.23714602        0.17446753
 C            3.20795572       -0.52967648        1.38711972
 C            3.31196655        0.88560124        1.11158681
 C            3.58606890       -0.27160184       -0.91352962
 C            3.40778439        1.04350807       -0.33426267
 C            2.63628881       -0.72545386       -1.90807228
 C            2.55195612       -2.22070031       -0.10902993
 C            2.09181581       -1.99846364       -1.45642219
 C            1.93482101       -1.06529564        1.83967762
 C            1.57100299       -2.16462548        0.95625668
 C            0.92434730       -0.21450081        2.30171479
 C            2.24921628        1.75470276        1.57611921
 C            1.05803400        1.17224404        2.17595571
 C            2.28267315        1.86379332       -0.75489883
 C            1.80812028        2.54029749        0.43732255
 C            1.51147384        0.12641597       -2.26706727
 C            1.34405146        1.37970895       -1.67477172
 C            0.66151072       -1.96104342       -1.67978740
 C            0.35790708       -0.74629637       -2.41640635
 C            0.21842340       -2.34976863        0.67135321
 C           -0.21842340       -2.34976863       -0.67135321
 C           -0.35790708       -0.74629637        2.41640635
 C           -0.66151072       -1.96104342        1.67978740
 C           -1.51147384        0.12641597        2.26706727
 C           -0.07563374        1.96181251        1.71173894
 C            0.38292688        2.75648817        0.57651823
 C           -1.34405146        1.37970895        1.67477172
 C            0.07563374        1.96181251       -1.71173894
 C           -0.38292688        2.75648817       -0.57651823
 C           -0.92434730       -0.21450081       -2.30171479
 C           -1.05803400        1.17224404       -2.17595571
 C           -1.57100299       -2.16462548       -0.95625668
 C           -1.93482101       -1.06529564       -1.83967762
 C           -2.09181581       -1.99846364        1.45642219
 C           -2.63628881       -0.72545386        1.90807228
 C           -2.55195612       -2.22070031        0.10902993
 C           -3.20795572       -0.52967648       -1.38711972
 C           -3.58606890       -0.27160184        0.91352962
 C           -3.58446893       -1.23714602       -0.17446753
 C           -2.28267315        1.86379332        0.75489883
 C           -1.80812028        2.54029749       -0.43732255
 C           -2.24921628        1.75470276       -1.57611921
 C           -3.40778439        1.04350807        0.33426267
 C           -3.31196655        0.88560124       -1.11158681




