%chk=000078.chk
%mem=8GB
%Nproc=32
#p B3LYP/6-31G* opt pop=NPA

Template file

0 1
 C            3.19648682        0.19757780       -1.16429080
 C            2.28515224        0.37561587       -2.28036545
 C            1.60667283       -0.89170846       -2.50283340
 C            3.08775460       -1.18422388       -0.72204681
 C            1.93380658       -1.76560523       -1.38929650
 C            3.15004933       -1.19347536        0.72490700
 C            3.05962849        1.04606612        0.00677666
 C            3.12684529        0.18813313        1.18164280
 C            2.16373466        2.11158279       -0.00898193
 C            1.26911563        1.41047206       -2.20932367
 C            1.26534534        2.30616463       -1.14331808
 C            0.20876968       -0.61051573       -2.77988826
 C            0.01710477        0.82924148       -2.66909404
 C           -0.75357369       -1.47064148       -2.26511645
 C            0.89305675       -2.33258767       -0.64874232
 C           -0.36985050       -2.42597120       -1.23434035
 C            2.13337063       -1.91996118        1.45640328
 C            1.01860708       -2.51184608        0.73321761
 C            2.10845031        0.30270630        2.21733507
 C            1.57140313       -1.02254975        2.45587634
 C            1.42269699        2.42388526        1.20109950
 C            1.24399017        1.39033843        2.20721964
 C            0.00128993        2.81722504       -0.63312234
 C            0.10865684        2.90702349        0.81392934
 C           -1.19196971        1.33172916       -2.19721885
 C           -1.19764977        2.38731443       -1.19338333
 C           -2.06866930       -0.95588684       -1.92029227
 C           -2.28577386        0.42056356       -1.89319138
 C           -1.53452086       -2.66430245       -0.39630970
 C           -2.61115004       -1.80938228       -0.87230166
 C           -0.14745645       -2.35067069        1.58797521
 C            0.13066251       -1.21488711        2.45413189
 C           -1.41561534       -2.48340433        1.03952977
 C           -0.18964662        1.18208256        2.38050006
 C           -0.87935946        2.23117263        1.63825516
 C           -0.72138259       -0.11113677        2.42529545
 C           -2.34649944        2.16950233       -0.32500972
 C           -3.07972850        1.02046040       -0.83031760
 C           -2.13512402        1.97521992        1.10283482
 C           -3.25009176       -1.21387144        0.28776883
 C           -2.45325703       -1.55432508        1.45594739
 C           -2.06335476       -0.31400251        2.10700984
 C           -3.48361998        0.21816517        0.31090907
 C           -2.82435689        0.75871296        1.49022013




