%chk=000056.chk
%mem=8GB
%Nproc=32
#p B3LYP/6-31G* opt pop=NPA

Template file

0 1
 C            3.24950348       -1.43681248       -0.70815686
 C            3.26357843       -0.05054833       -1.13952676
 C            3.35001530        0.77841410        0.04768203
 C            3.05571581       -1.45097923        0.73279649
 C            3.16266628       -0.08302655        1.20666729
 C            1.84193018       -2.20166916        1.01050402
 C            2.09376088       -2.07503300       -1.31066022
 C            1.35165661       -2.73665057       -0.25385870
 C            2.14868744        0.15088198       -2.05244459
 C            1.39554433       -1.09140544       -2.12444471
 C            1.45772833        1.35308130       -2.02022410
 C            2.43849579        1.90174630        0.17333898
 C            1.70719716        2.30343984       -0.94129443
 C            2.08472194        0.47531972        2.00551457
 C            1.77542086        1.79017957        1.46748882
 C            0.93498880       -1.71575122        1.95050131
 C            1.05288450       -0.34846221        2.44762329
 C           -0.48097719       -2.01897700        1.80592194
 C           -0.01514472       -2.89427353       -0.43749444
 C           -0.91272893       -2.73562100        0.69335233
 C           -0.00134104       -1.07093570       -2.08082825
 C           -0.64070854       -2.19314064       -1.54523672
 C            0.02904770        1.34616985       -2.26917164
 C           -0.68724214        0.15213903       -2.18996370
 C            0.49073298        3.07160316       -0.74520859
 C           -0.52004272        2.53783315       -1.64495277
 C            0.50132851        2.32568010        1.64266878
 C           -0.08511858        3.13312749        0.58488520
 C           -0.28951697        0.19316654        2.59788734
 C           -1.23715880       -0.86248230        2.27745980
 C           -0.55641932        1.50540567        2.21785226
 C           -2.46506611       -0.54199564        1.70436004
 C           -2.23457115       -2.48313530        0.14194878
 C           -2.06312377       -2.17097601       -1.27229623
 C           -3.05586173       -1.44043618        0.72630504
 C           -2.06210072        0.22521480       -1.94208171
 C           -2.80039023       -0.96225384       -1.55413033
 C           -3.57425817       -0.63598852       -0.36691342
 C           -1.76664622        2.42705066       -0.90834353
 C           -1.49155237        2.78308624        0.47784056
 C           -1.80088173        1.82653609        1.53236446
 C           -2.73173512        0.82435123        1.27511273
 C           -2.59038078        1.33771029       -1.16226336
 C           -3.32263824        0.75841672       -0.05058102




