%chk=000051.chk
%mem=8GB
%Nproc=32
#p B3LYP/6-31G* opt pop=NPA

Template file

0 1
 C            3.55922074       -0.30360864       -0.72401047
 C            3.33002821        1.03687715       -0.21395616
 C            3.02618923        0.92908216        1.20090357
 C            3.24706260       -1.24334233        0.33981296
 C            2.93862862       -0.48293966        1.53580317
 C            2.24970138       -2.16981728       -0.16058672
 C            2.61788957       -0.53154483       -1.80676222
 C            1.81958933       -1.69745926       -1.47153094
 C            2.36461209        1.68967567       -1.08398146
 C            1.93773887        0.71797279       -2.08375852
 C            1.42704117        2.55393796       -0.52330049
 C            1.83067663        1.58300736        1.69920981
 C            1.23832774        2.57301354        0.92520894
 C            1.66333446       -0.71144016        2.19814033
 C            0.97797060        0.56630489        2.30474379
 C            1.28489901       -2.64771977        0.71694068
 C            0.92681153       -1.84621213        1.88674421
 C            0.04900022       -3.15136308        0.14870217
 C            0.45834881       -1.71110269       -1.78522998
 C           -0.35753481       -2.64840487       -1.15061231
 C            0.60373244        0.66916342       -2.47011794
 C           -0.11587028       -0.59896000       -2.41266920
 C            0.11377895        2.67930412       -1.13492298
 C           -0.31120066        1.72077694       -2.05133916
 C           -0.15465512        2.88649731        1.17764058
 C           -0.79295065        3.14683440       -0.10262958
 C           -0.40876309        0.64321961        2.13183647
 C           -0.96638776        1.89684968        1.86093108
 C           -0.52202230       -1.77477306        1.93928178
 C           -1.01784473       -2.83605370        1.07908365
 C           -1.15962617       -0.53040578        1.93711497
 C           -1.79669773       -2.44784309       -1.09677691
 C           -2.21190394       -2.59874403        0.29303619
 C           -1.52881548       -0.29156074       -2.22899778
 C           -1.64447217        1.13643121       -1.95019826
 C           -2.36149503       -1.20744968       -1.59479670
 C           -2.13624876        2.60006063       -0.03169898
 C           -2.29170361        2.00126565        1.28635060
 C           -2.55315124        1.60343868       -1.00136257
 C           -2.50430070       -0.46272822        1.55194782
 C           -3.03192956       -1.45333809        0.62910906
 C           -3.32465603       -0.74984279       -0.60850003
 C           -3.07599194        0.79907148        1.12986693
 C           -3.39636045        0.66386923       -0.28466940




