%chk=000022.chk
%mem=8GB
%Nproc=32
#p B3LYP/6-31G* opt pop=NPA

Template file

0 1
 C            3.59256865        0.49634266        0.90190601
 C            3.70450645        0.36326581       -0.54037878
 C            3.18781323       -0.94282577       -0.90592480
 C            2.97054542       -0.71315435        1.41443258
 C            2.82244916       -1.64608827        0.31567597
 C            1.78629723       -0.32718867        2.15973682
 C            2.69315725        1.60417190        1.17594494
 C            1.62335949        1.11534408        2.02994929
 C            2.83844527        1.36021931       -1.14599906
 C            2.33773843        2.22186343       -0.08773950
 C            2.17549932       -0.75114488       -1.93415480
 C            1.87564930        0.67148555       -1.99614209
 C            1.13375669       -1.66219793       -2.00821950
 C            1.70043627       -2.46383709        0.29298785
 C            1.03937927       -2.68830062       -0.98170740
 C            0.65208249       -1.13298773        2.10757504
 C            0.65196812       -2.27237471        1.29164227
 C           -0.55710257       -0.56336806        2.49463377
 C            0.33871831        1.63386914        1.86669650
 C           -0.73877802        0.86962020        2.32008056
 C            1.05429558        2.72793368       -0.22112234
 C            0.13489276        2.62591770        0.90302975
 C            0.54922657        1.10818976       -1.98939120
 C            0.27923763        2.33824001       -1.38379977
 C           -0.21255248       -1.17913233       -2.26153201
 C           -0.48905405        0.18839630       -2.21237934
 C           -0.36747883       -2.93104068       -0.71857641
 C           -0.59286782       -2.76391526        0.70693768
 C           -1.13761111       -2.12275528       -1.64655157
 C           -1.80728327       -1.22140277        2.16111147
 C           -1.80834276       -2.24066005        1.13035030
 C           -2.08363096        1.08791181        1.80296632
 C           -2.76979060       -0.19648088        1.78823541
 C           -1.19439446        2.84850256        0.35293846
 C           -1.08612457        2.72816508       -1.09653800
 C           -2.29430717        2.00740009        0.78088975
 C           -1.82393196        0.59342689       -2.13750808
 C           -2.15945485        1.87699281       -1.55380766
 C           -3.02748386        1.62036497       -0.41677550
 C           -2.39291514       -1.67715392       -1.25300154
 C           -2.80270616       -1.86283328        0.13324597
 C           -3.44584445       -0.63811001        0.58112221
 C           -2.82287369       -0.35362832       -1.66792253
 C           -3.52749412        0.26295713       -0.55291708




