%chk=000001.chk
%mem=8GB
%Nproc=32
#p B3LYP/6-31G* opt pop=NPA

Template file

0 1
 C            4.06460716       -0.18357811       -0.63441866
 C            3.85423675        1.22939822       -0.37970299
 C            3.48674024        1.37527236        1.01854548
 C            3.72794963       -0.91060053        0.58034980
 C            3.26652906        0.04629556        1.56430956
 C            2.83971548       -1.98611873        0.20173885
 C            3.11967961       -0.59677875       -1.65987014
 C            2.53761514       -1.83990210       -1.21898964
 C            2.71814476        1.65826634       -1.17871342
 C            2.23069411        0.51681027       -1.93390052
 C            2.21639169        2.07456176        1.06515615
 C            1.78273867        2.33271795       -0.29606380
 C            1.88669508       -0.01983071        2.03365133
 C            1.31689898        1.31001202        1.91183474
 C            1.56177575       -2.12994579        0.88092112
 C            1.07815177       -1.11734401        1.72318526
 C            1.10458354       -2.01622406       -1.35583210
 C            0.67537143       -2.66200882       -0.13436238
 C            0.84931317        0.31477434       -1.97591033
 C            0.31149455       -0.98054383       -1.85843468
 C            0.42517907        2.18352450       -0.55078026
 C            0.04193538        1.40124211       -1.64155974
 C           -0.04193538        1.40124211        1.64155974
 C           -0.42517907        2.18352450        0.55078026
 C           -0.31149455       -0.98054383        1.85843468
 C           -0.84931317        0.31477434        1.97591033
 C           -0.67537143       -2.66200882        0.13436238
 C           -1.10458354       -2.01622406        1.35583210
 C           -1.07815177       -1.11734401       -1.72318526
 C           -1.56177575       -2.12994579       -0.88092112
 C           -1.31689898        1.31001202       -1.91183474
 C           -1.88669508       -0.01983071       -2.03365133
 C           -1.78273867        2.33271795        0.29606380
 C           -2.21639169        2.07456176       -1.06515615
 C           -2.23069411        0.51681027        1.93390052
 C           -2.71814476        1.65826634        1.17871342
 C           -2.53761514       -1.83990210        1.21898964
 C           -2.83971548       -1.98611873       -0.20173885
 C           -3.11967961       -0.59677875        1.65987014
 C           -3.26652906        0.04629556       -1.56430956
 C           -3.48674024        1.37527236       -1.01854548
 C           -3.85423675        1.22939822        0.37970299
 C           -3.72794963       -0.91060053       -0.58034980
 C           -4.06460716       -0.18357811        0.63441866




