%chk=000052.chk
%mem=8GB
%Nproc=32
#p B3LYP/6-31G* opt pop=NPA

Template file

0 1
 C            3.54195866       -0.78008133       -0.42568238
 C            3.15992241       -1.05126146        0.95007148
 C            2.95408259        0.22406791        1.61183204
 C            3.36869860        0.64296521       -0.66200401
 C            3.09945983        1.27560148        0.61489310
 C            2.40558743        0.80738615       -1.73649858
 C            2.61333090       -1.48973302       -1.28751325
 C            1.90821833       -0.51432024       -2.10149346
 C            2.07383174       -2.01768276        0.92946568
 C            1.82979193       -2.38591089       -0.45955929
 C            0.99666516       -1.85502479        1.79800527
 C            1.70820788        0.45554040        2.32255573
 C            0.82270220       -0.60046651        2.52384445
 C            1.95110238        2.16022618        0.72875742
 C            1.19672267        1.75142463        1.90333285
 C            1.51610994        1.87362248       -1.68921541
 C            1.27066798        2.55567171       -0.42104295
 C            0.24314278        1.73530017       -2.36936089
 C            0.54479535       -0.70360125       -2.34264474
 C           -0.26034748        0.39959632       -2.63626933
 C            0.53493395       -2.67824128       -0.86812458
 C           -0.04467698       -1.91117218       -1.96193418
 C           -0.32099919       -2.33371972        1.40747900
 C           -0.51061441       -2.84421868        0.12667494
 C           -0.60372054       -0.33088914        2.62028124
 C           -1.31301322       -1.44512059        2.00208988
 C           -0.17026748        2.00212945        1.96486867
 C           -1.06810426        0.97253723        2.46560954
 C           -0.15003031        2.86136878       -0.34419220
 C           -0.76185829        2.44567034       -1.59592504
 C           -0.83589723        2.66121642        0.85016918
 C           -1.67561538        0.39267251       -2.28867438
 C           -1.96383008        1.62738036       -1.56578305
 C           -1.48991822       -2.00621531       -1.83346645
 C           -1.77803999       -2.63917580       -0.55375111
 C           -2.29068534       -0.79993843       -1.92305356
 C           -2.54485996       -1.24274909        1.38108940
 C           -2.81965826       -1.86801975        0.09907946
 C           -3.23643447       -0.81972065       -0.81957000
 C           -2.37571122        1.20885623        1.87966984
 C           -2.21198962        2.18648117        0.81453835
 C           -2.73757555        1.60085408       -0.40901282
 C           -3.12708283        0.08807812        1.34392175
 C           -3.44900241        0.38861553       -0.04345757




