%chk=000002.chk
%mem=8GB
%Nproc=32
#p B3LYP/6-31G* opt pop=NPA

Template file

0 1
 C            4.57396300       -0.72756898        0.44936736
 C            4.57396300        0.72756898        0.44936736
 C            4.27961951        1.16893523       -0.90529089
 C            4.27961951       -1.16893523       -0.90529089
 C            3.88925237        0.00000000       -1.67211692
 C            3.59845324       -2.35778984       -1.11210218
 C            3.11360757       -3.12623800        0.02634859
 C            4.04667809       -1.42122460        1.53330985
 C            3.27246113       -2.63256809        1.31153313
 C            3.42902955       -0.69335449        2.63058200
 C            4.04667809        1.42122460        1.53330985
 C            3.42902955        0.69335449        2.63058200
 C            3.27246113        2.63256809        1.31153313
 C            3.59845324        2.35778984       -1.11210218
 C            3.11360757        3.12623800        0.02634859
 C            2.56627533        2.40053111       -2.13102087
 C            2.67689742        0.00000000       -2.36463293
 C            2.02710835        1.20934941       -2.62028104
 C            2.56627533       -2.40053111       -2.13102087
 C            2.02710835       -1.20934941       -2.62028104
 C            1.83978683       -3.71379774       -0.35334634
 C            1.67828026       -3.49134564       -1.77776690
 C            0.73110250       -3.58379229        0.48251826
 C            2.12728790       -2.60269705        2.20378428
 C            2.22104650       -1.40284370        3.01300202
 C            0.87223468       -2.99475468        1.74637022
 C            1.05261744       -0.70007885        3.28682976
 C            2.22104650        1.40284370        3.01300202
 C            2.12728790        2.60269705        2.20378428
 C            1.05261744        0.70007885        3.28682976
 C            0.87223468        2.99475468        1.74637022
 C            1.83978683        3.71379774       -0.35334634
 C            1.67828026        3.49134564       -1.77776690
 C            0.73110250        3.58379229        0.48251826
 C            0.40218630        3.49855236       -2.30863481
 C            0.73228356        1.20889052       -3.14185016
 C            0.00357033        2.39929661       -3.16688582
 C            0.73228356       -1.20889052       -3.14185016
 C            0.08839899        0.00000000       -3.41132143
 C            0.40218630       -3.49855236       -2.30863481
 C            0.00357033       -2.39929661       -3.16688582
 C           -0.54558638       -3.79361864       -0.05129358
 C           -0.72346487       -3.78338819       -1.43412571
 C           -1.66417313       -3.62538026        0.75803409
 C           -0.25565817       -2.53188758        2.42263861
 C           -0.16228031       -1.38137506        3.21454524
 C           -1.49788966       -3.04673476        2.07585194
 C           -1.31397864       -0.72468850        3.63599006
 C           -0.16228031        1.38137506        3.21454524
 C           -0.25565817        2.53188758        2.42263861
 C           -1.31397864        0.72468850        3.63599006
 C           -1.49788966        3.04673476        2.07585194
 C           -0.54558638        3.79361864       -0.05129358
 C           -0.72346487        3.78338819       -1.43412571
 C           -1.66417313        3.62538026        0.75803409
 C           -1.44687883        2.35567771       -3.14912154
 C           -1.89090691        3.11759313       -1.99439461
 C           -1.26676841        0.00000000       -3.74627255
 C           -2.07889606        1.16702972       -3.45601516
 C           -1.44687883       -2.35567771       -3.14912154
 C           -1.89090691       -3.11759313       -1.99439461
 C           -2.07889606       -1.16702972       -3.45601516
 C           -2.87607335       -3.06370108        0.17971925
 C           -2.84580789       -2.58730746       -1.12954164
 C           -2.70839469       -2.31211597        2.39800692
 C           -2.61942611       -1.17535844        3.18670863
 C           -3.55947293       -2.31442592        1.21803331
 C           -2.61942611        1.17535844        3.18670863
 C           -2.70839469        2.31211597        2.39800692
 C           -3.41137244       -0.00000000        2.86026899
 C           -2.87607335        3.06370108        0.17971925
 C           -2.84580789        2.58730746       -1.12954164
 C           -3.55947293        2.31442592        1.21803331
 C           -3.19734879        0.72789551       -2.64067134
 C           -3.19734879       -0.72789551       -2.64067134
 C           -3.51867209       -1.40492660       -1.46576661
 C           -3.51867209        1.40492660       -1.46576661
 C           -4.27173270       -1.17617363        0.87433367
 C           -4.21913462       -0.00000000        1.72848433
 C           -4.27173270        1.17617363        0.87433367
 C           -4.26958722       -0.72781872       -0.50660272
 C           -4.26958722        0.72781872       -0.50660272




